2
0
Ar	-0.00029593600800443084	0.00017048394639317208	0.003186368360386167	0.012071476197039825	0.02102053381588025	-8.23991895530978e-05
Xe	-5.316476698951352e-05	-0.00011674195646037837	0.002788668301269843	-0.008208959283617014	0.0036764918581619504	0.0001282157959089459
2
200
Ar	-0.00011381079796881368	0.00032291768388066877	0.003185914997862844	0.02280499581272831	0.008167469226672427	-1.567806015245071e-05
Xe	-0.0001158298086747934	-5.466239905303454e-05	0.0027898104163069813	-0.0038052892914645564	0.008199285138735963	8.180844404520488e-05
2
400
Ar	0.0001227566380130615	0.0003206314481183921	0.003185791706131338	0.022528908619527114	-0.00858578641371513	-9.660320657944637e-06
Xe	-0.00012308528912049205	3.356230852722822e-05	0.0027902203689845638	0.0024291994559806273	0.008696726541855734	-6.72187811959131e-06
2
600
Ar	0.00030011988044178627	0.00016503089401435423	0.003185656676061346	0.011465511245095195	-0.02123326345098304	-1.1775394887366247e-05
Xe	-7.13831226442969e-05	0.00010516474173522345	0.0027896530971851827	0.007466188934575438	0.005000826942500093	-0.00010445091845120262
2
800
Ar	0.0003337565141946174	-6.945898559412531e-05	0.003185831508960069	-0.005023844569835701	-0.023716719920267502	3.787516685278634e-05
Xe	1.4484743902537446e-05	0.00012591010537303318	0.0027883687279021073	0.008949816006428527	-0.001032998669972273	-0.00012603063913959738
2
1000
Ar	0.00020775759763753856	-0.00027047175867418954	0.003186351346557677	-0.01913882727211818	-0.01479710914152224	4.6043271180647985e-05
Xe	9.341571101327785e-05	8.64316334535311e-05	0.00278718105662725	0.00616186187707918	-0.0065593224233757375	-0.00010305207980737725
2
1200
Ar	-1.7900753190367742e-05	-0.0003412011891904123	0.003186868168458758	-0.024065799349948888	0.0012222476465353117	5.3246934222777295e-05
Xe	0.00012748701216259582	5.526746424149866e-06	0.002786408257981838	0.00036975164643978547	-0.008935655986041346	-4.6650001203032136e-05
2
1400
Ar	-0.00023467818339731827	-0.000247931282057166	0.003187138449218657	-0.01745900511740852	0.01664369452081971	1.7827124496245595e-05
Xe	0.00010006719974449517	-7.81000145929746e-05	0.0027866837219600793	-0.005621939167556501	-0.007088504573807661	0.00011460970799810235
2
1600
Ar	-0.00033891449325254146	-3.553948400925295e-05	0.003187071306175777	-0.0024997336166036888	0.024060462024199956	-1.4061676796724946e-05
Xe	2.444565444463007e-05	-0.00012462273688232915	0.002788111659613066	-0.008871930992933309	-0.001832822066013883	0.00017976819958541134
2
1800
Ar	-0.00028059064797616865	0.00019411944618134068	0.0031869445223127405	0.01369425314352168	0.01994077170022012	-2.687731539395283e-05
Xe	-6.273912944245735e-05	-0.0001116048294057895	0.0027896918528282472	-0.007841012524359486	0.004317806302327393	0.00012845208641893566
2
2000
Ar	-8.751834995164966e-05	0.0003306776774082941	0.003186294088143186	0.02330012483367021	0.006224116663924092	-6.0919741657963665e-05
Xe	-0.00011948740770239108	-4.509900784925033e-05	0.0027907350010380836	-0.003053698107547708	0.008415087811350731	6.631334729182147e-05
2
2200
Ar	0.00014777260010704395	0.0003086214963367737	0.0031856171766039706	0.02176988342977848	-0.01043385084055201	-6.876376672451895e-05
Xe	-0.00011891030753256185	4.265233418162097e-05	0.0027906797976808566	0.0031537255754974128	0.008405856313268447	-8.231920162992026e-05
2
2400
Ar	0.00031253534577502175	0.00013906917139352995	0.0031852620229796203	0.009790046681803303	-0.022039258892961208	-6.890491275459121e-06
Xe	-6.14533411155532e-05	0.00010954111181073737	0.0027890939057983407	0.007835638207774843	0.004404366198613737	-0.00020219496075927769
2
2600
Ar	0.0003277803202767406	-9.672395454701182e-05	0.003185894758280428	-0.0068574203149973055	-0.023135596448604513	0.00010080607379645756
Xe	2.4993720688141475e-05	0.00012384383082836913	0.002787072278198067	0.008751906662469578	-0.0016759514401933101	-0.00020144036962931635
2
2800
Ar	0.0001862526015567631	-0.000286082045232352	0.0031865984374511813	-0.020283135245556375	-0.013122686695537698	6.919959901665668e-05
Xe	9.942062798886879e-05	7.859147097363853e-05	0.0027854997673915378	0.005507184477474534	-0.007018259080115122	-6.84538469844128e-05
2
3000
Ar	-4.460183193482677e-05	-0.00033767460852388085	0.003187027543461489	-0.02393853100972182	0.0032391126067868566	9.430952948700127e-06
Xe	0.00012619661600563617	-4.925649121654221e-06	0.0027857632894166947	-0.0003783852325076546	-0.008990894352668949	0.00013260841504394538
2
3200
Ar	-0.000253590932735718	-0.00022687183457790084	0.0031869662019752085	-0.016103144202106966	0.017999426532264315	5.054924421878192e-07
Xe	9.247032593069563e-05	-8.642442036368465e-05	0.002787645831764157	-0.00608016421245827	-0.006612908857262673	0.00021853758490393568
2
3400
Ar	-0.0003405679719728313	-7.141561211003344e-06	0.003186889385084319	-0.0005500865922748619	0.024108954890129458	-3.435889260556054e-05
Xe	1.4387542217093146e-05	-0.00012640719122758844	0.0027899234780674586	-0.00884045054430964	-0.0010371228285341993	0.0001910010349108973
2
3600
Ar	-0.00026401987716825757	0.00021599390020290602	0.0031866652325375313	0.015227345624915518	0.01863302905918538	-1.6829887984455848e-05
Xe	-7.025536124665382e-05	-0.00010572949320725895	0.0027913277569029554	-0.007353740859555828	0.0050052294675829966	6.963469510160973e-05
2
3800
Ar	-6.088507943186578e-05	0.00033548142343498737	0.0031864815223551844	0.023689402912298492	0.0042641767315774685	-8.889230285495292e-06
Xe	-0.00012082430315140229	-3.4706729886005696e-05	0.002790907807586637	-0.002351134361513393	0.008592372982675546	-0.00012671418990778255
2
4000
Ar	0.0001714788712992629	0.0002944544500214447	0.0031866228788376893	0.02083899697588081	-0.012130130124436483	3.3386310557464776e-05
Xe	-0.0001137638623289147	5.2264021479030095e-05	0.0027889882517735873	0.0037060071503122985	0.008072712774202361	-0.0002442001666666332
2
4200
Ar	0.00032193486352360273	0.00011244482188770443	0.0031868422440473705	0.007985792580538362	-0.022752505072999387	-7.878936118051086e-07
Xe	-5.253402687074257e-05	0.00011399639312996895	0.002786793686895886	0.008024633143657957	0.003725943128995714	-0.00020295865831523993
2
4400
Ar	0.0003180897103145619	-0.0001235911305842001	0.003186888363377225	-0.00872853946615141	-0.022474627169874063	1.098892792954041e-05
Xe	3.405919496369536e-05	0.00012082259331420193	0.002785402887420643	0.00855327314490021	-0.002430837568594634	-5.4352457093631965e-05
2
4600
Ar	0.00016180955035273106	-0.0003004525664175271	0.0031868692983788686	-0.021218338026457024	-0.011408398398415372	-2.1201255938736705e-05
Xe	0.00010452644048549073	6.951238244609445e-05	0.0027855524162720955	0.00492513706856354	-0.007405540069668328	6.920248912528476e-05
2
4800
Ar	-7.181578465649358e-05	-0.0003330385163344965	0.0031865124262474044	-0.02354542880699658	0.005174175492993533	-3.2395160001588094e-05
Xe	0.00012439361215977042	-1.5293271295970793e-05	0.0027868216578909445	-0.0010979659253638095	-0.008829889597942092	0.00015495819257901685
2
5000
Ar	-0.0002710268299854413	-0.00020561107198613748	0.003186227716010834	-0.014596236939617795	0.019210424498663625	-3.7701026787566106e-05
Xe	8.468268406556712e-05	-9.272245985777652e-05	0.002788275633838223	-0.00651237644264335	-0.006007186472547708	0.00011559812167950692
2
5200
Ar	-0.0003400910192073451	1.997072958697024e-05	0.003186360310622756	0.0013426152910904934	0.024014938506731573	2.994093859748517e-05
Xe	4.45799080953812e-06	-0.0001256378198972764	0.0027889893538456277	-0.008834111525157076	-0.000286821799657744	5.178981954615294e-05
2
5400
Ar	-0.00024624813397364724	0.00023548325554935033	0.0031866232793831585	0.016623446341988868	0.017283447669955366	2.2552564260007337e-05
Xe	-7.762896370293796e-05	-9.815882845405829e-05	0.002789281128048716	-0.0069256771757860314	0.005533896224148368	3.558766360291299e-05
2
5600
Ar	-3.4514952354971524e-05	0.00033803687417290594	0.00318698286636279	0.023948543813745133	0.002334556853801766	2.5744328894307235e-05
Xe	-0.00012243726936030948	-2.3954496042823165e-05	0.0027892475535970427	-0.001695564015456076	0.008694634810900966	-3.91314448849391e-05
2
5800
Ar	0.0001938297279661603	0.0002785249203807123	0.003187002479342866	0.019808224145806737	-0.013732790928984013	-3.799567990622925e-05
Xe	-0.00010883529781160602	6.165498648337162e-05	0.0027885295484767537	0.004309789769489745	0.007711446940671608	-0.0001159187676551675
2
6000
Ar	0.00032928323457139403	8.554881180563579e-05	0.003186944529923323	0.006140373662236795	-0.023245773665513097	-2.229778287071417e-07
Xe	-4.324460706104535e-05	0.00011795413150977627	0.00278713403205162	0.008250269854796394	0.0030498557747490776	-0.00014594186367953318
2
6200
Ar	0.00030659665185827354	-0.0001484809747517717	0.0031870201657065813	-0.01049312111053419	-0.021569179601054277	-7.595774799572896e-06
Xe	4.3134722126213844e-05	0.0001177495827362142	0.0027862372984605176	0.008291390272494715	-0.003099137438624011	-4.250850519283856e-05
2
6400
Ar	0.0001366593953484073	-0.00031100221310874186	0.003186843441348789	-0.022042162387628933	-0.009566183095713256	-3.0889046213342454e-05
Xe	0.00010904589235056563	6.097152988353683e-05	0.00278622669456524	0.004316280158387342	-0.007770907824286484	4.7962714601143144e-05
2
6600
Ar	-9.83887164411279e-05	-0.0003243443847726211	0.003186769006990167	-0.023006120789015528	0.007009951640146136	3.490338601499122e-05
Xe	0.00012247352066618365	-2.474981782622987e-05	0.0027870346421946545	-0.0017440212113952898	-0.008677528692483295	0.00010188561918374654
2
6800
Ar	-0.0002863359858660514	-0.00018231309809520145	0.0031871513866755597	-0.012999068342068086	0.020211662842734734	2.5796794406103367e-05
Xe	7.739518259694885e-05	-9.855468125820875e-05	0.002788143515217396	-0.006898165053681162	-0.005470770987087638	0.00010128591037259058
2
7000
Ar	-0.0003372599784321977	4.6919784446795515e-05	0.0031873017646075735	0.003252303798462396	0.023712368197853183	-1.4303425461558334e-05
Xe	-4.738427326988654e-06	-0.0001252943890364292	0.002788879902144197	-0.008837854769440538	0.0003580211267631704	5.278203592529481e-05
2
7200
Ar	-0.00022688818137998063	0.0002535010034084323	0.0031868722477650852	0.017901085929123713	0.015891654143276757	-4.6751794564099655e-05
Xe	-8.466993405222029e-05	-9.17488648233784e-05	0.002789053874553442	-0.006478533797161856	0.006038854349302525	1.0656389645798907e-05
2
7400
Ar	-7.91256792340475e-06	0.0003386360131152155	0.003186501142134484	0.02406489004316915	0.00040500798067402206	-1.895904777143532e-05
Xe	-0.00012372137110009505	-1.4524403460860726e-05	0.0027887768091694977	-0.0010274668570033599	0.008780935458055575	-5.961136928284895e-05
2
7600
Ar	0.0002152087423947651	0.00026145753628956336	0.0031866346519511964	0.01865801736703866	-0.015185760902989325	3.0220321505451292e-05
Xe	-0.00010355350092418778	6.950991751381956e-05	0.002787716592656453	0.004891556575945247	0.007317222048422555	-0.00012955491163412148
2
7800
Ar	0.00033506752399973643	5.953015454015205e-05	0.003187030448281079	0.004293739307814791	-0.02353171700386623	2.1408884331245648e-05
Xe	-3.371336484326408e-05	0.00012045055075566571	0.002786668532085231	0.008475733746505423	0.0024372290994012194	-8.542909909760279e-05
2
8000
Ar	0.00029395902958542357	-0.0001707068795608793	0.00318721092680611	-0.01216056475668874	-0.020596607235141638	-2.8684580608078615e-06
Xe	5.2331844800210944e-05	0.00011376298862793974	0.002786291608580415	0.008013316300856724	-0.0036901989801883146	-7.826247621711257e-06
2
8200
Ar	0.00011183863602519289	-0.0003190945145305296	0.0031870399586553734	-0.022736545608946286	-0.007858714854789875	-1.1388761541293115e-05
Xe	0.00011355965511131275	5.2476630518632216e-05	0.002786381667539121	0.0037003060975676853	-0.008053461646344925	2.7463391466988567e-05
2
8400
Ar	-0.00012389666064117658	-0.000314883485431804	0.003186991328420582	-0.0224074857363588	0.008674701663158028	-1.5218034969758948e-05
Xe	0.00012041016051765821	-3.405672771238605e-05	0.0027868361464995985	-0.002403199524540246	-0.008526095887682295	6.557627932897607e-05
2
8600
Ar	-0.00029989979713190433	-0.00015964350795297276	0.0031867505231757205	-0.01132278743265974	0.02104357217017656	-3.26028262125002e-05
Xe	6.918730514291006e-05	-0.00010423293686412637	0.0027875480496772492	-0.007404216402299695	-0.004899086117880151	5.3934787263873716e-05
2
8800
Ar	-0.00033222292569612985	7.1976213583757e-05	0.003186692603802369	0.0051151461067391185	0.02332674682170244	2.698376649133229e-05
Xe	-1.557859615251656e-05	-0.00012402205763722174	0.0027881662929698	-0.008834956660715012	0.0010883958837826562	4.512773566381293e-05
2
9000
Ar	-0.00020593795290873204	0.0002691014798971082	0.003186993908738962	0.01909863593361658	0.014436595864661646	4.079457577210714e-05
Xe	-9.301925671591224e-05	-8.454993917246635e-05	0.0027885028383958683	-0.006000627166459472	0.006477247741109268	-7.233464844561553e-06
2
9200
Ar	1.8937481999868124e-05	0.00033743963144143514	0.0031876478583047554	0.023985918982267533	-0.0013485672871236267	6.560073196393453e-05
Xe	-0.00012585045793076942	-4.661824723867483e-06	0.0027882021771557875	-0.0003001346611064359	0.008835491390275743	-6.536400263856606e-05
2
9400
Ar	0.0002347581681889606	0.0002443007292890318	0.003188055611630096	0.01738808834837931	-0.016523371275811997	1.3175631399931518e-05
Xe	-9.832400583523894e-05	7.745597735097299e-05	0.0027875907376121987	0.005555582071957403	0.006904985472633852	-3.750009214586528e-05
2
9600
Ar	0.00033816872757302154	3.408238788138425e-05	0.0031875340858944098	0.002420676627596891	-0.02377799167349536	-0.00012022143435355837
Xe	-2.3427200348769423e-05	0.00012251426398898014	0.0027875438613605657	0.008772161031539591	0.001742311443653535	2.7288530421383428e-05
2
9800
Ar	0.0002793842751837857	-0.00019262902804809324	0.003186562892219165	-0.013686895391927504	-0.019648436628249416	-6.801789059522744e-05
Xe	6.277870429536889e-05	0.0001089533640867452	0.0027876920243814106	0.007732030550843198	-0.004323542857428435	7.686877157254011e-07
2
10000
Ar	8.665467456009954e-05	-0.0003272222891068856	0.0031861148609038663	-0.023237684450420504	-0.006119995037067096	9.310006890678992e-06
Xe	0.00011874906844609495	4.326946177963479e-05	0.0027878643544387263	0.0029992028028590066	-0.008255261035937487	3.914761134801063e-05
2
10200
Ar	-0.0001477065823755441	-0.00030511159211988665	0.003186722866708039	-0.02164285899658833	0.010361659967981116	0.00010077108013697684
Xe	0.00011789137325658062	-4.29674021390615e-05	0.0027878383673446477	-0.0031418887289338107	-0.008268044205456829	3.1209751860833225e-06
2
10400
Ar	-0.00031119396384055834	-0.00013668303256205114	0.0031874497256785318	-0.009673435524582986	0.021900943952945	3.771131295868365e-05
Xe	6.075187477161169e-05	-0.00010846731693559421	0.002787648630336158	-0.00783027260134795	-0.0042823863361866246	-2.364391857731323e-05
2
10600
Ar	-0.00032530357910136667	9.728934688144979e-05	0.0031875646451368523	0.006944743199335538	0.022915316995904784	4.645219147145749e-06
Xe	-2.5859840004517286e-05	-0.00012187454311277389	0.0027873465819462278	-0.008769942663222948	0.0016895784706997612	-5.645798590885484e-06
2
10800
Ar	-0.00018355920054475248	0.0002844823335602595	0.003187329872198938	0.020214632333712765	0.012957635985313961	-4.145833059625802e-05
Xe	-0.00010027634015900055	-7.698596800130731e-05	0.002787186866092484	-0.005499072569108359	0.00691686009525035	-2.9288547223298608e-05
2
11000
Ar	4.606624278380699e-05	0.000335356221429812	0.003186806517868871	0.023777354444937223	-0.0031928320891615137	-6.517134210415667e-05
Xe	-0.0001268053387270716	5.052270754287115e-06	0.002787030783299725	0.0004069933299090935	0.008841656127443455	2.9695062522117264e-06
2
11200
Ar	0.0002532382739107684	0.00022594496132874312	0.003186006154685255	0.015926092470847676	-0.01777306435635929	-5.956746666448249e-05
Xe	-9.271081024796258e-05	8.516102640272046e-05	0.0027871033086464764	0.006135841876639834	0.006493576461774789	2.9064362899617158e-05
2
11400
Ar	0.00033890489547436063	8.608964708532527e-06	0.003185861551576178	0.0005178804523093162	-0.023872980239694225	3.3296759504667045e-05
Xe	-1.4554928459774581e-05	0.000124578805456983	0.0027872769227533668	0.008857272492606583	0.001039362530566915	7.277189831689877e-07
2
11600
Ar	0.0002626566180426254	-0.00021285583724704572	0.003186478693420963	-0.015136877404460855	-0.018570760939802578	9.194700797037782e-05
Xe	7.018376476741459e-05	0.00010438780637021355	0.002787499127992506	0.007370950605808467	-0.004905247797518408	3.0994385591889976e-05
2
11800
Ar	6.100447042811446e-05	-0.0003324064607398406	0.0031873759379242683	-0.02352359811072047	-0.004335206865055702	9.357282955846129e-05
Xe	0.00012112832092815189	3.451032850687189e-05	0.002788015419402157	0.0024018471081440882	-0.008468850893080868	6.285870708431135e-05
2
12000
Ar	-0.00016955158451237336	-0.00029241886606246184	0.0031878615280427356	-0.020664037956466312	0.011988275115031711	-3.7209863418455065e-06
Xe	0.00011413803181217947	-5.1517571885049795e-05	0.002788653258831563	-0.0037611826128650097	-0.008004119098284758	4.287451939256418e-05
2
12200
Ar	-0.00031879408846270955	-0.00011234380790444184	0.003187541411768293	-0.007940363536583402	0.02251123262456555	-6.865260794767582e-05
Xe	5.200306132375969e-05	-0.00011273214299748934	0.0027885593684712365	-0.008134755699504424	-0.003731536996917576	-8.239622485787486e-05
2
12400
Ar	-0.0003155933065326506	0.00012138126013966302	0.0031866961592998625	0.008551975392989419	0.022246228694947693	-7.596289141981768e-05
Xe	-3.5092550383025046e-05	-0.00011979601137407264	0.0027874399429189387	-0.008579601380378792	0.0023987046118962322	-0.00010290617651259642
2
12600
Ar	-0.00016128178605652734	0.0002969820922232936	0.003186285185927811	0.021010625328427665	0.01137694256802382	1.3511949046201386e-05
Xe	-0.00010537723407951208	-6.889583273359228e-05	0.00278649050235332	-0.004893359981964409	0.007347443105921618	-0.0001042729738890971
2
12800
Ar	7.041714799870963e-05	0.00033049490487789405	0.0031867820500561706	0.02339173255431153	-0.004940583052405928	7.902731701222139e-05
Xe	-0.00012505841714077529	1.5047369756758886e-05	0.00278578284920519	0.0011004347844799645	0.00872417458946563	-2.4669769686177563e-05
2
13000
Ar	0.0002685599561642299	0.00020584567947331964	0.0031879516108511067	0.014563119461623482	-0.018947718846978188	0.00011637944124555238
Xe	-8.49266340195754e-05	9.169329032089812e-05	0.002785927338161444	0.00658635615656341	0.005959241023521156	4.808074467452254e-05
2
13200
Ar	0.000338125193129353	-1.746958899337194e-05	0.003188809568276912	-0.001246495194058497	-0.023832968977334477	4.22055134639117e-05
Xe	-3.709914276044277e-06	0.00012446152492432279	0.0027868395128947117	0.00895414481803517	0.00031438051891117397	0.00010604000133017957
2
13400
Ar	0.0002455031051110207	-0.0002321166639024945	0.003188822102487664	-0.01650874867381153	-0.017305575934402483	-1.4583846228736355e-05
Xe	7.958879234579202e-05	9.75217262764794e-05	0.0027881101584058808	0.007007780163877997	-0.005466376036706393	0.00011592863012758331
2
13600
Ar	3.4725430021567864e-05	-0.00033559262881651254	0.003188313649397606	-0.023836107142236104	-0.0025498469299154135	-7.671141027685182e-05
Xe	0.00012497813930778477	2.3605280963741264e-05	0.002788996629563955	0.0016786201058472882	-0.00869193176584207	5.832467510532674e-05
2
13800
Ar	-0.00019263223909040577	-0.00027858381038938255	0.0031873976909600112	-0.019720518743439098	0.013468540917158697	-9.386440974441075e-05
Xe	0.00011057221232031579	-6.175264065978775e-05	0.0027892080220838418	-0.004441353290388635	-0.007639495064293256	-1.7433423385188376e-05
2
14000
Ar	-0.00032774736450261486	-8.825279102873116e-05	0.003186617932565755	-0.006163839417081669	0.022998053247671686	-7.120366253312685e-05
Xe	4.347998556369564e-05	-0.00011705869155356889	0.002788685847852687	-0.008433041726285898	-0.0029701213694081526	-6.470771220692094e-05
2
14200
Ar	-0.00030585084680417006	0.0001441428260357597	0.0031859885264655372	0.010351665318012281	0.02154408431867052	-4.555180219020452e-05
Xe	-4.448909377063261e-05	-0.00011644198745339242	0.0027878528137594534	-0.008411756296536862	0.0030981390120019686	-9.162454898620627e-05
2
14400
Ar	-0.00013751923854250366	0.0003075333243128363	0.003186072529622037	0.02188909083846661	0.009782863847028134	6.715962252020486e-05
Xe	-0.00011117185200067881	-6.019047976585111e-05	0.0027870079970999536	-0.004355801019946714	0.007677790112878343	-7.960094872638497e-05
2
14600
Ar	9.666694529581661e-05	0.0003238046541242431	0.003186984382908739	0.022971252129942762	-0.006690546313542678	0.00011799244313121392
Xe	-0.00012467505926230997	2.485454703810764e-05	0.002786184371462003	0.0017833138563312365	0.008607330248397379	-5.632566931899496e-05
2
14800
Ar	0.00028449244344228974	0.00018483532287993015	0.0031880152629790008	0.01298954880538628	-0.019932655260974562	8.797596605896183e-05
Xe	-7.856971145112719e-05	9.815510531756478e-05	0.002786221053337276	0.007058088001618347	0.005433119330945803	7.575197504643084e-05
2
15000
Ar	0.00033563273808387547	-4.2493554265315984e-05	0.003188393407731542	-0.003199519849735934	-0.02361376762510966	-7.248182948358056e-06
Xe	5.410164102119602e-06	0.00012451242980971458	0.002787395634446109	0.009010476767382383	-0.00038349449619794554	0.00013138653119491983
2
15200
Ar	0.00022603009992929355	-0.0002492286538225606	0.00318812340339307	-0.01781726212519062	-0.01600767962555739	-3.197049067463445e-05
Xe	8.688005894635503e-05	9.122383388752861e-05	0.002788621763924681	0.006600319709444677	-0.005996256650867572	6.791521347101616e-05
2
15400
Ar	8.092818833766322e-06	-0.00033686445010069395	0.0031875369769875025	-0.02393752482731382	-0.0007830181296590822	-6.723589359169329e-05
Xe	0.00012662419379686347	1.4105821038043411e-05	0.0027888749473937466	0.0010258939563758255	-0.008757189233349455	-8.72029026587111e-06
2
15600
Ar	-0.0002138748326218955	-0.0002633309599557342	0.0031867995413016547	-0.01859206886378861	0.014880759289025604	-5.7525406155155294e-05
Xe	0.00010615540976257206	-6.942666365340515e-05	0.002788697139308813	-0.004971871775056501	-0.007280592437962722	-4.6158523749307346e-05
2
15800
Ar	-0.00033340669581994405	-6.354647703366138e-05	0.003186387440887085	-0.004301422488870413	0.023411914832310966	-2.5492929034521804e-05
Xe	3.498439640736168e-05	-0.00011944183816547101	0.0027879163607436833	-0.008646153112038955	-0.002335157976733391	-0.00010655635322743186
2
16000
Ar	-0.0002930518428767567	0.00016672267427369534	0.0031864895365766098	0.01202892357781669	0.02071733108280949	5.936247207179306e-05
Xe	-5.2774221754666685e-05	-0.00011251039767821483	0.0027866466607099675	-0.008173354776609907	0.003682741747041255	-0.0001425416411246727
2
16200
Ar	-0.00011235262365330608	0.0003169561582689495	0.00318743251067609	0.02260384012386164	0.008083865250437422	9.859419560262246e-05
Xe	-0.00011518002207471989	-5.1801822740875334e-05	0.002785292873554249	-0.0037851856238728552	0.007934050458491238	-9.781299830547341e-05
2
16400
Ar	0.00012235522061059974	0.000315146273308524	0.0031884450172396336	0.022338715897925878	-0.008427666323218369	9.345138945835686e-05
Xe	-0.00012214067512111013	3.371205130709617e-05	0.002785075397964919	0.0024383011806358955	0.0084555661824119	6.613054165283172e-05
2
16600
Ar	0.00029805903690993056	0.0001620785316901967	0.00318873735081098	0.011338430579546662	-0.020889654236956674	-3.5125561456011776e-05
Xe	-7.006914478743014e-05	0.00010374190953898255	0.0027862627904013107	0.007516037691092771	0.004941306989387611	0.0001767879803259059
2
16800
Ar	0.00033082323068837297	-6.874394824024372e-05	0.003187868743456841	-0.005053135887805313	-0.02332771425303923	-0.00010007601252621937
Xe	1.5802014155965488e-05	0.0001241852104681696	0.0027882469173195253	0.008932952043815175	-0.0010200079592747623	0.00017416176554142543
2
17000
Ar	0.00020523265980821443	-0.0002669467005445887	0.0031868674788681772	-0.019008326988727287	-0.014644741818240737	-0.0001086950008261206
Xe	9.4079069698975e-05	8.513689628364505e-05	0.0027895946281814928	0.006044022685720882	-0.006474587856989193	7.709369773919081e-05
2
17200
Ar	-1.8521234823006635e-05	-0.0003380027868435737	0.003186242448384929	-0.023863191403499275	0.0010307801287902782	-1.1776041475896465e-05
Xe	0.00012699044322374327	5.485939661138377e-06	0.002789641245266517	0.00023596156403939502	-0.008791582408697424	-4.771433505701897e-05
2
17400
Ar	-0.00023341510365105977	-0.0002477989880282582	0.0031865618566365656	-0.017280151849777364	0.016249312117594065	7.405068689629468e-05
Xe	9.881156792599084e-05	-7.650619292191251e-05	0.0027887947773257427	-0.005633420908068808	-0.006905880295347608	-0.00011656519218924021
2
17600
Ar	-0.00033623111111516025	-3.941839122386435e-05	0.0031872102539716304	-0.0024391231960906442	0.023715612269487346	4.9172229318729224e-05
Xe	2.3333309435009352e-05	-0.000121858639603696	0.002787400115755438	-0.008826837347211907	-0.0017730117154306556	-0.00013023866322592987
2
17800
Ar	-0.00027813104716959655	0.00018786485016501889	0.00318791234588884	0.013541889914502492	0.019844820739643956	7.53967348981413e-05
Xe	-6.335845225254108e-05	-0.00010889534899442915	0.0027859512457690063	-0.007771717140035449	0.004267454047573371	-0.00012061224448959574
2
18000
Ar	-8.712085995421056e-05	0.0003250036359731571	0.0031886391372411005	0.023068307374237925	0.0064236916218493615	3.656502368311702e-05
Xe	-0.0001195658791842468	-4.343711091176024e-05	0.00278508638492407	-0.0030048985700990506	0.008282595235888462	-6.024148949454518e-05
2
18200
Ar	0.00014580697330637552	0.0003058480432963418	0.0031885745451215963	0.021552585530075857	-0.010092551180278032	-6.402707007470726e-05
Xe	-0.00011823336060416291	4.3408894071833714e-05	0.002785072246676584	0.003250731023241888	0.008351024018782079	8.155207268193603e-05
2
18400
Ar	0.00030875092324293273	0.0001396868326951969	0.003187442043345661	0.009666146727247242	-0.021743916780446702	-0.00012320160673040642
Xe	-5.992616986410335e-05	0.0001099725874493942	0.002786463066324618	0.007928678571762824	0.004371905080112045	0.00017471435607939253
2
18600
Ar	0.0003237911920053397	-9.34644303846296e-05	0.003186572386877506	-0.006807963854022548	-0.022964394004117247	-3.100187571925346e-05
Xe	2.7340993763297058e-05	0.0001238703217063658	0.0027882928896778188	0.008790269151823791	-0.001681897800667763	0.00015280299237106236
2
18800
Ar	0.00018362504157884253	-0.0002822032257593169	0.0031867408826523123	-0.020055138052228392	-0.013196440101242565	7.108127048021171e-05
Xe	0.0001015118226910955	7.863474230876852e-05	0.0027893257429007488	0.005408808578179538	-0.006954098387175032	4.255458162031446e-05
2
19000
Ar	-4.4939584312335134e-05	-0.00033616657155976685	0.0031876129695946735	-0.023730691842869554	0.0028843339261640987	7.35878517524332e-05
Xe	0.0001267378529402164	-4.038999305914497e-06	0.0027891395406183708	-0.0005649392082796322	-0.008884529109188813	-5.363448009774573e-05
2
19200
Ar	-0.0002519578112705778	-0.00022895338486786908	0.003187980338727357	-0.01594000678983983	0.017653097353111324	6.262597817534524e-06
Xe	9.127123616516112e-05	-8.466461704138892e-05	0.0027882581217759253	-0.006247994402183996	-0.006559230217883743	-8.962504248916217e-05
2
19400
Ar	-0.0003381200522350037	-1.1876526025000882e-05	0.003187809439283215	-0.0005761690310019091	0.023948512350950038	-3.525880995818091e-05
Xe	1.1797564289453208e-05	-0.0001246977648684795	0.002787366762056826	-0.008983994506171702	-0.0011170425050235251	-0.00011087099166922779
2
19600
Ar	-0.000262603702340788	0.0002111023551926462	0.00318746153407887	0.015068627578375644	0.018766122433112216	-1.0768198266537268e-05
Xe	-7.359861337942902e-05	-0.00010515848952798629	0.0027861345190148216	-0.0073943596599390215	0.004854203282775329	-9.70417058955972e-05
2
19800
Ar	-6.124215895348416e-05	0.00033302290179268077	0.0031874060107571155	0.02351372772438609	0.00455993478759842	-9.281113520058218e-06
Xe	-0.00012367747686980578	-3.536746604440303e-05	0.0027855387052533064	-0.0022150955814290267	0.008532462004705825	3.7348249657584414e-06
2
20000
Ar	0.00016951506370277186	0.00029486822504503745	0.003187170050625713	0.020702257644400274	-0.011879674958314606	-4.754850093457445e-05
Xe	-0.00011428361260712763	5.1651735602200426e-05	0.0027862716554274804	0.004012405867810924	0.008132965534905471	0.00011174019653426993
2
20200
Ar	0.000318979129223492	0.00011521809920157563	0.003186659478934113	0.00797544443809718	-0.022546572539933408	-5.230922956766923e-05
Xe	-4.992939814863648e-05	0.00011388310567269583	0.0027877910056217452	0.008326341714397842	0.003804313857536395	0.00014779667658716708
2
20400
Ar	0.0003157878485069588	-0.00011956042368751514	0.003186636231417368	-0.008589050742804756	-0.02245222532969431	4.1672183335827385e-05
Xe	3.8284831846274014e-05	0.00012147378432527959	0.0027891035340697422	0.00856400767921058	-0.0023482036172851628	8.227049963034905e-05
2
20600
Ar	0.000161216525399285	-0.00029745055485512527	0.0031874944210275647	-0.021027160923767794	-0.011611811304903583	0.00010102233551315271
Xe	0.0001073769729171685	7.09391710233603e-05	0.0027893119287562673	0.004687357757904568	-0.007332543768967436	-5.84449918552746e-05
2
20800
Ar	-7.047513418044985e-05	-0.00033277955517231134	0.0031884343914094933	-0.023390370846045686	0.004837304294999808	6.31418531402119e-05
Xe	0.00012495719359542146	-1.3775396415279869e-05	0.0027884838605089766	-0.0013469125158762085	-0.0088903928951645	-9.011432807399746e-05
2
21000
Ar	-0.00026835288316057264	-0.0002085713434426279	0.003188481962443463	-0.01453735807740761	0.018942350795048607	-3.490235401606189e-05
Xe	8.276872706625076e-05	-9.207726310667708e-05	0.0027873264520128947	-0.006759450821317905	-0.006102291408135507	-0.00010087304334383955
2
21200
Ar	-0.00033781327451974224	1.531767558627103e-05	0.0031876889248090203	0.0012169179129864602	0.023974362245605427	-8.24393929929668e-05
Xe	7.857951936029941e-07	-0.00012607601927558645	0.002786393469483533	-0.008941334468783497	-0.00045150603014900006	-9.188692393319225e-05
2
21400
Ar	-0.0002458508064710678	0.0002320590128113666	0.003187133894732091	0.016412451286407663	0.017563510638034123	-6.260083975411492e-05
Xe	-8.156078959675286e-05	-9.968443369256815e-05	0.002785669851710532	-0.006846737980565384	0.005494882557795894	-3.345361814081263e-05
2
21600
Ar	-3.5930899001526464e-05	0.0003377883912470811	0.003186498950257811	0.023831769059446607	0.0026972936900439767	-5.867876527733292e-05
Xe	-0.00012502613740919414	-2.5255789219391897e-05	0.002785984579718371	-0.0014908471729065823	0.00877221375095991	0.00011154470055728952
2
21800
Ar	0.00019158304040348904	0.00028134247966712624	0.0031861065115332036	0.019766515037662722	-0.01348607450452693	-2.3994758930892944e-05
Xe	-0.0001087186118624354	6.160080566834957e-05	0.00278741727804622	0.004593887185358785	0.007839400253923186	0.00015658078231862632
2
22000
Ar	0.0003275748595276147	9.003713450533979e-05	0.0031864576628842203	0.006253122619925216	-0.023156328902526873	9.133050996319143e-05
Xe	-4.0588051557119154e-05	0.00011889147987562739	0.002788568890738569	0.0084640457886922	0.003145802283989055	6.424675043869767e-05
2
22200
Ar	0.00030661016423268964	-0.00014471173361627534	0.003187480723117144	-0.010257696495984502	-0.021804877753309696	9.89171145719759e-05
Xe	4.6719091584527835e-05	0.0001191548002592506	0.002789037799779572	0.008286363594790493	-0.0030997391795726656	-6.346349523554252e-06
2
22400
Ar	0.00013890846796696857	-0.00031033349434309173	0.003188324073859114	-0.021876199062800698	-0.009921317327227858	6.154197504728443e-05
Xe	0.0001118094499217217	6.221250265803056e-05	0.0027886616254408627	0.0041877783072894045	-0.007819318242542917	-7.043466510921851e-05
2
22600
Ar	-9.547188817912832e-05	-0.00032684788453280866	0.0031882947796979173	-0.023002655923670918	0.006734740706234772	-3.774176949017563e-05
Xe	0.00012376712415893454	-2.4639582526878106e-05	0.0027880461914155824	-0.0019177591959762097	-0.00882001480312106	-4.611322855520853e-05
2
22800
Ar	-0.00028381894729287644	-0.0001865919132446306	0.003187618761184394	-0.013079135102820272	0.02012943968322919	-6.488996129893268e-05
Xe	7.659806899056203e-05	-9.97589394956888e-05	0.002787591897573666	-0.007118183914141722	-0.005588041878693998	-4.8607256091691714e-05
2
23000
Ar	-0.00033580538276241573	4.3089762209960966e-05	0.0031868098203954014	0.003113717920195069	0.02387278474097975	-5.8514019426322004e-05
Xe	-6.8242832781793674e-06	-0.0001273147914750264	0.0027870105875905378	-0.008898260649223395	0.0003120635567835971	-5.82651954134382e-05
2
23200
Ar	-0.00022678989725314567	0.000252026291813857	0.0031864535463279613	0.0177834069397395	0.016163955867997723	-1.183223197401937e-05
Xe	-8.702533674907569e-05	-9.38252220613551e-05	0.002786608100834463	-0.006469653755159416	0.006114346069376884	4.794204030858088e-06
2
23400
Ar	-8.832817660516896e-06	0.0003399652402574234	0.003186554925817948	0.023983057082838054	0.0007065772727167303	3.4139381384374216e-05
Xe	-0.0001255041941932858	-1.5029230970012245e-05	0.0027870157337836422	-0.0008841578077308678	0.008976426084356812	5.985676769280028e-05
2
23600
Ar	0.0002133575352420099	0.0002651814535160691	0.003186970670759646	0.01858437545756602	-0.015027789206795542	4.351082436510339e-05
Xe	-0.00010346886055700584	7.112897258487058e-05	0.0027879117582896066	0.005085176219423802	0.007535414923611564	9.770783386815494e-05
2
23800
Ar	0.0003330578653003645	6.35640153141815e-05	0.0031875056369195334	0.004348152625484575	-0.02359358122957314	6.567966901144755e-05
Xe	-3.185608476739978e-05	0.00012331661702455986	0.0027887087863231056	0.008623683106931256	0.00245183205621924	6.0463394163169064e-05
2
24000
Ar	0.0002931065126590582	-0.00016886265099770874	0.0031882435391317136	-0.012002614836196473	-0.02093022514229028	7.804635460965547e-05
Xe	5.477852719998895e-05	0.00011651942682175813	0.0027885589746191384	0.008024346089413157	-0.0037841255762874277	-7.036560347700319e-05
2
24200
Ar	0.00011248799524707577	-0.0003205754610764042	0.003188399754402241	-0.022607118785381804	-0.008134861035171732	-4.642615553612394e-05
Xe	0.00011547924088937505	5.353447289278642e-05	0.002787664509130774	0.0035865363702149004	-0.008260862378414856	-9.476552697271922e-05
2
24400
Ar	-0.00012210402813539548	-0.00031833653023154515	0.0031875711108815315	-0.022340495855739596	0.008536047785944904	-0.00010942429277260934
Xe	0.0001207343489542633	-3.541851650848041e-05	0.0027869726401756043	-0.0025826044882364565	-0.008792184310975273	-4.8270723544138e-05
2
24600
Ar	-0.00029796462511778117	-0.00016347958151982831	0.0031863715177683698	-0.011343206683665442	0.02113203420195306	-0.00011257189871005871
Xe	6.804720312333546e-05	-0.00010768130350774307	0.0027866957550325704	-0.007507187792999138	-0.005066624856104122	-9.525534863709109e-06
2
24800
Ar	-0.00033084628132207315	7.004660524604797e-05	0.003185570229545656	0.005047283382496871	0.023607308182281253	-4.713986617273224e-05
Xe	-1.7141178969602773e-05	-0.0001283883732399432	0.0027867196279776373	-0.008826230601049131	0.0010760439345902022	1.3967720345987844e-05
2
25000
Ar	-0.00020502320190148374	0.0002701717310677442	0.003185850702324738	0.01908427276259258	0.014739120258387936	7.531006666521876e-05
Xe	-9.427943884937831e-05	-8.782943035094436e-05	0.0027872015922413766	-0.005933351835503566	0.006699426887082774	8.721264324319626e-05
2
25200
Ar	1.9475417176575863e-05	0.0003408646380742923	0.003186961966428535	0.023944758961994727	-0.0011859435791115125	8.560898809353486e-05
Xe	-0.00012650994471001637	-5.3597683314713394e-06	0.0027884228510544817	-0.000229851100835999	0.009087224483701356	0.00015496993548541382
2
25400
Ar	0.00023453130095009645	0.00024827728904694413	0.0031875645722234097	0.017281485723020074	-0.016542083911846722	3.640864507317946e-05
Xe	-9.817137440946795e-05	7.92629718596043e-05	0.0027898042731908834	0.005673586126833613	0.007129372976179537	0.00010214348119846603
2
25600
Ar	0.0003372361022963149	3.6808926984326604e-05	0.0031874895094099044	0.0024046908638901457	-0.023988511041526345	-2.4993875804586882e-05
Xe	-2.2706788244121175e-05	0.00012599882643351314	0.002790061522852349	0.008759011318451937	0.0018436626421563947	-5.8307176938868745e-05
2
25800
Ar	0.0002785154495679177	-0.00019239851190777247	0.003187298034725309	-0.013683656843633447	-0.019932174036419645	-2.411021772230688e-05
Xe	6.328852861202782e-05	0.00011281539123293596	0.002788815353753946	0.00771737784786431	-0.004347890834910192	-0.0001685111750555765
2
26000
Ar	8.590346260134405e-05	-0.0003292833185524169	0.003186971972777404	-0.023207528219753665	-0.006288930064801759	-3.656318909021408e-05
Xe	0.00011893506144607669	4.591456487014961e-05	0.0027872174286414286	0.002949266358556459	-0.008475549983214084	-0.00014162080300435164
2
26200
Ar	-0.00014797278198716205	-0.0003080570144478976	0.0031865306802869456	-0.02160070110542838	0.010368979215013742	-2.0298343719075643e-05
Xe	0.00011741943750132013	-4.302861660649898e-05	0.0027862642042541714	-0.003240413476311539	-0.008556931816048033	-3.654514377304372e-05
2
26400
Ar	-0.0003106660567127781	-0.00013887834569697007	0.0031864660080250023	-0.009586825517640417	0.02203287849678276	2.2301880446519957e-06
Xe	5.92532377112895e-05	-0.00011157355987992387	0.002786250841451673	-0.007881820410905018	-0.0045303059769979765	2.542982184951913e-05
2
26600
Ar	-0.000324305144862167	9.664105084921672e-05	0.0031867592562428784	0.006991522700303307	0.02309595296611255	4.778964131319882e-05
Xe	-2.7355939305455958e-05	-0.0001263933101710393	0.0027869975708498178	-0.008739405135229212	0.0016891719112251734	0.00011817040972509997
2
26800
Ar	-0.00018251043470692414	0.0002853419977697301	0.0031871646645588968	0.020198069563792623	0.013100598755365253	1.1853906026609836e-05
Xe	-0.00010101625446795654	-8.094539145252752e-05	0.0027883162576210416	-0.0054003631932825645	0.007033549986761987	0.0001358760136626746
2
27000
Ar	4.674546723578192e-05	0.0003371915549925698	0.0031871681384951353	0.02374578402565321	-0.003148924793806398	-3.4351341421412406e-05
Xe	-0.0001264861935524735	2.9881219642885903e-06	0.002789738481567044	0.0005001733423993624	0.009042480691624317	0.00014058755745263718
2
27200
Ar	0.00025378419384590445	0.00022749937887801862	0.0031867344746721077	0.015929921311018894	-0.017845917493442387	-3.308198590752277e-05
Xe	-9.171590418278158e-05	8.534218601735717e-05	0.0027905288047370557	0.006170432860662171	0.00673981410441253	-7.470957928315429e-06
2
27400
Ar	0.0003395061304279691	9.025720090021004e-06	0.0031865167126943223	0.0004967675267607203	-0.024020484137732175	-1.3316212210215206e-05
Xe	-1.3305522257903431e-05	0.00012680297997949016	0.0027894753045467047	0.008848539465589169	0.001187735057211855	-0.0001732456906829785
2
27600
Ar	0.00026279451121263473	-0.00021417815314941915	0.0031866200000842	-0.015190206011872376	-0.01875220586607787	2.659265661633534e-05
Xe	7.113049957845656e-05	0.00010721665548373992	0.002787550365437318	0.007323188274266171	-0.004935789041080527	-0.0002023769385625345
2
27800
Ar	5.994243951656651e-05	-0.00033486833027282297	0.003187111143653621	-0.023652576421105548	-0.0043736903869102065	2.120106324525527e-05
Xe	0.00012119511548376754	3.612687770432553e-05	0.002785890716938594	0.002275765376644075	-0.008697688368878291	-0.00011730565716963936
2
28000
Ar	-0.00017173281882042841	-0.00029430201072242824	0.0031870105347878794	-0.020722490579455775	0.01211714947998831	-2.5543975338160164e-05
Xe	0.00011273282951982637	-5.271403149931138e-05	0.0027854982513242383	-0.003892448980141267	-0.008322938877766615	4.05657898254891e-05
2
28200
Ar	-0.0003206164587137495	-0.0001124028479059006	0.003186843060197357	-0.007821385490718712	0.02274253768536857	3.487366925656508e-06
Xe	4.973803679311541e-05	-0.00011666422660545747	0.002786610652572132	-0.008180686147770339	-0.003902517390061493	0.00016668716412123957
2
28400
Ar	-0.0003152619766398637	0.00012358936254197188	0.003187109898150874	0.00882027015406556	0.022475352385646616	5.539807696648107e-05
Xe	-3.766048301168493e-05	-0.00012457258905216331	0.0027883281568459564	-0.008556121719594082	0.0023813590505389714	0.0001565000876666595
2
28600
Ar	-0.00015879417618128757	0.00030059194858557013	0.0031874851928020294	0.021174498140568685	0.011430550940727922	1.916408166983453e-06
Xe	-0.0001071389171118834	-7.296425083181543e-05	0.0027895427634131833	-0.004749533964630564	0.007499258073749824	8.630040763617418e-05
2
28800
Ar	7.392733333020393e-05	0.0003333696759537831	0.003187369294069347	0.023400252566769215	-0.0051370047237124135	-4.859017601971698e-05
Xe	-0.00012514656425112767	1.3407350185982145e-05	0.0027901847440343387	0.0012931710598890252	0.00904905867867038	2.4714465705416302e-05
2
29000
Ar	0.0002711635135813851	0.00020636105720185825	0.003186736746750163	0.014379691956496823	-0.01916818094229435	-0.00010617875509478448
Xe	-8.331685522649844e-05	9.326596009755464e-05	0.0027897946465042325	0.006734642883915368	0.006217491053074035	-0.00012146447507153168
2
29200
Ar	0.0003383520840894286	-1.905566944530025e-05	0.003186233850881034	-0.0015117638022657872	-0.02403825203424093	1.1758302620759003e-05
Xe	-1.5295329170919113e-06	0.0001278991838974448	0.002788083330347537	0.008924288975939169	0.00041701389488554516	-0.00017668663108458464
2
29400
Ar	0.00024347233257984865	-0.00023564252148341926	0.0031867870617049454	-0.016664811920682532	-0.01744084949921858	6.422947100051394e-05
Xe	8.088353110178445e-05	0.00010098050603868388	0.0027865963135906458	0.006845004271098032	-0.005578890919456929	-0.00010802676326738636
2
29600
Ar	3.1935713641795335e-05	-0.00033939261724949733	0.003187150740218657	-0.023844030167382076	-0.0024353769815181974	-1.2867654337557566e-05
Xe	0.00012464108653413548	2.5435464980302667e-05	0.00278615229166251	0.001540894171783216	-0.008864538848826592	-6.248486206567918e-06
2
29800
Ar	-0.00019470754210963614	-0.00028025847284511595	0.003187021690464857	-0.019555615036662075	0.013738143617359108	6.9912277583107884e-06
Xe	0.00010872557361064354	-6.232168796609409e-05	0.0027866415579461674	-0.00458987135925571	-0.007931781666248862	0.00010288540940917003
2
30000
Ar	-0.00032761223335870814	-8.698512053476138e-05	0.0031871515057027206	-0.005916900885518758	0.02328651632173985	2.8750214386655775e-05
Xe	4.0366680907526095e-05	-0.0001202609904440349	0.0027877134802321776	-0.0084888275400407	-0.003152076562087975	8.006223136907518e-05
2
30200
Ar	-0.00030351201481941054	0.00014793762041189404	0.003187488990182885	0.010536221899059091	0.021732936127938723	3.9339435497017975e-05
Xe	-4.7310438624621954e-05	-0.00012046130725136511	0.002788391737600085	-0.0082912211280706	0.0031121293953699906	4.716145653070831e-05
2
30400
Ar	-0.00013393179518081033	0.00031209551801300524	0.0031875915782649594	0.021959179028511924	0.00972821979239013	-9.018432550973406e-06
Xe	-0.00011214248729930239	-6.306842421286582e-05	0.002788624823062035	-0.004146621004291936	0.007893228956017405	-6.636143318698129e-06
2
30600
Ar	9.998026860031364e-05	0.00032653600316471534	0.0031870714101116847	0.022873298263406505	-0.006945445514000635	-9.047827970814727e-05
Xe	-0.00012353552075393154	2.440779661441372e-05	0.0027886567986143388	0.0019721583913217496	0.00887601034760498	-9.53931381744808e-07
2
30800
Ar	0.0002860552710465862	0.00018449184185495224	0.0031862554085732176	0.01277970810502009	-0.020253891122754407	-7.816216593929445e-05
Xe	-7.579605663417713e-05	0.00010023302130622148	0.0027884944988109217	0.0071914051822951144	0.005640700870368442	-3.808148524823503e-05
2
31000
Ar	0.0003351122688958113	-4.584886601384277e-05	0.0031856164026644812	-0.0033865530233247276	-0.023890899279461437	-3.3710548727783597e-05
Xe	8.312789222966635e-06	0.00012814481165447864	0.002787685053832961	0.008923708506742449	-0.0002833432119560222	-0.00010062770008708414
2
31200
Ar	0.00022373558118501878	-0.00025443800291569026	0.0031859051258536003	-0.01794123524108125	-0.016086077407756454	8.18396816742024e-05
Xe	8.841178971404373e-05	9.506655178353712e-05	0.002786809906286189	0.006425656760187235	-0.006084011437519088	-3.807714674009622e-05
2
31400
Ar	5.493697112862051e-06	-0.0003409443935194389	0.0031867261085263853	-0.023869240927506252	-0.0004872130963747488	6.030051000060795e-05
Xe	0.00012659332368014626	1.617597471668902e-05	0.002786661946782473	0.0008914025927631848	-0.009059778010505634	1.541346868165725e-05
2
31600
Ar	-0.00021516264871705747	-0.0002636742062528584	0.0031870823221335047	-0.018399026604281634	0.015303093283593805	-1.593890355229061e-05
Xe	0.00010426737142482431	-7.086030318424404e-05	0.002787198696132163	-0.005155221470721483	-0.007605855045914741	7.767187227501072e-05
2
31800
Ar	-0.0003325568060270409	-5.991622284335077e-05	0.0031868201510173973	-0.0040890613798882265	0.02374785366820254	-2.501605339469533e-05
Xe	3.183951594049845e-05	-0.0001237623737361252	0.0027879261787360755	-0.008715746844531254	-0.002521645326968231	7.358046244936507e-05
2
32000
Ar	-0.0002904143644078805	0.00017288900518473076	0.003186650904339127	0.012169536860479125	0.020845175661281294	-2.534875326910973e-06
Xe	-5.5708730249934255e-05	-0.00011726652972476263	0.0027886110394199737	-0.00808105442102791	0.003758820348731766	4.099425116978198e-05
2
32200
Ar	-0.00010924246879111553	0.00032297578582598954	0.003186616469721914	0.02257484017514596	0.00790896808059812	-5.36919897865971e-06
Xe	-0.00011641793845535548	-5.4659761389265424e-05	0.0027887771786089363	-0.0035582495616048875	0.00824346314740597	-8.753420330183241e-06
2
32400
Ar	0.0001243547223608838	0.00031786223806626004	0.003186497355405498	0.022174175105507354	-0.008858757604683225	-1.1555807592291107e-05
Xe	-0.00012151926210500011	3.422174435758131e-05	0.002788708218543347	0.0025591252038149434	0.008775733114392328	-9.405327732156272e-06
2
32600
Ar	0.0002983734043227519	0.0001605904159995144	0.0031865520723900636	0.011162138402763254	-0.021294659670628206	2.5112413750119367e-05
Xe	-6.908718727443848e-05	0.00010658490705128809	0.002788365131003797	0.007500175288849304	0.0050695809328096504	-6.273972180313332e-05
2
32800
Ar	0.00032944391954933686	-7.376738635613422e-05	0.0031870065869540123	-0.005200931401827202	-0.02360059172297912	3.9379320868457635e-05
Xe	1.6568273368253504e-05	0.0001275814544971867	0.0027874446212504374	0.0089015752944848	-0.0010565273231543525	-0.00011457221441141785
2
33000
Ar	0.00020266517286211165	-0.0002730323434340771	0.0031871396607506164	-0.0191001044190364	-0.01458456485737139	-2.743474840224533e-05
Xe	9.431995972400397e-05	8.713296154497603e-05	0.002786505170058	0.006008406438652396	-0.0067033828171639736	-5.247908111255518e-05
2
33200
Ar	-2.1387819447531847e-05	-0.0003412768852985764	0.00318659388213926	-0.02383812213799672	0.0015067526704059236	-7.206868264051207e-05
Xe	0.00012691629405181957	4.461692826465255e-06	0.0027867218584787658	0.000249553486783785	-0.009125528154974584	7.787331480262234e-05
2
33400
Ar	-0.00023501823512092051	-0.00024552994879316434	0.003186082907205562	-0.01710087535671267	0.016816243071693215	-1.7368818469531787e-05
Xe	9.853384462321639e-05	-8.049698632961004e-05	0.0027877314937467543	-0.005660279395272305	-0.007130269249693338	9.345978799046593e-05
2
33600
Ar	-0.0003358882215832137	-3.2114738526902384e-05	0.003186609650726353	-0.0022602867616735964	0.024074115688239882	9.65864627201974e-05
Xe	2.303123333586346e-05	-0.0001267099740641527	0.0027885216544661887	-0.00880943340321123	-0.0017226361234698112	6.629475589657152e-05
2
33800
Ar	-0.00027612082721590036	0.00019661553944768257	0.0031876668364614565	0.01370924856204624	0.01975490778773625	9.367141683355855e-05
Xe	-6.333261226988571e-05	-0.00011223061018657827	0.0027889935662224327	-0.007726175128503964	0.0045016789774634984	1.4407402106491433e-05
2
34000
Ar	-8.392350368457638e-05	0.00033110008044550765	0.003187858020681687	0.02310515828627388	0.005986660259181484	-4.199202354831215e-05
Xe	-0.00011901179191338827	-4.3948715463437044e-05	0.002789019011310594	-0.002946491739447951	0.008578239668032617	-5.0429425788299895e-06
2
34200
Ar	0.00014860443426698832	0.0003069225797452973	0.003187185617473688	0.02142682434685351	-0.010634386037760483	-6.72406194183944e-05
Xe	-0.0001175508288127911	4.5652522863730945e-05	0.002788859462976343	0.0031939284015097768	0.008601718851055675	-3.9727956818269656e-05
2
34400
Ar	0.00031009987565280465	0.00013593723329022975	0.003186687307596284	0.009527689235446283	-0.022140658506560416	-2.4222700075469874e-05
Xe	-6.025646816363828e-05	0.00011373347304549565	0.0027882462547931816	0.007763068712527495	0.004443544986526297	-6.860278085841515e-05
2
34600
Ar	0.00032330059790942276	-9.999177451173117e-05	0.0031865577610778284	-0.007018156010438914	-0.023071538282844455	7.4758372869160005e-06
Xe	2.5307781557743728e-05	0.0001271948594048072	0.002787612768350783	0.008634818255773813	-0.0018839291247965113	-6.108272972841213e-05
2
34800
Ar	0.00018120006460137559	-0.00028775435104843466	0.003186690417815047	-0.020173988066937758	-0.01290590739205315	8.917222004824412e-06
Xe	9.877706746390334e-05	7.906406669674405e-05	0.002787207476551403	0.005431414406776465	-0.007330519908684721	-3.5797545863708346e-06
2
35000
Ar	-4.754791863763255e-05	-0.0003370328374951611	0.003186847439429759	-0.023668749752575765	0.0034458186095071537	3.823165625219013e-05
Xe	0.00012480809722652643	-7.4573241776603e-06	0.002787537179003074	-0.0004423379986259415	-0.009237881133223021	4.239224535089868e-05
2
35200
Ar	-0.00025352896672393066	-0.0002245080550751431	0.0031874025545078656	-0.0158236109591861	0.01810969972915623	7.948692891587694e-05
Xe	9.080332794926473e-05	-9.01943974760209e-05	0.0027878287792210917	-0.006074864111501662	-0.006613417794364564	-8.27116576729894e-06
2
35400
Ar	-0.00033809476787478995	-4.324989254671986e-06	0.003188392044043578	-0.00037620184734840086	0.024103568943685608	9.8163212942676e-05
Xe	1.3159758613199952e-05	-0.00012930714139008093	0.00278747042899501	-0.008812949613964137	-0.0009034997288287237	-4.168850318015056e-05
2
35600
Ar	-0.00026018580434812556	0.0002181250777870017	0.003188709766271412	0.015280249384968287	0.018508951421665896	-5.9341231692913254e-05
Xe	-7.108870119989405e-05	-0.00010670917710749791	0.0027873399155297156	-0.007321787277471995	0.005254884540260126	2.9128580953035027e-05
2
35800
Ar	-5.750263883030282e-05	0.0003357946739684779	0.0031873603714931177	0.02354152063582132	0.0040321418815218385	-0.00018178894945800964
Xe	-0.00012144766413953882	-3.2817984555206095e-05	0.0027879528520415586	-0.002309319369632582	0.008885304679118999	6.524360470171078e-05
2
36000
Ar	0.00017238258330565332	0.00029235477898246554	0.0031855543982918107	0.020504983921036682	-0.012316738466022424	-0.0001465408778233796
Xe	-0.00011369093337852159	5.6436458030956506e-05	0.0027883114251453373	0.0037939778800479586	0.008206060199979088	1.4491832247773873e-05
2
36200
Ar	0.0003197356224660353	0.00010913691731425588	0.0031847442439646213	0.007720772153037415	-0.022806914309737924	-4.797789701264832e-07
Xe	-5.1911097204382454e-05	0.00011839484977092133	0.002788164113082058	0.008055207863202029	0.003655225425472644	-5.65330041386199e-05
2
36400
Ar	0.00031410217869674834	-0.00012654213421507744	0.0031851048268560105	-0.008810705586070456	-0.02233021885735263	7.917766995831928e-05
Xe	3.436780453341936e-05	0.00012354109149599558	0.0027875192094190516	0.008492087749361433	-0.0026766333844089494	-5.99881192346865e-05
2
36600
Ar	0.00015790579856854008	-0.00030140520963840996	0.003186452813296703	-0.0211116083302168	-0.0111559733512912	0.00015718132037053392
Xe	0.00010410700629877262	6.92536639229875e-05	0.0027872246983419156	0.004856972793400775	-0.007704832453413042	-1.1048742673954813e-06
2
36800
Ar	-7.387442460761841e-05	-0.00033169587345184906	0.003187896087604857	-0.023320826770149	0.005328330452824663	0.00011869542051546297
Xe	0.00012387811294347457	-1.8130116698584977e-05	0.0027874085497944716	-0.00108376398275948	-0.009035666717686325	1.8124210806000593e-05
2
37000
Ar	-0.0002703817247050783	-0.00020344822243278772	0.00318876959237763	-0.014360902871588426	0.01926902444833671	3.265757620258923e-05
Xe	8.395055464812277e-05	-9.693574482472661e-05	0.0027875205264505554	-0.006572103804430964	-0.006056634742431023	3.7344508697909013e-06
2
37200
Ar	-0.00033743379255296043	2.2538333399623257e-05	0.003188490805481872	0.0015126711152590607	0.024026134544881998	-7.94227586451808e-05
Xe	3.2539662139280697e-06	-0.00012940523373323356	0.002787597907351332	-0.00888748894830918	-0.0001377458409896538	2.0398044682643667e-05
2
37400
Ar	-0.00024249852303908232	0.00023783268625273638	0.0031872724934837783	0.016663822099446127	0.01721996681628638	-0.00016644495953327027
Xe	-7.91489238727174e-05	-9.990747470151531e-05	0.0027879945947864443	-0.006921817282280597	0.005797496824560307	5.757868954706013e-05
2
37600
Ar	-3.1247085405847556e-05	0.0003393841943450638	0.00318565614505804	0.02380774223575872	0.0022212969099799818	-0.00015296172079046284
Xe	-0.00012362708411466056	-2.282408818947619e-05	0.0027884381469917116	-0.00161755220525214	0.008978334265663508	3.44091047198923e-05
2
37800
Ar	0.00019499012263906408	0.0002786805734377432	0.003184918736783417	0.01953446809258652	-0.013852895798490096	7.192089994305865e-06
Xe	-0.00010905376130050763	6.486465067271472e-05	0.0027887413662320906	0.004391251418718776	0.007826843567249952	-3.6250785573388507e-06
2
38000
Ar	0.0003279633136985177	8.452976393911783e-05	0.0031856633248523946	0.005925245574207743	-0.02332755807929143	0.00013557387465004908
Xe	-4.285611663775201e-05	0.00012126528715112869	0.0027883505186176625	0.00829085078492972	0.002967364884887812	-5.006265387996943e-05
2
38200
Ar	0.00030403063004190374	-0.00014999452181890184	0.0031873531257709973	-0.010530215362698006	-0.021589334425646894	0.00014784380715431443
Xe	4.3281274932842776e-05	0.0001196392137162215	0.0027876306063371295	0.008240508803378966	-0.0032937442823143164	-8.311921201129311e-05
2
38400
Ar	0.00013441443228444545	-0.0003122700642297908	0.0031884512065257107	-0.021953966874376785	-0.009486050735011922	5.131563422886458e-05
Xe	0.00010867066166004273	6.0453085820485225e-05	0.0027870583573881198	0.004288345979697821	-0.008023812750809581	-2.8994048109484723e-05
2
38600
Ar	-9.930278279997636e-05	-0.00032446177096209333	0.0031883288488008615	-0.0228581148633938	0.007146026794516488	-4.879573249026678e-05
Xe	0.0001220231371851595	-2.778958107573862e-05	0.002787175577411513	-0.00169828746612687	-0.008867678595393214	6.179582994670687e-05
2
38800
Ar	-0.0002856233257581999	-0.00018108938387101858	0.0031877701009342	-0.012823892178852433	0.020333905024850975	-8.52096114802576e-05
Xe	7.703958167077709e-05	-0.00010264496419638933	0.002787818914501918	-0.006927107830776501	-0.005477056206287354	6.272505401364784e-05
2
39000
Ar	-0.0003349538342400948	4.945951773439012e-05	0.0031867176458967774	0.003380488870023522	0.023842771586974332	-9.874079295669417e-05
Xe	-5.268509397512401e-06	-0.000128459466631774	0.00278854481375061	-0.008831319469643564	0.0005140505905214314	6.901735233778864e-05
2
39200
Ar	-0.00022358475011135384	0.0002570636850973156	0.003185544954509984	0.017968665653276282	0.015913981840258953	-8.319470695713734e-05
Xe	-8.519157271168764e-05	-9.301161363866008e-05	0.0027891211756037944	-0.006469487329249195	0.006282608072548372	2.915505202065308e-05
2
39400
Ar	-4.909612801920253e-06	0.0003415828321138491	0.0031850031148510185	0.023926053602193575	0.0003082422461123719	2.319190496751245e-05
Xe	-0.00012423493621984945	-1.2986367877335876e-05	0.002789411875564443	-0.001009752653972187	0.009013243446139083	2.1089599142438805e-05
2
39600
Ar	0.00021627152375613357	0.0002625389289080922	0.0031857981326872784	0.018447537783147665	-0.01542353575778731	0.00012244995286746078
Xe	-0.00010376197942176919	7.263179632249346e-05	0.0027889643478081175	0.004914059418966247	0.0074070161587994334	-9.946059773802904e-05
2
39800
Ar	0.0003342181356033881	5.800310740347103e-05	0.0031870400820368555	0.004123964950019427	-0.023767026965927255	0.00011663374974243921
Xe	-3.367238518256326e-05	0.0001231448438394332	0.0027878272564759807	0.008530081069047471	0.002265143837143008	-0.00011577497402642152
2
40000
Ar	0.000291773831561221	-0.00017421123742502432	0.003187982834757164	-0.012256447878926564	-0.020724154148196585	5.985752838750847e-05
Xe	5.2755660202079995e-05	0.0001144349626740741	0.0027867375371218787	0.008036426906374487	-0.003942282457761665	-7.53212073700517e-05
2
40200
Ar	0.00010924539647222463	-0.0003226173573068683	0.003187968891286059	-0.022711832712555464	-0.007707679324255914	-4.921517537100916e-05
Xe	0.00011401644923452645	5.0446278378960445e-05	0.002786550819718681	0.003686792406554908	-0.008317375408739076	2.4567834048033878e-05
2
40400
Ar	-0.00012553685964606458	-0.0003159583519472506	0.003187217682774805	-0.022290877124516002	0.008969453523401316	-6.704190329845425e-05
Xe	0.00012042102701188144	-3.8237686837136075e-05	0.0027870933314477486	-0.0024457914778582674	-0.008651959565120153	7.44199646878311e-05
2
40600
Ar	-0.00030023778512391073	-0.0001578490519071713	0.0031865855863645277	-0.011195538142996866	0.021333098465313453	-6.613081541041e-05
Xe	6.907293367483206e-05	-0.00010853087052562479	0.00278786841690627	-0.00738770849395044	-0.004810048804156284	7.503070008699435e-05
2
40800
Ar	-0.00033127601547853927	7.607056401626919e-05	0.0031861885731603503	0.005252102510164697	0.02348021055991942	-4.548668683224872e-05
Xe	-1.508731366161517e-05	-0.0001267940143213545	0.002788340504373275	-0.008737156287453071	0.0013060706220969116	2.6132219564444794e-05
2
41000
Ar	-0.00020373512863675844	0.00027368444378162327	0.0031858866792520563	0.019184606089324516	0.014390135107220096	-3.0501055819386746e-05
Xe	-9.166769288775447e-05	-8.437565205771864e-05	0.0027886625883081907	-0.005930500718378708	0.006787611638515309	2.1942205756100235e-05
2
41200
Ar	2.1311405038081704e-05	0.00034026046226338734	0.0031857962028077583	0.02392039625568757	-0.001640198524660588	3.037378630034874e-05
Xe	-0.00012416826673605416	-1.7620388085179545e-06	0.002788545206389829	-0.0003040185703211582	0.009037105862578871	-4.1461042714951634e-05
2
41400
Ar	0.00023622933523901094	0.00024381806642313753	0.0031868814137645226	0.017252031769946816	-0.016856751557145354	0.00015376026376525548
Xe	-9.712034822002819e-05	8.143979190200459e-05	0.002787609858779038	0.005469809499399855	0.006927058804972046	-0.00011403608137835633
2
41600
Ar	0.00033805521656057316	3.058126697986364e-05	0.003188540347920522	0.002245374817274961	-0.02399697767263264	0.00013081049915986137
Xe	-2.355444314206703e-05	0.00012568938455670113	0.00278646935745941	0.008621551638372074	0.0015300869485945995	-9.14620054581791e-05
2
41800
Ar	0.0002773511624371876	-0.00019689759658153973	0.00318889125767125	-0.013856019220464415	-0.01958800696553942	-3.264730419622579e-05
Xe	6.143740562991198e-05	0.00010924486113725735	0.002785802616182955	0.00765262987985074	-0.004670108273844832	-3.5430150275933554e-05
2
42000
Ar	8.322726398149959e-05	-0.00032938731825933484	0.003188013209852442	-0.023326310035015445	-0.005792175017925368	-0.00013651087794516422
Xe	0.00011706315981991442	4.0090142926672095e-05	0.002786146900393974	0.0030183097467993123	-0.008599028417354316	8.919024360082601e-05
2
42200
Ar	-0.00015107279956230683	-0.0003036387869661501	0.003186722651994982	-0.021550726053950458	0.010721360488169879	-0.00011442288420778118
Xe	0.00011649111976683612	-4.850401489730149e-05	0.0027872688047808412	-0.0031092850397659924	-0.008337885979534717	0.00015492052210613506
2
42400
Ar	-0.00031316002983335713	-0.00013243670862464038	0.003185922450867666	-0.009478183603496297	0.02210566974034008	-1.8281058273529492e-05
Xe	5.996062134362012e-05	-0.00011337805657296254	0.0027887411365030137	-0.007705927392476833	-0.004099696797225319	0.000159392770635771
2
42600
Ar	-0.00032555760842761474	0.00010241373155359449	0.0031859822898192137	0.007113882091572252	0.02290046679274765	3.5797150821765114e-05
Xe	-2.5254135718084424e-05	-0.00012381044215860654	0.0027899603266525997	-0.008594162912054993	0.0020921517088864847	7.268273723756514e-05
2
42800
Ar	-0.0001824608127382293	0.00028809125344603833	0.0031866896581198827	0.020281088697786716	0.012695846004801767	9.869453532965674e-05
Xe	-9.797309617017078e-05	-7.494259871575314e-05	0.002790115809276906	-0.00535143689981165	0.007254349131372061	-5.479611116840719e-05
2
43000
Ar	4.7615341773516725e-05	0.0003358045228801129	0.003187546586638078	0.023788284544633817	-0.003549807461707144	9.411286545645022e-05
Xe	-0.0001236249938582789	9.44927442770875e-06	0.002789092058643195	0.000424635425821569	0.008908257549652089	-0.0001706966239036385
2
43200
Ar	0.0002548099612567979	0.00022300158079652357	0.0031883495031127442	0.01591732979238311	-0.0180866138856195	6.486585219614215e-05
Xe	-9.024488006778018e-05	8.904885569317123e-05	0.002787276633831742	0.005992547638908655	0.006340158290690538	-0.00019641113240326756
2
43400
Ar	0.0003398782963168099	3.1997144936273693e-06	0.003188341419766485	0.0003798634598461174	-0.024024761264443896	-8.920565568275826e-05
Xe	-1.3262995723063393e-05	0.00012602091740336632	0.0027855613599358994	0.008760872787895887	0.000714855189795623	-0.0001454654200806056
2
43600
Ar	0.00026180867609230517	-0.00021802424178156145	0.0031869965626378136	-0.015318757023415341	-0.018334138014818164	-0.0001745582459751529
Xe	7.081224234770195e-05	0.00010228064383517687	0.0027845515742575956	0.007344294827583125	-0.005243839108293878	-4.898323135360683e-05
2
43800
Ar	5.8391620249427764e-05	-0.00033417078038149397	0.003185469433685704	-0.02363799507185692	-0.003940477940725463	-0.00011189206165477261
Xe	0.00012126633746497079	2.9397466386183403e-05	0.0027848217515643397	0.0023206979085414127	-0.00874040541818401	0.00010190798269330787
2
44000
Ar	-0.00017272945938703917	-0.0002904870707506125	0.00318504876815745	-0.02065911904344318	0.012304272846194972	4.519098137512319e-05
Xe	0.00011363926923032717	-5.798302647692905e-05	0.0027863640804696344	-0.0038003419753657027	-0.00801681259057096	0.0001761666649574828
2
44200
Ar	-0.0003212262870375142	-0.00010771705247630208	0.0031864041918592536	-0.007784937019362827	0.0227262286287823	0.00017734590964763784
Xe	5.170552515518684e-05	-0.0001176071386425459	0.002788017893341895	-0.008080187147627009	-0.0034107663086957772	0.00013969521758038997
2
44400
Ar	-0.0003158802611875116	0.00012698733339149292	0.0031879731203834426	0.008814116135184747	0.02224401224693325	0.0001282401789539584
Xe	-3.4947874878104494e-05	-0.00012078431336566472	0.0027894093261632735	-0.008508112424380754	0.0028064114786570294	0.00011689436278259839
2
44600
Ar	-0.0001593995160164172	0.0003008872416055227	0.003188881258200808	0.021179162424142105	0.011077825388226246	4.731314642236893e-05
Xe	-0.00010453510850467546	-6.594440562846771e-05	0.0027901837696892805	-0.004852847978143824	0.00770202549453333	8.380423123463444e-06
2
44800
Ar	7.324945300730913e-05	0.00033054874660276616	0.003189054318238305	0.02342121065380993	-0.005402462906480279	-1.3544104596578195e-05
Xe	-0.00012435688848609145	2.0444831367730405e-05	0.002789666266467336	0.0010853686134049477	0.008835369955897463	-0.00012154159277142248
2
45000
Ar	0.00027085804087217285	0.00020184779023925804	0.0031884533023691583	0.014402004921305191	-0.019286596780768182	-9.55571133689854e-05
Xe	-8.469338427998236e-05	9.657670997269682e-05	0.0027876600767043	0.00652276782053165	0.005779570614908574	-0.000255737626142552
2
45200
Ar	0.0003383609635252204	-2.3890669079103604e-05	0.003187008723718657	-0.001490199023485403	-0.023962969572806535	-0.0001818279826511276
Xe	-4.431388271907764e-06	0.0001265684195840851	0.0027853680358378217	0.008863461220781474	-2.1883823788544724e-05	-0.00018581631512447686
2
45400
Ar	0.00024332595513109216	-0.00023828498891943293	0.003185074955128399	-0.016681807053442462	-0.017100220605006516	-0.00016128072749872516
Xe	7.819995299938077e-05	9.605888050090483e-05	0.0027845014194075152	0.006947602287131354	-0.00584255046027427	1.9483652961564846e-05
2
45600
Ar	3.1700225041922324e-05	-0.00033819383983476855	0.003184014194831712	-0.023857745054210365	-0.002037715936656237	-6.451125548335153e-06
Xe	0.00012352679400863745	1.931737934966749e-05	0.0027853555732042777	0.0016985160933955547	-0.008820182233540919	0.00016235177602169843
2
45800
Ar	-0.00019540734294749815	-0.00027599462370630015	0.003185023958077935	-0.0196457013652891	0.013966234651386463	0.000190365729911422
Xe	0.00010964893190413641	-6.618207567718207e-05	0.002787265430020801	-0.0043782541308	-0.007553563249996698	0.00019284813076511442
2
46000
Ar	-0.00032925921910636395	-8.167398235943184e-05	0.0031871225467201432	-0.005983784438534101	0.02327791417946355	0.00022464268275106816
Xe	4.3396083225845136e-05	-0.00011965991822767882	0.0027890158033304527	-0.008330558343525647	-0.0026958155636283847	0.00014976480891945013
2
46200
Ar	-0.000305542441505244	0.00015177980058999499	0.0031888194339220193	0.010535998190311091	0.02145590475004764	0.00010536070433545528
Xe	-4.37687465078942e-05	-0.00011560907099653528	0.0027901011063925607	-0.00834982180765318	0.0034415374490543295	4.978650001508016e-05
2
46400
Ar	-0.00013563061424647416	0.0003124495168380577	0.003189282616041639	0.022022803106406943	0.00934228677018034	-8.74154776641696e-06
Xe	-0.00011004352551704534	-5.620386140911814e-05	0.002790081979003441	-0.004327574051910226	0.007935429140217555	-5.428581745977961e-05
2
46600
Ar	9.912765425598426e-05	0.000323405798673184	0.0031889019565377024	0.022982235490037615	-0.007250379420055745	-5.930681165412741e-05
Xe	-0.00012322536120218375	3.0368544178673583e-05	0.002789198011763385	0.001776463195571517	0.008668694182336284	-0.0001334098588871951
2
46800
Ar	0.00028669368913884666	0.0001793429848107263	0.003188222421098885	0.01295446589942849	-0.02035498669149698	-9.776535433040994e-05
Xe	-7.733722630075215e-05	0.00010279275524844331	0.0027873850078330856	0.007020396004337956	0.005200226005434264	-0.00019807451567305972
2
47000
Ar	0.00033668635041302644	-5.076334630138812e-05	0.0031869244707829593	-0.0033645945025814064	-0.023716323198280327	-0.00014884682559023794
Xe	5.776386116200009e-06	0.00012609073888877211	0.0027858986099011814	0.008915325366844798	-0.0007641475515531536	-7.070120738094479e-05
2
47200
Ar	0.00022477562084710387	-0.00025625513511717455	0.003185372379192879	-0.018060399595498485	-0.015670692132740728	-0.000151185358048697
Xe	8.626864041251415e-05	8.880133176208175e-05	0.002785744558986935	0.00648786324472962	-0.0063885851176215475	3.3419313516909855e-05
2
47400
Ar	5.069970812016502e-06	-0.0003389947390957929	0.0031848097617552273	-0.024042598622216936	-0.00018870274349603873	6.209087402886402e-05
Xe	0.00012530808165506783	8.928702799125496e-06	0.002786561929242501	0.0010029806311314148	-0.00891345996511587	0.00012079491382347666
2
47600
Ar	-0.00021730282540730934	-0.0002596113765013486	0.0031862407845218627	-0.018555280429381572	0.0154044170385103	0.00020207083102023786
Xe	0.00010451830282730917	-7.48938264658874e-05	0.0027876686962410124	-0.004989088441171698	-0.007133058369401345	0.00010241618232058231
2
47800
Ar	-0.0003356147292046995	-5.602809370082572e-05	0.003188322542201696	-0.004107505227138988	0.023599796165872256	0.00017019762214464147
Xe	3.368325570299473e-05	-0.00012271558430819706	0.002788489558069832	-0.008605528186011648	-0.002018020704826478	6.93193837576501e-05
2
48000
Ar	-0.00029280611533374494	0.00017426198432552692	0.0031890490342731215	0.012303026377853033	0.02048578893377271	-1.466320769259524e-05
Xe	-5.343246114308722e-05	-0.00011207608751874453	0.002789031950923882	-0.00810972089352175	0.004076095720837531	1.3781315425770429e-05
2
48200
Ar	-0.00010971055969309667	0.00032104444863734574	0.0031885333478332343	0.022783288520737303	0.007623066169255236	-8.931840111100503e-05
Xe	-0.00011510333261535073	-4.78225317255975e-05	0.0027888790033138927	-0.0036838961058713454	0.008205581770468926	-6.740921482320217e-05
2
48400
Ar	0.00012595564977286328	0.0003142811572607536	0.0031875608195326903	0.02236720984077268	-0.0089270597389307	-0.00013203889509280962
Xe	-0.00012151012952670828	3.902359810251871e-05	0.0027878700944409486	0.002477982066311525	0.008441434629592712	-0.00013435782320165952
2
48600
Ar	0.00030123847737476884	0.00015690165818366472	0.003186291329981946	0.011201091409323693	-0.021236888831058134	-0.0001027112774527945
Xe	-6.961226081076998e-05	0.00010734860797196858	0.0027867989177674754	0.007467053879304015	0.004659569627296123	-7.235980957773606e-05
2
48800
Ar	0.0003319957437669264	-7.586848591843217e-05	0.0031853477266913766	-0.005300254845348158	-0.023386677989743865	-4.836782856131726e-05
Xe	1.554540933058697e-05	0.00012425334466527514	0.0027861155728124993	0.008852142211818069	-0.001420220691631848	-4.271867221175281e-05
2
49000
Ar	0.0002038938980922881	-0.00027262605049924285	0.003185517128926543	-0.019264827788501134	-0.014312750280758046	9.55737252564577e-05
Xe	9.328160671446933e-05	8.14789933819213e-05	0.0027861940761253223	0.006017699353222916	-0.006769996714212254	1.9944498432302038e-05
2
49200
Ar	-2.196138809844652e-05	-0.00033872792759079745	0.0031869512541157718	-0.024013974283949472	0.001637670213899106	0.00019207597528125102
Xe	0.0001262850914419516	-3.31512539518426e-07	0.0027866559728101756	0.00028992730562395176	-0.008894195449385344	5.0221477863566e-05
2
49400
Ar	-0.00023728697129013772	-0.0002424247924027123	0.003188874325167887	-0.017239801374140995	0.016818547717345565	0.00014575947406408524
Xe	9.874982156748952e-05	-8.218806228170832e-05	0.002787240128647654	-0.005584145971215684	-0.0067856455894921034	6.855128391397194e-05
2
49600
Ar	-0.00033861425750733695	-2.9565684220537578e-05	0.0031893957097722985	-0.0021776991901397828	0.023959065667137142	-5.812106087391627e-05
Xe	2.3757555307857534e-05	-0.00012474372302479967	0.0027880851770558405	-0.008807673157310672	-0.0013924280564176746	0.00011526172035573984
2
49800
Ar	-0.0002774060611917123	0.0001974450866594887	0.0031880951559897187	0.01388761941252352	0.0195512366908265	-0.00018897302830363298
Xe	-6.290441485472079e-05	-0.00010747144967364878	0.0027892356393553735	-0.007755626656261908	0.004695109140859788	0.00010954700732307948
2
50000
Ar	-8.351238847670512e-05	0.00032981139168597744	0.003186215059863144	0.023265864391201044	0.005832726962187425	-0.00014720717570510954
Xe	-0.00011922970843015557	-3.845179943251908e-05	0.002789763117026289	-0.003038426478737621	0.00850897134640019	-3.9961075774677784e-05
2
50200
Ar	0.00015028187694736454	0.00030436641089068685	0.0031852827948209376	0.021516879500103888	-0.010710628358825676	-1.1196560684822053e-05
Xe	-0.00011878238591750805	4.871668945146597e-05	0.002788810480535902	0.00314137430161665	0.008193636998850864	-0.0001389965155641173
2
50400
Ar	0.0003120210727269957	0.00013305669772252529	0.003185516929177948	0.009451523759922639	-0.022146433823304883	8.068795549940087e-05
Xe	-6.141216746091291e-05	0.00011238228393538351	0.002787374637229114	0.00784214589385449	0.004018890697288746	-0.0001677487679534813
2
50600
Ar	0.0003240358482413711	-0.00010249966823731876	0.0031866421831919377	-0.007152645594970463	-0.022980415089496196	0.00014123880614118833
Xe	2.518818499515548e-05	0.00012249076756569034	0.002785924852925937	0.008762968301840831	-0.002097303015789339	-0.00011531104854464166
2
50800
Ar	0.00018070156059225067	-0.0002889530206818793	0.0031879111998422706	-0.02032927340370077	-0.012726962560772465	7.089647195127688e-05
Xe	9.967170759166259e-05	7.358868939207575e-05	0.002785319806405168	0.005481635684040998	-0.007265891517140009	-3.0548910889705397e-06
2
51000
Ar	-4.941860075922519e-05	-0.0003362398192173622	0.003188276974573949	-0.023761166108072967	0.003632186676295848	5.265077971789793e-06
Xe	0.00012619319739341826	-1.1282196624084308e-05	0.0027858598163033287	-0.0004080088905316875	-0.008975057085973437	9.54643157727816e-05
2
51200
Ar	-0.00025577668057497207	-0.00022219687200448397	0.003188000562965299	-0.015802678692885062	0.01824771394941452	-4.9945930789394105e-05
Xe	9.19811267905685e-05	-9.113914095517141e-05	0.0027870232485409964	-0.00613568530513717	-0.006324845677479492	0.00011539588723912965
2
51400
Ar	-0.00033979717535859405	-1.2966476674786744e-06	0.0031873248123464298	-0.00026529142188699243	0.024069901808449118	-8.819828996164703e-05
Xe	1.3374422949372578e-05	-0.00012724681663269885	0.0027882494905365597	-0.008906197565641623	-0.0005925034028645881	0.00012328128368661298
2
51600
Ar	-0.0002606006969729443	0.00022016715665238064	0.003186163471666221	0.015429731823202557	0.018347200566568696	-0.00010402752683291881
Xe	-7.168128435926302e-05	-0.00010233092249637161	0.002789319776718586	-0.007391117062589809	0.005363967922912584	7.794228459845207e-05
2
51800
Ar	-5.643243233045381e-05	0.00033610984130110015	0.003185609515861182	0.023675232183349035	0.0038632159417400906	1.1181963065340668e-05
Xe	-0.00012252119997162279	-2.8715026374667284e-05	0.0027895408633173266	-0.0023490688949638406	0.008752584755658158	-4.269109195876715e-05
2
52000
Ar	0.0001746765894955171	0.0002912802121369149	0.003186333280873755	0.02062076167294376	-0.012449626253572278	0.00011803855797352202
Xe	-0.00011478360168728471	5.801066193497637e-05	0.0027883729397414946	0.003811380061481161	0.007884544090262563	-0.0001813326604879312
2
52200
Ar	0.00032215368487380756	0.00010696820950828253	0.003187531019709758	0.007632954437209659	-0.022857443956983397	0.00010115760514962157
Xe	-5.239448149638434e-05	0.00011633946151812566	0.0027864878590340134	0.008158349449413158	0.0032841282110483297	-0.00014845197588233655
2
52400
Ar	0.0003147754229901764	-0.00012837582495339186	0.003188210741653217	-0.009043998485703923	-0.022213428531444177	6.589156422681371e-06
Xe	3.549976785729985e-05	0.00011890104657089496	0.0027854845726946213	0.008656865155039314	-0.002833947981270977	-3.7459219582718824e-05
2
52600
Ar	0.00015614856438705282	-0.000301534723793388	0.0031880115939793784	-0.02134015937831124	-0.01097629201263343	-2.576042446343763e-05
Xe	0.00010670311328872067	6.425210165638742e-05	0.002785533071593003	0.004968134877992317	-0.007624268749017108	4.781871179397738e-05
2
52800
Ar	-7.74955249541378e-05	-0.00033006697153233164	0.003187615851399724	-0.02341490582703979	0.005517642358624317	-5.825617514550195e-05
Xe	0.00012671989985430906	-2.1404105643651034e-05	0.0027863089946394736	-0.001132702560255207	-0.008790829524763785	0.00011072385165207325
2
53000
Ar	-0.0002742768522681634	-0.00020006198215400016	0.003186889090621972	-0.01427709272318895	0.01937003181303313	-6.144259807044095e-05
Xe	8.55970388808872e-05	-9.6961476615873e-05	0.002787617303357604	-0.006728333420990622	-0.005705486056996341	0.00013835858027202498
2
53200
Ar	-0.00033945882476690766	2.599758721026811e-05	0.00318611118635369	0.0017657561116768963	0.023925217927624913	-7.872900420977515e-05
Xe	3.1008696363831577e-06	-0.00012602439629487942	0.002789092463537846	-0.009072910666980016	0.00013055280308636594	0.00011732111390325992
2
53400
Ar	-0.00024189997509052472	0.00023945945766851796	0.003185762846919065	0.01692544193033121	0.01699485568202695	1.6080454704449554e-05
Xe	-8.114926745834783e-05	-9.47732971145484e-05	0.002789685752983936	-0.007058092144306648	0.00587593866784628	4.257758257602215e-05
2
53600
Ar	-2.8556758388766346e-05	0.0003383947921041743	0.003186237625704108	0.023968733670769207	0.001978212611087178	9.77687958549618e-05
Xe	-0.00012647341478513389	-1.836379665220448e-05	0.0027893403575549756	-0.0016307287262839552	0.008779411558337176	-9.912048164300484e-05
2
53800
Ar	0.00019870572276771382	0.0002754973450967487	0.0031873007326806303	0.019552745479305262	-0.014022146413106104	0.00011334270974638855
Xe	-0.00011085567816029102	6.663868975562684e-05	0.002788300481814479	0.004603460573795721	0.007512801135773447	-0.00011125542346737544
2
54000
Ar	0.0003305027128652679	8.036601899715808e-05	0.0031881707889887378	0.005707773400485918	-0.02335396940438257	6.151324929569373e-05
Xe	-4.206033656819382e-05	0.0001198012095095559	0.002787288988465428	0.008568673396652153	0.0026699277842882336	-8.654709470063619e-05
2
54200
Ar	0.00030337641728988527	-0.0001532069005340486	0.0031882976920460967	-0.010901244129517828	-0.021406891300811266	-3.058107672956642e-05
Xe	4.6988816300297124e-05	0.00011559937141423065	0.0027867917048194153	0.008500505639977993	-0.0034969699800730144	-2.0527281272021328e-05
2
54400
Ar	0.00013061549427826165	-0.0003131576547579921	0.0031876480877066626	-0.022213678114050988	-0.009245830878023447	-9.08078888474332e-05
Xe	0.00011379442063868938	5.589703387684117e-05	0.0027869727082236967	0.00428929605137041	-0.007942725931710587	4.5386814103000584e-05
2
54600
Ar	-0.00010510931573302904	-0.0003227805248364974	0.003186576240126749	-0.02294599022818977	0.007389240205620333	-0.00011478040837737617
Xe	0.0001258589408567376	-3.051786488451349e-05	0.0027874236151415287	-0.0019550352198334986	-0.00861714550455147	6.289215746665062e-05
2
54800
Ar	-0.0002908323990612038	-0.00017743024852110142	0.003185925114810345	-0.012646158090492117	0.02045305853144033	-4.516292020720767e-05
Xe	7.774328582375353e-05	-0.00010238421012559263	0.0027881103285255626	-0.007274367950466401	-0.005128909468147005	7.826956832594495e-05
2
55000
Ar	-0.0003371369418689745	5.305029332945956e-05	0.0031859518840582565	0.0037544641563310166	0.023697303584872337	4.42884889695497e-05
Xe	-7.560113395165072e-06	-0.00012508025723278747	0.002788842320358626	-0.009064447147338488	0.0007986735522777369	7.565955872496637e-05
2
55200
Ar	-0.00022196142486524293	0.0002580800745200091	0.00318672278735239	0.018318952983623626	0.015594807946690062	9.397038791609092e-05
Xe	-8.888252765700294e-05	-8.782734530267085e-05	0.0027893568361734	-0.006511843915173121	0.006332691746841275	8.7652750722133e-06
2
55400
Ar	-1.8406137992669411e-07	0.0003395936794242378	0.003187775954204186	0.02415298553527583	1.5591441479115737e-05	0.00011054224966105394
Xe	-0.00012731861640282038	-8.69190322288753e-06	0.0027889150086180766	-0.0008877872176382487	0.00883323427085204	-9.678143939446277e-05
2
55600
Ar	0.00022176150738200358	0.0002582314647566729	0.0031886308329877136	0.018361815778288215	-0.015601504536595198	1.4547097995759868e-05
Xe	-0.00010470216178314247	7.463322076999198e-05	0.0027880175102836103	0.005216989530160056	0.00712431889009702	-8.564375591411291e-05
2
55800
Ar	0.0003369778741181056	5.3040947517581404e-05	0.0031881367711684163	0.0037262249710293695	-0.023732054701851406	-0.00010522153228760068
Xe	-3.166239538825532e-05	0.00012241543892337056	0.0027871648516837448	0.008802691061387377	0.002000287070297478	-7.159263859283095e-05
2
56000
Ar	0.00029038916327830597	-0.0001777439765691483	0.0031865363281244497	-0.012638083626869263	-0.020466577881421713	-0.00017021121212238961
Xe	5.699355360379543e-05	0.00011127123014717473	0.0027867889402370238	0.008161614969390597	-0.004130259321948534	-1.446021084146658e-05
2
56200
Ar	0.00010468363154467024	-0.00032313347332400605	0.003185131240809096	-0.022940341115130845	-0.00739261263695998	-7.46645177488527e-05
Xe	0.00011827982172617645	4.664886726767666e-05	0.002786868540446511	0.003596734770753903	-0.00824614361624825	2.330193754772897e-05
2
56400
Ar	-0.0001313778590034437	-0.0003137180983085178	0.0031849475299420968	-0.022277158007815392	0.009206714030636868	3.111116353993254e-05
Xe	0.00012301630363126755	-4.0080947408831456e-05	0.002787377019660292	-0.002694107072238531	-0.008371271877681425	8.159399634833235e-05
2
56600
Ar	-0.0003045981302590357	-0.00015376214687493753	0.003185763478343041	-0.010925468205211739	0.02144899083070855	0.0001097310671346355
Xe	6.89231904450948e-05	-0.000107501269643117	0.0027881956338064572	-0.0076851836120627876	-0.0045374857069533665	9.366015136502191e-05
2
56800
Ar	-0.00033188038844194197	8.003050074701741e-05	0.003186979063487467	0.00569663408161915	0.02335655174819908	0.00013275996166390496
Xe	-1.79165761402253e-05	-0.0001234347599806569	0.002789074765965161	-0.008958711493539648	0.001483097252374682	6.701604631107257e-05
2
57000
Ar	-0.0002002645529438709	0.00027549078378789324	0.0031880253171411906	0.019518793398701228	0.014078555952207722	9.393964638144354e-05
Xe	-9.584345460962688e-05	-8.021488515428138e-05	0.002789340029918605	-0.005986731039576916	0.006794968338287733	-1.7472532152779082e-05
2
57200
Ar	2.6829615631779377e-05	0.00033885584383440886	0.0031885393301400084	0.02400225983409476	-0.001924400146013979	-5.413394034971256e-06
Xe	-0.000127722440625966	1.1203539811138636e-06	0.00278859687616139	-0.0001281579147017289	0.008821874706191108	-0.00013662583126207843
2
57400
Ar	0.00024100127362787466	0.00023984162335719659	0.003188109687649422	0.017042554893871215	-0.017058763935048273	-8.893421979455307e-05
Xe	-9.832385886252152e-05	8.193878224758133e-05	0.0027871086295083868	0.0057805851650356045	0.006656972544206886	-0.0001440496297636303
2
57600
Ar	0.00033969758648071243	2.560301698579404e-05	0.0031865627343415004	0.0018586294163723263	-0.023987616788702756	-0.00022009422305464195
Xe	-2.1784800008675754e-05	0.00012360078900645595	0.002786170172196695	0.008906239739286101	0.0013184385507817985	-2.2848234669013668e-05
2
57800
Ar	0.0002754521485816419	-0.00020120920135440384	0.0031846333076426285	-0.014165732355753441	-0.019468443017682427	-0.00013743762321222455
Xe	6.560505968149617e-05	0.00010624074958497433	0.0027866168711648564	0.007816406417498206	-0.004647279630733684	8.059839341335473e-05
2
58000
Ar	7.921497877513953e-05	-0.00033190613178848386	0.0031842944541150774	-0.02344175264919911	-0.005568336326883648	8.529319417674011e-05
Xe	0.00012150972176836489	3.8205268799671565e-05	0.0027875137752458403	0.00292236517511245	-0.008371872204206328	0.00010580785581714515
2
58200
Ar	-0.0001554464517251195	-0.00030367455114276113	0.0031858589176893388	-0.021511722407758213	0.011008962523764727	0.0002089900570712924
Xe	0.00011932599739231876	-4.7724989323235895e-05	0.0027884130350639426	-0.0033240412107726366	-0.008110029237128518	7.473383557133168e-05
2
58400
Ar	-0.0003157817849221439	-0.0001297018292383578	0.0031880917529847185	-0.009198355595987483	0.022301034740906	0.0002134723094554191
Xe	6.031463985068925e-05	-0.00011100585321429644	0.002789071353839937	-0.00799894561228393	-0.00399637074968047	6.636152816578961e-05
2
58600
Ar	-0.00032444378441669425	0.00010607066390396706	0.003189537456501843	0.007527879488643954	0.02288738981630966	7.36049828478904e-05
Xe	-2.763885936309233e-05	-0.00012090411158689403	0.0027893999730482263	-0.008855999274406025	0.002091660792877972	1.3276748543396632e-05
2
58800
Ar	-0.00017768032634953975	0.00029098370125449526	0.003189316749961512	0.02061004814392833	0.012529592614636566	-0.00012848757072887897
Xe	-0.00010220744769164693	-7.254362854404782e-05	0.0027890736852200036	-0.00544614726017508	0.0071637339227121144	-7.769724918673164e-05
2
59000
Ar	5.4174387966388196e-05	0.00033620022907361494	0.0031874968773583745	0.023825451786544462	-0.003853563939521158	-0.00023311305381701689
Xe	-0.00012789227273644104	1.0934732638464042e-05	0.002787985370028607	0.0005607156691695279	0.008845834206313635	-0.00011712490962471282
2
59200
Ar	0.00026011966110788963	0.00022041138911227859	0.0031852174673708874	0.015645835372990895	-0.018358230570640593	-0.000199458472733731
Xe	-9.216911563307052e-05	8.947535642788727e-05	0.0027868988087449416	0.006278686259747007	0.006182188168864755	-9.069912334484433e-05
2
59400
Ar	0.0003415282519804908	-1.0063033266965544e-06	0.0031835942622091802	-3.825709286183565e-05	-0.02405401929326345	-9.857813743356793e-05
Xe	-1.2315737885953153e-05	0.00012486848346213132	0.0027863651503613656	0.009022754532275221	0.0006227792287047912	1.2719842188720407e-05
2
59600
Ar	0.0002593027371013932	-0.0002215351118247942	0.0031835610900879194	-0.015713892217656036	-0.01822411253651009	0.00010058714437994083
Xe	7.340747574840917e-05	0.0001004806898981493	0.0027866788920917797	0.007413620174675903	-0.0052683251227845325	4.280484711051045e-05
2
59800
Ar	5.295341463507429e-05	-0.0003358252579065362	0.003185422161331551	-0.02384467581065586	-0.0037013112968185993	0.0002839787514315672
Xe	0.00012393548298031103	2.8012276989982656e-05	0.0027872532422144984	0.0022717931157467605	-0.008614194203634983	6.77994104706055e-05
2
60000
Ar	-0.0001788558948598195	-0.00028923492394518515	0.00318849162661782	-0.02055583406263202	0.012613129830866036	0.00029613954696983363
Xe	0.00011500996524065518	-5.772907560553465e-05	0.002787641106401695	-0.003976777290601457	-0.007821316046562833	1.0062759450471653e-05
2
60200
Ar	-0.0003247520440913078	-0.00010386034296531112	0.0031906332020624414	-0.007360729575729733	0.02291409434559843	0.00010451511585858622
Xe	5.0566395045524135e-05	-0.00011580089312820794	0.00278797954666882	-0.008373632919205965	-0.0032991419522378895	6.275866354364654e-05
2
60400
Ar	-0.00031446718171093067	0.00013103897150797152	0.003190163010208625	0.00933282013658652	0.022092336669594106	-0.0001895680019687363
Xe	-3.853876168437476e-05	-0.00011843024162207774	0.002788602412511492	-0.008687805982143804	0.0028393947913932377	5.602599713981632e-05
2
60600
Ar	-0.00015331988092325151	0.0003023177856319059	0.003187761019638962	0.021538757479155866	0.010736288480072046	-0.0002805275649832929
Xe	-0.00010902142103554266	-6.38480318961797e-05	0.0027888952538711624	-0.004816602903922049	0.007591836806824693	-1.7256903720238257e-05
2
60800
Ar	8.132906364598022e-05	0.0003286557845831833	0.0031850981013322862	0.023419019890487336	-0.00570066776233236	-0.00024035170095688146
Xe	-0.0001270066840661037	2.111135342875294e-05	0.0027885490325994812	0.0013633601860468208	0.008671380658587769	-6.45802359773985e-05
2
61000
Ar	0.00027725733096298954	0.00019750471209149405	0.00318361448673428	0.01411232587011049	-0.019419439841353178	-5.482760690723155e-05
Xe	-8.387467679843597e-05	9.569726805088175e-05	0.002787514667597104	0.006865008978381162	0.005645890564673462	-0.00011785360271636668
2
61200
Ar	0.00034041042939889684	-2.8139256688561607e-05	0.0031838026453604165	-0.0020022729716531714	-0.02383541270501534	7.117731086782958e-05
Xe	-9.285214723440914e-07	0.00012468069380836702	0.0027864754775003063	0.008996581389679879	-7.636902303175119e-05	-7.630024534012693e-05
2
61400
Ar	0.00024062768780132676	-0.00024049535548330639	0.003185295584932058	-0.01712748800773051	-0.016852861309299833	0.00021779935738720766
Xe	8.202532033855863e-05	9.413718426855049e-05	0.00278566396681215	0.006901243339219491	-0.005776379240591832	-7.384425773371395e-05
2
61600
Ar	2.5539498581979048e-05	-0.0003378330556931757	0.003188021916575223	-0.024105788881039737	-0.0017824264924650795	0.00028882148686702145
Xe	0.00012597212596515098	1.837215056008298e-05	0.0027853572192327192	0.0015217351947106144	-0.008744581078830553	2.7745128001848747e-05
2
61800
Ar	-0.0002016473985521636	-0.00027312334945682747	0.003190183291456524	-0.019430354701111464	0.014189143298795647	9.812725499477473e-05
Xe	0.00010968181322237937	-6.668640613064012e-05	0.002786103019599106	-0.004631655641563664	-0.007547942373350414	0.00013174248161457614
2
62000
Ar	-0.00033145016819541995	-7.721691900961284e-05	0.0031899922543030227	-0.00544627980043366	0.023350362284967265	-0.00012529743747909192
Xe	4.060068873671945e-05	-0.00012031552516655842	0.002787768371432257	-0.008599687044480032	-0.002689343480081043	0.0001837672630947247
2
62200
Ar	-0.00030169796284038736	0.00015589407328924979	0.003187750600788048	0.011137025854895465	0.021309555607961387	-0.00030005904724960997
Xe	-4.811360632052984e-05	-0.0001161090235950462	0.002789111234632878	-0.008421970770226274	0.0035012394309883	8.661762261808333e-05
2
62400
Ar	-0.00012699696083193237	0.00031440170416709195	0.0031850326439682836	0.02230654363192215	0.00909015769997756	-0.00021904259267159593
Xe	-0.00011388905107543934	-5.624819539406071e-05	0.0027896454738224625	-0.004166161368895238	0.007977133625995916	1.4316586682598864e-05
2
62600
Ar	0.0001085369769395522	0.0003228165074892834	0.003183812408909682	0.0228378599924346	-0.007489270248806602	1.5061897806507969e-06
Xe	-0.00012480688841079945	3.0148122632732928e-05	0.002789332362042756	0.002066033657028021	0.008589055840779163	-7.733200104216753e-05
2
62800
Ar	0.00029241178851938885	0.00017673060009212025	0.003184574226339779	0.012398074672041352	-0.02052808352767726	0.0001592789659961322
Xe	-7.643584354605959e-05	0.00010182947299709737	0.002788224127204581	0.007234397876560866	0.00514861404504491	-0.0001178064619804424
2
63000
Ar	0.0003361770141593432	-5.418020821771548e-05	0.0031864333164303466	-0.003998032872099974	-0.023710437632177707	0.00019417067164098067
Xe	8.234363566252048e-06	0.00012479950918206322	0.0027870779302248917	0.008973080673143029	-0.00074762579667903	-0.00011342482295239924
2
63200
Ar	0.00021884305366708332	-0.0002589876648980372	0.0031881231386483543	-0.018479439198898988	-0.015525348291526507	0.00011905051493107365
Xe	8.862439273411661e-05	8.818776173348986e-05	0.0027863257156190233	0.006417486940042582	-0.006297413497574031	-3.218087182276523e-05
2
63400
Ar	-3.1768738751409605e-06	-0.0003393358908929308	0.0031890730253818327	-0.024066057557700242	0.00012876210826462208	4.6230714678894376e-05
Xe	0.00012623169430528645	9.021688290101077e-06	0.002786428804082945	0.0008091204977067961	-0.008870415255159022	6.436954842603133e-05
2
63600
Ar	-0.00022350877590504914	-0.000256560584247328	0.0031888036784965225	-0.01813707154491506	0.01572536848295679	-9.287688561353601e-05
Xe	0.00010331303902704924	-7.472799855717364e-05	0.0027872436165445893	-0.005217783261671615	-0.007162632986078276	0.00012238771819476752
2
63800
Ar	-0.0003361612590924841	-5.04260812301126e-05	0.003187299306084471	-0.003483684912865452	0.023765927473415112	-0.00017892164308059725
Xe	3.0424817773241e-05	-0.0001230242810059487	0.0027887327923786184	-0.008705451694989822	-0.0020536230106530193	0.00016031193079128604
2
64000
Ar	-0.0002876908667749108	0.00017994732493117755	0.0031856096121606796	0.012774346589784389	0.020380102142747672	-0.0001309987490817976
Xe	-5.6802880992067366e-05	-0.00011272658590847934	0.002789928016350524	-0.007985603035272997	0.00403781885702578	7.090144075609261e-05
2
64200
Ar	-0.00010145357306466586	0.0003242001646402344	0.003184777204704711	0.022900016852176863	0.007279980740113842	-4.192419056534583e-05
Xe	-0.00011649700248130513	-4.8696639308050945e-05	0.0027901100049864324	-0.003459498931118349	0.008223483518119423	-3.342195490726715e-05
2
64400
Ar	0.00013334047104200019	0.0003136273603973992	0.003185127182118215	0.022088649589343267	-0.009313716864838738	8.348269248121141e-05
Xe	-0.00012038601865068048	3.819860524517996e-05	0.0027893200496419174	0.00269855889004918	0.008441202723165139	-0.00012536275785372667
2
64600
Ar	0.00030430103224172674	0.0001530258352107536	0.0031862360820711336	0.010666606021094698	-0.021453201125413268	0.00013988267702611318
Xe	-6.675523800019737e-05	0.00010648885325266943	0.002787914082808326	0.007592320235327928	0.004668910400274962	-0.00014794057524042842
2
64800
Ar	0.0003293879614514232	-8.069449874192831e-05	0.0031877916047950167	-0.005863332520104562	-0.023330755060576004	0.00014072154542549474
Xe	1.8818408454590837e-05	0.00012385192468502467	0.0027865369207840563	0.008828609852792818	-0.0013355432914115921	-0.00010920884181007597
2
65000
Ar	0.00019656854895598304	-0.0002755803570922644	0.0031887467001122174	-0.01958770857468367	-0.014020124230642542	3.873504596400273e-05
Xe	9.570746068604664e-05	8.175771315660626e-05	0.0027860101487304665	0.005909333394230326	-0.0067407807808923925	1.1717632148389232e-05
2
65200
Ar	-3.046289759286823e-05	-0.00033817636472939174	0.0031883074302003706	-0.023921535332477786	0.0020255710173006512	-0.00010980331229019446
Xe	0.0001270209414155924	-2.2261996688138776e-07	0.0027865452691092805	7.034844369622817e-05	-0.008946013962124055	0.00010632561134402348
2
65400
Ar	-0.00024266893501759685	-0.00023819773210912113	0.0031869228236393542	-0.016746013899270204	0.01713016630765259	-0.0001563404654711331
Xe	9.713411046533823e-05	-8.258214875308335e-05	0.0027879037077983564	-0.005792262436750471	-0.006818609805897873	0.00014218117978653832
2
65600
Ar	-0.0003384882666442557	-2.3372451956090953e-05	0.0031854939013152284	-0.001588454747659354	0.02401311922413106	-0.00010983417010946248
Xe	2.0564526107755226e-05	-0.00012537951343026164	0.002789145025370966	-0.008852419852518868	-0.0013715258628035829	7.336953109115865e-05
2
65800
Ar	-0.0002720832045792249	0.0002030950212924994	0.003185135970632932	0.014300963423048844	0.01936777370366454	1.983466460784896e-05
Xe	-6.552101595191948e-05	-0.00010794961552230593	0.0027894738040012365	-0.007613558868819851	0.004701491289771287	-3.2123157763658796e-05
2
66000
Ar	-7.551342917757206e-05	0.00033246767733071666	0.0031858838568081006	0.023379183552652727	0.005405527322350801	0.00011880619249651062
Xe	-0.00011990464872166887	-3.909089165512694e-05	0.0027885901089866653	-0.0028019432457591495	0.008491474766508597	-0.00011906252918569471
2
66200
Ar	0.00015738760924300884	0.0003022674401530999	0.0031872595200635057	0.021244929445124034	-0.0111646818686206	0.00014019988669222502
Xe	-0.00011677932616047549	4.8174907398028694e-05	0.0027874891706390543	0.0034057216769304874	0.008205907389348089	-8.937964018211825e-05
2
66400
Ar	0.0003146358989611681	0.00012725902781117452	0.0031882990749126485	0.0088819694847721	-0.022360509183007176	4.6930157754595966e-05
Xe	-5.7725807144222777e-05	0.00011193810697325439	0.002786898212363841	0.00793070349627145	0.004030102466550983	-4.616018941116406e-05
2
66600
Ar	0.0003207931791234897	-0.00010853293677718894	0.003188221608705404	-0.0077184935265403425	-0.02281011066250279	-6.785870860419834e-05
Xe	2.9204506610991846e-05	0.00012213815560647328	0.002786693791960464	0.008725197530715477	-0.002095719698772909	5.863427254076846e-06
2
66800
Ar	0.00017319687929544478	-0.00029190736640493644	0.0031873451982173118	-0.020571687158025605	-0.012333700205095841	-0.0001271422199561361
Xe	0.00010251184984773513	7.333764266885544e-05	0.002786572900532505	0.0053047163107612936	-0.00724710994759712	7.847794578814867e-07
2
67000
Ar	-5.721413611147816e-05	-0.0003349732273734627	0.0031862171301646567	-0.02357949396338544	0.0040501291930040775	-8.560970783998017e-05
Xe	0.00012664927969701075	-1.0861763184998835e-05	0.0027870693640188343	-0.0006643232647004614	-0.008886923635252453	9.963220641480666e-05
2
67200
Ar	-0.0002603325307138983	-0.00021771754501249656	0.0031857111173678393	-0.015331191136726563	0.018443769125221957	-2.0150944481458166e-05
Xe	9.04091720840351e-05	-8.976133312999505e-05	0.002788079165184128	-0.006291104831161089	-0.006224344814813757	0.00010958102600178789
2
67400
Ar	-0.00033905542830551665	4.033172705283424e-06	0.0031859616255616417	0.00024746773644657074	0.024053701701264082	7.387300264007935e-05
Xe	1.090031086522169e-05	-0.00012535436191590815	0.0027889501658449373	-0.008911918055949129	-0.0006053871355213556	5.2018475747875505e-05
2
67600
Ar	-0.00025560905587999	0.0002240364253602033	0.0031871291360929034	0.015744178404971828	0.018108836495369117	0.00015121475429228867
Xe	-7.356145233511635e-05	-0.00010096348842980564	0.0027891488800767437	-0.007272296846182437	0.005275807218991206	-8.523885071798923e-06
2
67800
Ar	-4.9672921353562896e-05	0.0003367637961550006	0.0031884620070468037	0.023709286801816273	0.003470115065959917	0.00011924202732334153
Xe	-0.0001227130394217473	-2.8610222852354143e-05	0.0027888252296256644	-0.0021522833369877607	0.008607998793382138	-6.013476158199286e-05
2
68000
Ar	0.0001796805630151087	0.0002878524847019679	0.0031893845157770556	0.020267257634612044	-0.012863907232056203	3.4194084560668145e-05
Xe	-0.00011309433698240681	5.72356377001376e-05	0.0027878475340893877	0.003997758212839224	0.007860513325105291	-0.00011410828082076725
2
68200
Ar	0.00032274004672759647	0.00010063359026155633	0.003188759487954421	0.007139872015372836	-0.0229805044924109	-0.00013402179692306707
Xe	-4.89355334573281e-05	0.00011562428371865735	0.002786675751869435	0.008314052470966905	0.00332072049241578	-0.00010248695878041619
2
68400
Ar	0.00031110562735373894	-0.00013437621542609094	0.0031870045058625214	-0.009377883790223727	-0.022060019137589697	-0.00017773461408412267
Xe	3.918372756968799e-05	0.00011821816791351665	0.002785928584887149	0.008582258076567548	-0.002805571936649337	-4.03562055317403e-05
2
68600
Ar	0.00015053723204719777	-0.0003048611201690117	0.0031854494028312496	-0.021394509373883333	-0.010617507281712613	-0.00011970513574011566
Xe	0.00010870966070720822	6.412345053038914e-05	0.0027859452481347785	0.004733739334496316	-0.007572416540865184	3.731903716550856e-05
2
68800
Ar	-8.221899847598615e-05	-0.00032948967902351166	0.0031851948673079287	-0.023186705116425402	0.005878210749580615	4.718217652966814e-05
Xe	0.00012616339371700823	-2.1012859677023878e-05	0.0027865236517485353	-0.0013719004168721454	-0.008737198471089653	7.866753114617022e-05
2
69000
Ar	-0.00027569954526674014	-0.0001964599947255221	0.0031862205362402276	-0.013876920186159554	0.01960954925469659	0.00015126903881276742
Xe	8.341613080140576e-05	-9.605081976048256e-05	0.0027876837800609178	-0.006826307794800076	-0.005667393443661564	0.00013611123950353304
2
69200
Ar	-0.00033727275204839015	3.0994779772131205e-05	0.0031876282454688138	0.0020857733895765754	0.023943731452720583	0.00014546712452085138
Xe	9.23447531364417e-07	-0.00012512748397937708	0.002788727957936553	-0.008984790483942512	0.00010378114195255345	7.548471452507894e-05
2
69400
Ar	-0.0002373143246934525	0.00024349460439136375	0.0031888147654801934	0.017060042047372607	0.01675228248613529	6.435676274759679e-05
Xe	-8.194164160412952e-05	-9.410517472313668e-05	0.002789115616071101	-0.00689623073291708	0.005835210062748406	1.7361033381240383e-06
2
69600
Ar	-2.36334897478193e-05	0.00033925235856224767	0.0031889788343712265	0.02387288475291094	0.0015981809660480858	-3.8525753474062414e-05
Xe	-0.00012563585452350548	-1.7744218516500106e-05	0.0027888523889632753	-0.001487522816277843	0.008785784160809273	-7.282147318309676e-05
2
69800
Ar	0.00020126058785526277	0.0002726393518630442	0.003187972101425147	0.01922019207260428	-0.014359526917252603	-0.000160987036119607
Xe	-0.00010922804562779395	6.73371325155066e-05	0.002787997555396368	0.004619644463042581	0.007500549615671031	-7.755991469348042e-05
2
70000
Ar	0.0003296135652558076	7.541682802929769e-05	0.003186257283232576	0.005356582939477885	-0.023417406949177065	-0.00015452601119878565
Xe	-4.0687237066303734e-05	0.00012015558620833352	0.0027871755888215833	0.008506639710071399	0.0026219290461978254	-8.715716231610669e-05
2
70200
Ar	0.000299923135158955	-0.0001578908336142639	0.0031853661879955404	-0.011039688968320902	-0.02128206073565596	-4.1450723082158675e-05
Xe	4.7235226143457846e-05	0.000115654081091771	0.0027864736833338667	0.008330314831936355	-0.003490915975491031	-6.0131296948657996e-05
2
70400
Ar	0.00012666692692959604	-0.00031565921199644366	0.003185381868376019	-0.022166521823288193	-0.008933609543557475	5.2098668406782e-05
Xe	0.00011235624787149302	5.5809628014060806e-05	0.002785995795975721	0.004136537366056293	-0.007962033866544597	-3.7344669821679554e-05
2
70600
Ar	-0.00010715271949288304	-0.0003222158883286915	0.0031862730067692634	-0.022639637671570113	0.007686536823484854	0.00010716669282319656
Xe	0.00012318225721615387	-3.082822779410442e-05	0.0027861927366290146	-0.002073705464170063	-0.008662845419746937	6.80770151169652e-05
2
70800
Ar	-0.0002895208262397579	-0.00017418374698669248	0.0031875189941163668	-0.012312355650836675	0.020683712876723173	0.00010854932731106452
Xe	7.457416657131548e-05	-0.00010311469792601638	0.00278692154733681	-0.00723140221876363	-0.0051880597231261346	6.0772877207820685e-05
2
71000
Ar	-0.00033332324062453067	5.773370531912338e-05	0.0031880748371711483	0.003909652659002603	0.023730518123681706	8.717318822570223e-07
Xe	-9.833938000221431e-06	-0.00012599050481828695	0.002787504329245537	-0.008933991882299677	0.0007937060502701188	5.7640818021353777e-05
2
71200
Ar	-0.0002176121154986341	0.00026158657082285633	0.0031877840407255617	0.01825384922620764	0.015329739586658076	-5.6760118568020635e-05
Xe	-8.947260674422e-05	-8.840286089850488e-05	0.0027879204996703925	-0.006312314877487558	0.006399658850495255	2.9474633830224904e-05
2
71400
Ar	2.234732488068366e-06	0.00033990028750357934	0.0031872459800003556	0.023870736206598093	-0.00033649257396927237	-3.527229162033364e-05
Xe	-0.0001261869629583995	-8.516229910540275e-06	0.002788236671698066	-0.0007188906911600637	0.00892608553145443	2.391006309729179e-05
2
71600
Ar	0.00022104104091434242	0.0002555041480170207	0.0031868682778964943	0.018060730121008457	-0.015860679691360527	-1.3788741839788134e-06
Xe	-0.00010247033874574413	7.565000668332561e-05	0.002788070856580681	0.005248637651054103	0.007207666540509811	-3.03529522530071e-05
2
71800
Ar	0.00033405132079592436	4.865878151675374e-05	0.0031870591823608507	0.0035836018240103227	-0.02378139820183021	2.9693605004127192e-05
Xe	-2.9523603285358208e-05	0.00012378326910895328	0.0027875695292821426	0.008711262195147075	0.0020431010820198495	-6.497972838571393e-05
2
72000
Ar	0.00028684578587712703	-0.00018146276138671506	0.003187294544842396	-0.012587644560895108	-0.020317042537047896	1.1348687725767794e-05
Xe	5.736785313231786e-05	0.0001129209328892852	0.0027869771335341563	0.007951793558545148	-0.004100632509249052	-3.920078109720924e-05
2
72200
Ar	0.00010253351127830473	-0.000324648368532818	0.0031873810945787333	-0.022738105148169464	-0.007104409422809155	-1.6151578971919837e-05
Xe	0.00011674667725131662	4.791368954911106e-05	0.0027867728616668475	0.003403915027321156	-0.008337181759561196	1.7556311242527058e-05
2
72400
Ar	-0.0001308078205558856	-0.0003120494418331553	0.0031870632249433872	-0.021977102008883503	0.009518618009673048	-1.7266404873182842e-05
Xe	0.00012011749396720917	-4.0103785219213644e-05	0.0027871873847036543	-0.002735631073168881	-0.00851498073852019	5.516840223275013e-05
2
72600
Ar	-0.00030156419374644547	-0.00015024651430419863	0.0031872403279477406	-0.010745559242547704	0.021514696447758618	1.4769944402654389e-05
Xe	6.614721363435184e-05	-0.00010878880672570027	0.0027877173979341616	-0.007631298798674759	-0.004642014711465789	3.5651488627919825e-05
2
72800
Ar	-0.00032821049825593315	8.32825124450233e-05	0.003187341767873645	0.005658747114350345	0.023233162688658767	2.430561695761168e-05
Xe	-1.9816642852078923e-05	-0.0001252787448779461	0.002787959821639817	-0.008851953209594506	0.0014736880314134507	3.051982001218021e-05
2
73000
Ar	-0.00019739734106759065	0.0002769651074558175	0.0031875247112590436	0.01937970115186577	0.013865238493610548	-2.2159803408774663e-06
Xe	-9.643543628802445e-05	-8.190974201501705e-05	0.0027882845594296188	-0.0058223953235285895	0.006836608243406426	2.4026141625260727e-06
2
73200
Ar	2.8024647600845228e-05	0.00033817177083829983	0.003187286102682316	0.023823291082063075	-0.002154496444674304	-2.487889819894645e-05
Xe	-0.00012670787430199036	6.881411347632274e-07	0.0027878769180026677	-3.971572848109524e-06	0.008997818340348162	-7.543752163624778e-05
2
73400
Ar	0.0002401932174529082	0.0002374460208032133	0.003187234952694902	0.016820211347887967	-0.017149624139282192	2.4531413190843275e-05
Xe	-9.646468575446099e-05	8.32068484696252e-05	0.0027869539390603564	0.005811807791749912	0.006825276034458851	-0.00010707012814643025
2
73600
Ar	0.00033715116283900736	2.2913012571553393e-05	0.003187514096000915	0.001721336110233005	-0.023969183362844374	2.6081030136001628e-05
Xe	-1.9886495908736644e-05	0.00012614445265841598	0.0027863157980782646	0.008876455365947045	0.0013986751507496023	-3.3644084918669276e-05
2
73800
Ar	0.00027206140510927933	-0.0002027317328770906	0.003187517584269921	-0.014187311268574877	-0.019274732501357604	-1.9867815317010274e-05
Xe	6.677269796258594e-05	0.000108702301550941	0.0027863141168037414	0.007705400147378023	-0.0047481999772916806	3.7564388825708245e-05
2
74000
Ar	7.646957447936633e-05	-0.00033097021796597023	0.003187199324029684	-0.023286278078181236	-0.005307654279298136	-2.784107095532367e-05
Xe	0.00012172525956424342	3.884712386979746e-05	0.002787067706677464	0.0028131765802656685	-0.008641008315893125	0.00010207388487291169
2
74200
Ar	-0.0001556284285838665	-0.00030029366977864073	0.003187003315608302	-0.02121180134318267	0.011168701856485174	-9.061712636095548e-06
Xe	0.00011846871470874437	-4.980131571686493e-05	0.002788144270272145	-0.003460285707789961	-0.00833109119619956	9.763266162841154e-05
2
74400
Ar	-0.00031337935554270375	-0.0001258847297145245	0.003186766865834204	-0.009019358248753256	0.022266461988205862	-8.281529810139043e-06
Xe	5.8384206687515954e-05	-0.00011444031676377028	0.0027889708193227455	-0.008045721317531316	-0.004040681337502035	6.896259024878006e-05
2
74600
Ar	-0.0003212175313037635	0.00010897898381951157	0.003186858460600731	0.007523483171618859	0.02273608548449028	1.864171156761817e-05
Xe	-2.940273206654323e-05	-0.00012415068589190475	0.002789376675862852	-0.00878630502339888	0.002148471740926041	3.704922928470852e-05
2
74800
Ar	-0.00017507111265999386	0.00029209339726319537	0.003186999969911111	0.02048832891176941	0.012338541046194884	7.030736703176346e-06
Xe	-0.00010313737800998907	-7.467863348681841e-05	0.0027893711797843668	-0.005361480753246364	0.007327107906190831	-2.9191079614916634e-05
2
75000
Ar	5.500214402990889e-05	0.00033541668396478704	0.0031871401524041073	0.023625770003978558	-0.004021161705453647	2.3682075737462757e-05
Xe	-0.00012755126171750075	1.0323184103667833e-05	0.002788678658359162	0.0006996522924354389	0.008963321567736937	-0.00011532311945324282
2
75200
Ar	0.00025901487976160044	0.0002180677019520346	0.0031874693652012005	0.015463839385071003	-0.01847833723055223	4.031409617400232e-05
Xe	-9.033201936410502e-05	9.017351686541206e-05	0.002787139448182597	0.006409424205531337	0.006317402891595667	-0.00016615255625395704
2
75400
Ar	0.00033913570600826	-4.034094056353219e-06	0.003187783975553992	-8.949676176903729e-05	-0.02404289460099515	-4.2613283057709997e-07
Xe	-9.84690897279211e-06	0.00012660543021232842	0.002785870615029969	0.00901427221847993	0.0006665708566027614	-8.33577031056431e-05
2
75600
Ar	0.00025707067971467694	-0.00022389646669039007	0.003187334196905338	-0.015648391887819458	-0.018049212720304172	-6.83829069581544e-05
Xe	7.522738953884644e-05	0.00010228060778189368	0.0027855068008682204	0.0073102274349391835	-0.005303185468763251	1.7424814216571364e-05
2
75800
Ar	5.1752270668305154e-05	-0.00033572498382015325	0.003186755876075713	-0.023684616861885884	-0.0033820348968055143	-4.4789250228180015e-05
Xe	0.00012438787565839033	2.8959233680561543e-05	0.002786236142634651	0.0021118684949683795	-0.008770324353672294	0.00010129061903005614
2
76000
Ar	-0.00017820074897134335	-0.0002861781193137496	0.0031865673222953085	-0.02037341578342471	0.012846717719599504	-2.77734526151323e-06
Xe	0.0001140901430380207	-5.87018930625815e-05	0.002787628443766353	-0.004065923468296215	-0.008016860208406876	0.00015469244779333966
2
76200
Ar	-0.00032262925399720814	-9.97164557863955e-05	0.003187001259539146	-0.007288062674766378	0.02287304711436847	7.39758567293633e-05
Xe	4.941774682014614e-05	-0.00011835243164499406	0.0027890712207628942	-0.008320992474165227	-0.0034129179688230475	0.00011977693128378417
2
76400
Ar	-0.00031257574035230214	0.00013454469786758233	0.0031876925561648223	0.009225894799117207	0.02199985587416067	5.2612539782596296e-05
Xe	-3.9007547329782795e-05	-0.00012149392463971834	0.0027899096739806097	-0.008586593284203407	0.002802903419243836	4.375056184409669e-05
2
76600
Ar	-0.0001530556131043475	0.00030471555865372766	0.003187872976594272	0.021341645348500044	0.010598047271861418	-9.841411538472789e-06
Xe	-0.00010853568240301341	-6.658794598805688e-05	0.002790037460587062	-0.00474260232472241	0.0077148979479791276	-2.1898352112647988e-05
2
76800
Ar	7.964091258195627e-05	0.00032913211406870684	0.003187608629942718	0.023263584871178158	-0.005922647816450046	-5.4806057879011625e-05
Xe	-0.0001260240226170653	2.003247765012111e-05	0.002789211509702554	0.00138021460059617	0.008915259362906791	-0.00012536504107572903
2
77000
Ar	0.00027456787978696634	0.00019603099443197576	0.0031872129208268675	0.014073749527397726	-0.019583308809628153	-2.9429769334455793e-05
Xe	-8.330135866402499e-05	9.689558002463604e-05	0.0027874970610675524	0.006830072295540462	0.005820721496444275	-0.00019421645624912107
2
77200
Ar	0.0003381382755852666	-3.085295112423319e-05	0.0031868156716625892	-0.0018914973758937794	-0.023894104919403202	-4.748477406634149e-05
Xe	-6.90443788949835e-07	0.00012711234219788778	0.0027859559543774656	0.009007977532981888	-4.593194922152201e-05	-9.918530397250105e-05
2
77400
Ar	0.00023959453399296748	-0.000242976576157215	0.0031864125022961075	-0.016989621271668264	-0.016743403440654156	-2.4763931563484047e-05
Xe	8.235116748450113e-05	9.611805806887428e-05	0.0027855289381598395	0.006889709982101144	-0.005898084096638315	1.2348587380299503e-05
2
77600
Ar	2.616141381224416e-05	-0.00033823791550116557	0.00318618205097307	-0.023899747408123864	-0.0015341009408824113	-7.458482160864752e-06
Xe	0.00012591744897452368	1.8781139948031444e-05	0.0027862131062055834	0.00145205393060887	-0.008903865055876262	0.00010651078828398748
2
77800
Ar	-0.00019961094144851674	-0.000271124146039729	0.003186542149039328	-0.019365886151171616	0.014394558863778523	5.986182671528996e-05
Xe	0.00010907044575655729	-6.754310716499532e-05	0.002787489825120853	-0.004687670038537367	-0.00761882214978262	0.00014107874011288544
2
78000
Ar	-0.0003297489432437456	-7.369365627528916e-05	0.003187342111780503	-0.005585271152446269	0.02343822939465636	9.756612542757945e-05
Xe	3.974615619593498e-05	-0.00012142375938912539	0.002788583884903842	-0.00859522710272663	-0.0027035258686728307	7.124769630518062e-05
2
78200
Ar	-0.0003022947599158991	0.00015932693913623818	0.0031879777227706327	0.01086120921165695	0.021229931078011056	1.4734813990611499e-05
Xe	-4.873707914936534e-05	-0.00011719401453793505	0.0027888681149766266	-0.00835371960126861	0.003506825974651424	-1.5649950026014253e-05
2
78400
Ar	-0.00012980879651457543	0.0003161854160140454	0.0031878025630796103	0.02217124018770264	0.008830003863834951	-7.390546748685967e-05
Xe	-0.00011367218824331867	-5.682437825835198e-05	0.0027884340570890833	-0.004109616020157587	0.008071023788638358	-6.100061857633476e-05
2
78600
Ar	0.00010512532061643406	0.0003215713133572389	0.00318691776542994	0.022831804949582122	-0.007773103638949926	-9.810505303054287e-05
Xe	-0.00012444581107543486	3.117262836593077e-05	0.0027876263226470307	0.0020686170667274994	0.008763802840834578	-9.346963668403916e-05
2
78800
Ar	0.000289778285335955	0.00017299409934984185	0.0031864749954213932	0.012538187555165933	-0.020692216549115384	1.963097032651871e-05
Xe	-7.56710956052956e-05	0.00010413115137521149	0.0027867430748619486	0.007280823829735941	0.005240598043694518	-5.667029616368357e-05
2
79000
Ar	0.00033541861171994383	-5.882109209087811e-05	0.003186959466624652	-0.0038080071888877917	-0.023705320171587902	4.715477018696933e-05
Xe	9.187421097975202e-06	0.00012734906349903897	0.0027867366820310048	0.008991380447733411	-0.0008091540721580652	4.676533510176744e-05
2
79200
Ar	0.00021977689899934562	-0.0002626357614613619	0.003187242867383255	-0.01833352771997017	-0.015320442049022385	1.6583851273098077e-05
Xe	8.970601914305475e-05	8.940603645511607e-05	0.0027874448963953833	0.006447427849120379	-0.0064593842031816446	9.017586897023181e-05
2
79400
Ar	-1.3421666200342645e-06	-0.00034043695573720634	0.0031870449893047956	-0.024014424115488084	0.00042296267798831944	-2.5587056323582785e-05
Xe	0.0001276343600195947	8.941655528662375e-06	0.002788331117763648	0.0008082863926008405	-0.008984022324330336	6.274279435684182e-05
2
79600
Ar	-0.00022189245417229264	-0.0002549902913979159	0.0031865885003900807	-0.018243773280899336	0.01595679075208671	-4.552397703959997e-05
Xe	0.00010431195126506678	-7.587230395946518e-05	0.002788784581637428	-0.005268174541613875	-0.007250574738544366	4.04593220124691e-05
2
79800
Ar	-0.00033642438078233474	-4.74499046306281e-05	0.003186373806645577	-0.0036943753250913546	0.0238329961793357	-2.3268014935402843e-07
Xe	3.09317264802218e-05	-0.00012442310744082208	0.0027889240195811383	-0.008799710252237188	-0.002040376327735804	1.9050944787728672e-05
2
80000
Ar	-0.00028983220733576196	0.00018303689413860062	0.00318608659562863	0.01263744142341814	0.020297006676906836	-2.5009593306343827e-05
Xe	-5.743960089046469e-05	-0.00011327956298791534	0.0027886287961939238	-0.008127588736205529	0.004157985641570679	-4.3751384673056194e-05
2
80200
Ar	-0.00010422585027779967	0.0003255062583037088	0.0031858243235700296	0.02293586098716224	0.007001115187983555	-2.6986319808204894e-05
Xe	-0.00011834785789800413	-4.809001785532425e-05	0.0027883540749009754	-0.0035395229600228345	0.008352333881049766	-3.0957763122454695e-05
2
80400
Ar	0.00013145090810989622	0.0003120428499801977	0.0031858406582952695	0.02223244607521645	-0.009585704667632795	5.04998249949085e-05
Xe	-0.0001224627357624605	4.0143778833520386e-05	0.0027880453294116675	0.002747854177058607	0.00852990308832438	-3.0015026653783313e-05
2
80600
Ar	0.0003044904312624512	0.00014923252212953683	0.00318639114553359	0.010891509419765154	-0.021613261448401953	6.939920241089125e-05
Xe	-6.796581696575815e-05	0.00010868087997713617	0.0027877854126303024	0.007702521781011748	0.00462834989012242	-3.137456362543362e-06
2
80800
Ar	0.0003312396171458329	-8.510318221318371e-05	0.003186870023842477	-0.0057694587502453475	-0.023282094173361998	2.437256603067978e-05
Xe	1.892156459509946e-05	0.00012526656807065471	0.002787855060071172	0.008957053482481587	-0.0014388828120519977	3.453548194138517e-05
2
81000
Ar	0.00019870839011650626	-0.0002783489087293023	0.003186648143956598	-0.019606096558788665	-0.013751166181277646	-6.051283463280053e-05
Xe	9.678649281359826e-05	8.192198236748887e-05	0.0027883956953083768	0.005951734812610581	-0.0068783256532509475	9.377280273273525e-05
2
81200
Ar	-2.8865401377759353e-05	-0.00033821064856835893	0.003186240248428671	-0.024004216929370183	0.002277458240863218	-1.0689996941766315e-05
Xe	0.0001284135973146679	-7.920074013481536e-07	0.002788852290378273	0.00011188234251807499	-0.008954631300908907	8.199359211999864e-06
2
81400
Ar	-0.00024231514329036536	-0.00023642267828510562	0.003186177589700976	-0.016915129582585578	0.017240551876533266	-9.980207701303252e-06
Xe	9.875818666030526e-05	-8.297713525959465e-05	0.002788573541318658	-0.005807251444886801	-0.006796489152933073	-5.5543639943801625e-05
2
81600
Ar	-0.0003396485499367559	-2.1353193042521374e-05	0.0031862276381446003	-0.0017183689511891913	0.02396790311425148	-1.1464300795654624e-06
Xe	2.1535294283169356e-05	-0.00012570210174354452	0.002787881520343243	-0.009001467894599146	-0.0013954122710973093	-7.7344887158179e-05
2
81800
Ar	-0.0002738408791471524	0.00020401021599057316	0.0031864111910634486	0.014310217873446527	0.01918946219736708	4.083088264910502e-05
Xe	-6.634867552017422e-05	-0.00010838982886262705	0.0027874034142589058	-0.007849990202530355	0.0047118742489740744	-2.506599037170868e-05
2
82000
Ar	-7.665690991422835e-05	0.0003314538368032017	0.003186720210130445	0.023463989601053475	0.005243674629413378	3.675596530977906e-05
Xe	-0.00012234975055274686	-3.910650743559692e-05	0.002787167613413083	-0.0028909984059879525	0.008557787761841679	-1.5523187807147516e-05
2
82200
Ar	0.00015735568012910785	0.0003001908647826261	0.00318714818747805	0.02136683961252567	-0.011244772210804754	2.449691332619112e-05
Xe	-0.00011921352651898813	4.8956387294961526e-05	0.0027876186512552303	0.003488908986565192	0.008314833247702425	9.828885946988059e-05
2
82400
Ar	0.00031596176654797664	0.0001250145555403132	0.0031873843370913814	0.00902623046559248	-0.02233573916586779	2.7748586933760602e-05
Xe	-5.8713928449453954e-05	0.0001135531207905562	0.002788791042486657	0.008104298049565431	0.004082541150666318	0.00012292592281369096
2
82600
Ar	0.00032300492970205194	-0.00011010153224345579	0.0031873049567906864	-0.007667528539637298	-0.022705314815082596	-6.101742297471673e-05
Xe	2.9600000129548734e-05	0.00012380846931935483	0.0027896614158445694	0.008804293376750549	-0.0021298186618375673	4.5258236968935617e-05
2
82800
Ar	0.00017508764579434203	-0.0002923341539455092	0.0031866110983477304	-0.02068758567408303	-0.012231471364720465	-2.4485756300469625e-05
Xe	0.00010331243743025562	7.471266282817083e-05	0.002789589876296867	0.005342504233686373	-0.00727578774961616	-6.335633983234038e-05
2
83000
Ar	-5.699867736682492e-05	-0.00033489125315130035	0.003186878808864264	-0.02377275659066353	0.004104657972325934	5.7179279127812826e-05
Xe	0.00012764801191245603	-1.0007710528643896e-05	0.002788679260129189	-0.0006906904365149709	-0.008954509676786553	-0.00011516476775003413
2
83200
Ar	-0.0002617248385606667	-0.00021659079467115162	0.003187596371429931	-0.015445992866192838	0.01856193982452654	6.97144371400955e-05
Xe	9.088488700655618e-05	-8.994977880296179e-05	0.0027875356592298407	-0.0063664365300069685	-0.006361448023912248	-0.0001166514990136455
2
83400
Ar	-0.00034088691409227376	6.123290615858843e-06	0.003187929586798831	0.00028234822638556137	0.024087765456858524	-5.55908362715838e-06
Xe	1.0525693399913559e-05	-0.00012670810683413483	0.002786597845600798	-0.009021842514005974	-0.0006754095423280316	-7.231997269525931e-05
2
83600
Ar	-0.00025626185563499637	0.00022587650755877497	0.003187569595577758	0.015922620339267536	0.018009948037288715	-5.7797765678535876e-05
Xe	-7.518709187956053e-05	-0.00010241272484515652	0.0027864853050227154	-0.00739929354647536	0.005347097713799314	4.4256684821804114e-05
2
83800
Ar	-4.869412955648001e-05	0.000337251484838408	0.0031867257203257913	0.023861859265580404	0.0033308310999754487	-9.115218787158783e-05
Xe	-0.00012506846421761703	-2.883926504499665e-05	0.0027872372524649857	-0.0021566044830316853	0.008761651468935048	9.05748621485539e-05
2
84000
Ar	0.00018239846573997118	0.00028704025183762596	0.0031859888009721023	0.020381479894986704	-0.012967146507126874	-6.612519118926079e-05
Xe	-0.00011499941967665567	5.8459398844622684e-05	0.0027881717396793077	0.004097723821490987	0.007949891035491652	9.91509703903348e-05
2
84200
Ar	0.000325956171849546	9.91383452686198e-05	0.003185765566774292	0.007134841860983221	-0.023031884622626897	-1.0987075776474659e-05
Xe	-4.9863615234278155e-05	0.00011733987585080912	0.0027891018968313037	0.008369503525365954	0.0033260840802670087	7.367720939730671e-05
2
84400
Ar	0.00031324114758127887	-0.00013622134993403963	0.003185763587618075	-0.009567358213281061	-0.02207070922982113	1.78009614453738e-05
Xe	3.8679176540809424e-05	0.00011975427694291277	0.002789583917036525	0.008598033993225184	-0.0028498023424008184	1.6265907451833858e-05
2
84600
Ar	0.0001506265899053391	-0.00030635169961903687	0.0031860775239805086	-0.02161304541804986	-0.010531801525875175	5.3747116111592453e-05
Xe	0.0001082927305733866	6.467110298065374e-05	0.0027893744929364966	0.004746464473309229	-0.007677572783983497	-6.962538132684873e-05
2
84800
Ar	-8.390073562293883e-05	-0.000329699562141351	0.0031866097192863913	-0.02334586107902619	0.0060673014281908315	6.264535669616049e-05
Xe	0.00012591771447748262	-2.1172438113213114e-05	0.0027881392450495673	-0.0013742763214694652	-0.008783078001781776	-0.00016274352456738275
2
85000
Ar	-0.0002781182935541603	-0.00019478437500662095	0.0031873167042683684	-0.01384247652595795	0.019782359349429606	6.438896445702735e-05
Xe	8.286352483534245e-05	-9.665040648256394e-05	0.0027865429398394917	-0.006871920443265011	-0.005707256015327466	-0.00011781113372988239
2
85200
Ar	-0.0003387674714187933	3.361074131475484e-05	0.0031877240899957785	0.002233568407239204	0.023965850996141756	1.0986668398571206e-05
Xe	-4.478121369372735e-07	-0.00012567600944990236	0.002785905018653486	-0.009105549489661548	0.0001528754882667362	2.546435031661989e-05
2
85400
Ar	-0.0002369936922169079	0.000245381140935473	0.003187389386432147	0.01726641106732804	0.016610650048305028	-3.260332048472918e-05
Xe	-8.406713478520606e-05	-9.389305394290455e-05	0.002786771960482508	-0.006915263598549515	0.005940535927885033	0.00013659583760235357
2
85600
Ar	-2.1604185541094043e-05	0.00033903701522577565	0.003186853869601567	0.02402081309463577	0.0013403048740153341	-7.43780377703077e-05
Xe	-0.00012719292525735095	-1.706003982507183e-05	0.0027884793722629604	-0.001336199961933199	0.008813158055927781	0.00015713624366490642
2
85800
Ar	0.00020446105324699266	0.0002701878126288448	0.0031861232831502453	0.019295062108132543	-0.014542803745835007	-4.752884360213455e-05
Xe	-0.00010911872379319073	6.804049378931985e-05	0.002789441721286392	0.004790085345522713	0.007479027266651708	2.4558214255588e-05
2
86000
Ar	0.00033313900792161994	7.186850621208383e-05	0.0031860195337298845	0.005351978091645405	-0.02343740946441449	-5.053923233514579e-06
Xe	-3.8962244123604094e-05	0.00012052961911617178	0.0027894295929493337	0.008643674714922814	0.002557251451890351	-4.886897428820092e-05
2
86200
Ar	0.00030263127747731525	-0.00016065804387356685	0.003186115315590651	-0.011183886365699199	-0.02110442146001052	2.4358988416647608e-05
Xe	4.957383463140914e-05	0.00011523061970263948	0.0027885679081149617	0.008317747368765806	-0.0035750683240198225	-0.00011523607798611018
2
86400
Ar	0.00012741409781786913	-0.00031597808549755523	0.0031864419513406134	-0.022397372708467738	-0.00866880443612897	4.0297890190131804e-05
Xe	0.00011404004025887752	5.4969064371215425e-05	0.0027871626301810316	0.00405977126390638	-0.007990535050555364	-0.00012136856092563051
2
86600
Ar	-0.00010896262842550168	-0.0003200952966567862	0.003187028498446312	-0.02288453181350229	0.007900237087241304	7.099899615805157e-05
Xe	0.00012426645247557192	-3.1509109535222194e-05	0.0027860030251796227	-0.0021252204536641502	-0.008600113051418359	-9.521384746061412e-05
2
86800
Ar	-0.0002929332428659733	-0.00017073176725046878	0.003187675159396721	-0.012347326024780681	0.020705841465140228	5.179044270941961e-05
Xe	7.491554473138009e-05	-0.0001030483984214098	0.0027856829342869423	-0.007344570581036721	-0.005151204716195039	2.0819220685989687e-05
2
87000
Ar	-0.0003359592857875796	6.0791783866681506e-05	0.0031876906706606177	0.004120455259399202	0.023620660777218867	-5.962892377193526e-05
Xe	-1.0833090956674258e-05	-0.00012568901769990302	0.002786424977958534	-0.009073482428505683	0.0008212672750392068	0.0001423365786112389
2
87200
Ar	-0.0002173387111811679	0.0002630965872885592	0.0031868017642742077	0.018596887817190697	0.015150687709778815	-0.00011837004283594022
Xe	-9.158989107309444e-05	-8.780417909131455e-05	0.00278818667425953	-0.006401279426257465	0.006409773151602772	0.0001701133832251875
2
87400
Ar	5.968936603362397e-06	0.00033951951484493317	0.0031859557223383457	0.024183215968539933	-0.0005218526269955188	-6.19139186914243e-05
Xe	-0.00012853509399821916	-7.769912982694516e-06	0.002789705780171173	-0.0006613967441399006	0.008916717091714103	0.00010258896513084012
2
87600
Ar	0.00022693482342513513	0.0002532483122329232	0.003185670234355109	0.01815553231650793	-0.01600461927430359	-7.436244547918202e-06
Xe	-0.0001040286726605747	7.585727442968047e-05	0.0027903138329545257	0.005360120118377102	0.007110448764066379	1.4274576049919079e-05
2
87800
Ar	0.0003394044692925021	4.548096564829941e-05	0.0031859271043282924	0.00339432968943293	-0.02378826986298918	5.8793637561928976e-05
Xe	-3.0120049214366245e-05	0.00012295947248526498	0.0027898812137374007	0.008810186813043075	0.0019143079340669905	-0.00010814982592459433
2
88000
Ar	0.0002889104656365041	-0.00018389001829314844	0.0031865688590849484	-0.013049462745327298	-0.02015041922130311	5.6870914229340414e-05
Xe	5.789750086953482e-05	0.00011115126530084609	0.002788601341146977	0.008048637746645085	-0.004174202809869716	-0.00013395862794698558
2
88200
Ar	9.979117198203711e-05	-0.00032488508911541873	0.0031872835907771754	-0.023135675869708133	-0.00689504450286767	6.462263926443286e-05
Xe	0.0001178758401941515	4.624755425439915e-05	0.002787206578655887	0.0034680943077786096	-0.008281419459905492	-0.0001313763721059271
2
88400
Ar	-0.00013675201902190191	-0.0003102786190894145	0.0031877549698647064	-0.022187041657246498	0.009689407708166805	1.880343292995778e-05
Xe	0.00012141138755465455	-4.090330897428945e-05	0.002786027424468942	-0.0027741254620756413	-0.008436403687610146	-5.2877069786086695e-05
2
88600
Ar	-0.00030769028727387163	-0.0001467615695492167	0.003187491971359339	-0.010569277726676063	0.021635185839204145	-7.472802147110073e-05
Xe	6.667889980432873e-05	-0.0001086701964649017	0.002785958347303595	-0.0077204743910198916	-0.004523353363632551	6.327250609767438e-05
2
88800
Ar	-0.00033085690061416943	8.701184132904762e-05	0.003186562005129005	0.006129722891844619	0.02314152740710692	-0.00010743550335746884
Xe	-2.0505100763722427e-05	-0.00012440929650854617	0.0027872544444549705	-0.008960093989013625	0.0015222431953387245	0.0001924868413031861
2
89000
Ar	-0.0001949650303473725	0.0002786621485719395	0.0031856854370580605	0.01990158230017278	0.013592381966147402	-4.374687364898352e-05
Xe	-9.795720858772862e-05	-8.056047000941285e-05	0.0027892330162628304	-0.005879270857790573	0.006875410336740582	0.00017716506500083397
2
89200
Ar	3.4556063194936e-05	0.0003370211885337325	0.003185831272294474	0.024084948144608	-0.002393950539328303	6.566350200904032e-05
Xe	-0.0001284322816603621	1.8247486025384294e-06	0.002790251688823912	2.461238563741305e-05	0.008903437304935166	3.866591753553902e-05
2
89400
Ar	0.00024765322561037714	0.00023457086774635743	0.0031868345756417573	0.016754624122902927	-0.01728032552003271	0.00010218402929878014
Xe	-9.742549040834488e-05	8.292886776592761e-05	0.0027902418318574962	0.005923037824645583	0.006662624334716447	-5.544304712296097e-05
2
89600
Ar	0.00034246216064567	1.9658041880038537e-05	0.0031876283564951343	0.0013944926290692407	-0.02393264934517302	2.3719064487520952e-05
Xe	-1.9680891333567374e-05	0.00012401290528376796	0.002789130193753936	0.008979164557530487	0.0012006533902195818	-0.00011342710922195275
2
89800
Ar	0.000273154463651687	-0.0002047720653133121	0.0031879030502181384	-0.014670394962827123	-0.019072625043298947	8.061702382897288e-06
Xe	6.748888297604982e-05	0.00010530181252442712	0.002788125147201162	0.007727319334536893	-0.0047919478294060555	-9.41152519345266e-05
2
90000
Ar	7.293586755206586e-05	-0.0003308098340992815	0.0031877193773711533	-0.023695345183432026	-0.005078295548037139	-2.7394038429722226e-05
Xe	0.0001223748518661644	3.5918065613362864e-05	0.002787167173119403	0.0027916844637773794	-0.008505518290926144	-8.954980578223222e-05
2
90200
Ar	-0.00016210266167938236	-0.00029801583680001025	0.0031871699461988993	-0.021347763866057124	0.01135994613739607	-9.09880649781644e-05
Xe	0.00011870419300636666	-5.102227998638297e-05	0.0027864171456441567	-0.0034935072952297632	-0.008159833482995628	-4.4029428933506153e-05
2
90400
Ar	-0.0003191893478474953	-0.00012219598995625563	0.003186290535319336	-0.008721676711491	0.02233143052079161	-0.00012055302900904566
Xe	5.808550813605601e-05	-0.00011386263017916955	0.002786629141396816	-0.008129176924932256	-0.0038821038667711085	7.43627980828601e-05
2
90600
Ar	-0.00032242009038072517	0.00011208835193582647	0.0031853365426503604	0.008087273931167717	0.02255680133369595	-5.5720025272058075e-05
Xe	-3.067564892697946e-05	-0.00012237477607485682	0.002787785623726145	-0.008865431786585108	0.0022528673710154883	0.00012187616435698178
2
90800
Ar	-0.00017098732757500612	0.00029261426093260193	0.0031854402986670753	0.02091803727694706	0.012035503104720378	8.811553710436137e-05
Xe	-0.00010446556805571829	-7.216693831706402e-05	0.002788652060150659	-0.005279945523278966	0.007322352625654868	6.337203667133481e-05
2
91000
Ar	6.241473711549473e-05	0.00033304315739472945	0.0031868762386939634	0.023798084700834866	-0.004302684453772444	0.0001893735473887959
Xe	-0.00012805147902994655	1.231296498051902e-05	0.0027888072806754502	0.000767118588862331	0.008881569319438523	-1.2223558505838316e-05
2
91200
Ar	0.00026598903940124383	0.00021357648237150823	0.0031883785261614126	0.015209768497173247	-0.01861874015628585	9.914431277285515e-05
Xe	-9.04175392188056e-05	9.118735573907916e-05	0.002788711702815131	0.006436359853665065	0.006216035294482194	-9.252881558165326e-06
2
91400
Ar	0.0003419514882454528	-8.918910738924625e-06	0.0031886205219243814	-0.0006514156667038116	-0.024011884190360978	-6.463132937118642e-05
Xe	-9.420672387867828e-06	0.0001263097466344157	0.002788889060089882	0.009102893015190808	0.0005082074927935566	2.630430673413551e-05
2
91600
Ar	0.00025408545339461897	-0.00022751742856929547	0.0031874607333740863	-0.016187421895358132	-0.017879397056269508	-0.00014574221529746538
Xe	7.676983147291894e-05	0.00010066775069853018	0.0027889264614750628	0.007392032221718622	-0.005442318447116389	-3.9215843652457915e-05
2
91800
Ar	4.431663512151131e-05	-0.00033712646275310676	0.0031861032707451134	-0.023997123403517433	-0.0031009454174305276	-0.00015093200307430418
Xe	0.000126395690690743	2.6436652418037034e-05	0.002788214838022592	0.0021015530881368064	-0.008771304945629325	-8.527545632151816e-05
2
92000
Ar	-0.0001868383673956714	-0.00028486326663110316	0.0031849383716129587	-0.02028637703712265	0.013139593086275166	-8.24320308997502e-05
Xe	0.0001153139208003771	-6.013379453036246e-05	0.0027873923173763263	-0.004212291415575459	-0.007815928089763467	-8.16226986466797e-05
2
92200
Ar	-0.00032835757899413935	-9.582346876912187e-05	0.003184637507211341	-0.006818389502737513	0.023078641059406182	2.713737548918868e-05
Xe	4.896144694695117e-05	-0.00011746607906994707	0.0027870877125886835	-0.008503850749340687	-0.0031796712413226596	2.8744748364912104e-05
2
92400
Ar	-0.0003125172427714541	0.00013904704071633677	0.003185379870906694	0.009854111647817167	0.021921242363440733	0.000136360035179407
Xe	-4.071825326206562e-05	-0.00011858282540111376	0.0027878701994830425	-0.008681021419965549	0.0029628675565051476	0.00010262327211030626
2
92600
Ar	-0.00014732160537784362	0.00030715973430705905	0.00318715542520084	0.0217841798694291	0.010307972095939266	0.0001855336111482032
Xe	-0.00011042152213849114	-6.333220109533224e-05	0.0027886046597463583	-0.0046802681342849334	0.007665828690659259	4.5598536317217775e-05
2
92800
Ar	8.81972052525588e-05	0.000328373097778641	0.0031885733609665224	0.023344514729524788	-0.006253459904662449	7.355064857813986e-05
Xe	-0.00012687139154348372	2.2211938108402247e-05	0.0027887770149356388	0.001513320032614453	0.00873652165668679	2.1039988893758736e-06
2
93000
Ar	0.00028126462680094295	0.00019220761230707013	0.0031884739847159757	0.013650444197419015	-0.019816805956846022	-0.00010373848831899016
Xe	-8.268070707342851e-05	9.722249842184367e-05	0.002788697233918595	0.006950846912777705	0.005648062191911447	-1.6076484859580345e-05
2
93200
Ar	0.0003389654452338159	-3.573176884788743e-05	0.0031866735929277916	-0.0026018624276876547	-0.023863723614681413	-0.00022391685585727817
Xe	1.1735254893713108e-06	0.00012602944089384993	0.0027884060350731777	0.009112864480675676	-0.00012197668482507886	-2.5609168735739155e-05
2
93400
Ar	0.00023411155029276395	-0.0002463077554342788	0.003184841908836779	-0.01751123605978466	-0.01651541997150759	-0.00010554808376625943
Xe	8.443488320876369e-05	9.474421410101961e-05	0.0027879996046995897	0.006842994884529357	-0.005899524664889528	-4.6826293581771525e-05
2
93600
Ar	1.7306035509427304e-05	-0.0003391669082789059	0.00318454873248351	-0.024056401530196544	-0.0012734958040498086	7.048887466493277e-05
Xe	0.00012704871710660068	1.7850337906413117e-05	0.0027876734471250822	0.0012875090551499734	-0.008815375491186779	-9.992308231424463e-06
2
93800
Ar	-0.00020796897595011277	-0.00026984228857651816	0.00318578162200413	-0.019092815631298436	0.014584821819077278	0.0001779352006848265
Xe	0.00010863843044183177	-6.740483593845554e-05	0.002787418263914217	-0.004830419619310905	-0.007506355282280243	-2.5663263707094513e-05
2
94000
Ar	-0.00033339441215239456	-7.114341247043558e-05	0.0031879479410523155	-0.004951417123642653	0.023505967312212366	0.00020382369971606797
Xe	3.8155808471886595e-05	-0.0001202154863343418	0.0027873043509698257	-0.008679443526521372	-0.0026319131678014325	1.421538500672586e-05
2
94200
Ar	-0.00029859257380166393	0.0001617061331934556	0.0031894448022326194	0.011606343238648266	0.021107691489814773	6.538652016811289e-05
Xe	-5.084996763409139e-05	-0.00011570599640265418	0.002787651056291022	-0.008382994646574942	0.003525748108638397	5.171388690375098e-05
2
94400
Ar	-0.00012035559219307096	0.00031687944478070283	0.0031892962191857007	0.02254988873141319	0.008631103794200479	-0.00012419851719394648
Xe	-0.00011571322577490827	-5.558547674975689e-05	0.0027878297965179583	-0.004049141123890508	0.008002514310777685	-1.8250133502780143e-05
2
94600
Ar	0.0001156602523066981	0.0003198098563788714	0.0031874946701042823	0.022654668556770514	-0.00808439460142988	-0.00023381672959851482
Xe	-0.00012496946728597869	3.129015811969392e-05	0.0027877848351130297	0.002270778386304862	0.00865929235645016	2.274527228163988e-05
2
94800
Ar	0.00029618032845476507	0.00016854709659098462	0.0031851034463109486	0.0119347003492808	-0.02086851717119199	-0.00022315400833492353
Xe	-7.389103791361219e-05	0.00010363154789377086	0.002788136325055293	0.007491701394225308	0.005187404988324551	4.800317006044482e-05
2
95000
Ar	0.00033484025662862426	-6.341741721346985e-05	0.003183561892751805	-0.004528093393849463	-0.02360451778469114	-6.854102752940238e-05
Xe	1.2363144323634342e-05	0.0001263886756610809	0.002788570788439116	0.009027807982116968	-0.0008310256806279835	4.749339933950279e-05
2
95200
Ar	0.0002133668930635998	-0.0002650752246756269	0.0031839252099066318	-0.01875158649075279	-0.015044046126707922	0.00015918485017534146
Xe	9.209019383125472e-05	8.883200705924274e-05	0.002789014165392857	0.006264782659511135	-0.006347879525800785	4.3704182689020196e-05
2
95400
Ar	-1.0097795845145134e-05	-0.0003399547759087067	0.0031863509042888674	-0.024078002944058933	0.0007181266079756036	0.0002747306682301741
Xe	0.00012754829378158015	9.551680708783263e-06	0.002788927292242465	0.0005410843473495518	-0.008854139107279195	-4.613856032755522e-05
2
95600
Ar	-0.0002289437477955432	-0.00025187794771357826	0.00318867144347604	-0.01783985462906735	0.016155715658658292	0.00016348118859723306
Xe	0.0001020137839581347	-7.412879968887513e-05	0.0027882987607017683	-0.005433420451986767	-0.007176393670432031	-6.660519612681057e-05
2
95800
Ar	-0.00033807718767210615	-4.30656152190572e-05	0.003189367842789724	-0.003060087351490944	0.023839243533174785	-1.588432723497837e-05
Xe	2.7271296551029278e-05	-0.00012214906514765395	0.0027875865108333417	-0.008878069270601351	-0.0020613734214340405	-6.37881651567781e-05
2
96000
Ar	-0.00028519318196781765	0.00018626195998764532	0.0031884375165910817	0.013172472910572766	0.020090483373482997	-0.0001694956147287086
Xe	-6.099041303033858e-05	-0.00011165887938466213	0.002787259433826538	-0.008044982384337004	0.004082122357287275	7.64828779873649e-06
2
96200
Ar	-9.566430214341464e-05	0.00032639897570218874	0.0031864547557623763	0.023117970225219213	0.00674908244797689	-0.00020902742972855897
Xe	-0.00012047381845411894	-4.751012221805094e-05	0.00278738193943288	-0.0033166670840837895	0.00823372306589649	2.3215564158224416e-05
2
96400
Ar	0.00013973166666876423	0.00031031636003382777	0.0031847017731342652	0.021978672644914068	-0.00984429776633632	-0.00012385210670100478
Xe	-0.00012186727089092507	3.950662019135372e-05	0.0027876694858247437	0.0030384696320586257	0.008435315574376701	2.5316857018885806e-05
2
96600
Ar	0.00030806210007692435	0.000145631526455353	0.00318401546209396	0.010279553679141714	-0.021727202557361453	1.9321396229291866e-05
Xe	-6.511089233763746e-05	0.00010744765319188268	0.002787963715085312	0.007844520304699794	0.004579709535357689	3.282492252465298e-05
2
96800
Ar	0.00032881378785571297	-8.876592773693034e-05	0.003185146699247781	-0.006314342190173558	-0.023195399755932277	0.00021112020098160682
Xe	2.25722885201501e-05	0.00012372951862076699	0.002788193491868792	0.008948326024314208	-0.0014762991779354207	-4.401470360892329e-06
2
97000
Ar	0.0001920653588335163	-0.00028055237138870537	0.0031875947103582594	-0.01989117878047305	-0.013572582798834106	0.00025932659156743945
Xe	9.943340828569221e-05	8.06402538627373e-05	0.002787886453018436	0.005760345369238408	-0.0067834915627614165	-5.767211588776216e-05
2
97200
Ar	-3.6871333272554234e-05	-0.00033786392111992614	0.0031892884162577086	-0.023959426653726933	0.0025896321703594676	6.517953970071239e-05
Xe	0.00012845043627663822	-1.1295424836058098e-06	0.002787478661135529	-0.00019010255856734645	-0.00890136967194418	-5.863961046791375e-06
2
97400
Ar	-0.00024781754633398424	-0.0002328776854148782	0.003189137247658696	-0.016455765881730144	0.017497723221157484	-0.00010831592645120263
Xe	9.568795419917105e-05	-8.292584377219413e-05	0.0027875832927780728	-0.006069674358047311	-0.006750961958515236	3.695213605488171e-05
2
97600
Ar	-0.00033933142055278726	-1.6326918261758206e-05	0.0031872556668303986	-0.0011083651412773696	0.02399680928676541	-0.00023419889738516658
Xe	1.6910276942142734e-05	-0.00012527864957053618	0.00278787641775542	-0.009016120077959214	-0.0013224375518028758	4.27081171777984e-05
2
97800
Ar	-0.0002680864495080318	0.00020805483415851003	0.0031853632517549555	0.014748722661885958	0.019008163186203617	-0.00013081430148605082
Xe	-6.967549122495709e-05	-0.00010746115411504328	0.0027882525284406907	-0.007595925314446234	0.004722754353950403	1.6326885602219416e-05
2
98000
Ar	-6.826506968012702e-05	0.0003331252406072475	0.003184824085726704	0.023534858845819347	0.004942215937095445	9.791953030859603e-06
Xe	-0.00012266808604873583	-3.857466804118304e-05	0.002788241517753044	-0.0025588537883707487	0.008489661743103444	-1.7536852248808617e-05
2
98200
Ar	0.00016445634197287713	0.0002986737424434764	0.0031851727598839258	0.021047151508464125	-0.011538226141753562	7.024744334566716e-05
Xe	-0.00011692829228346778	4.8639551549730787e-05	0.002787944396302471	0.0036686087124159273	0.008228559702883931	-2.9608832478376027e-05
2
98400
Ar	0.0003183408854163337	0.0001212340698402118	0.0031862533037692493	0.00843216845021348	-0.022455462018723258	0.0001375207467385894
Xe	-5.518201305093108e-05	0.00011241629145486987	0.002787800957800962	0.008182676617731805	0.0039845107806888505	-1.7223089690810876e-07
2
98600
Ar	0.00031982212051601746	-0.00011399160466257155	0.0031876569190492227	-0.008173535910714205	-0.02260500905157718	0.00013918864474687307
Xe	3.3336189000720626e-05	0.0001223293063717177	0.002787856168249052	0.008757883971099256	-0.0021063898316229573	-1.4287658946385532e-05
2
98800
Ar	0.00016823124562245117	-0.00029415776494529685	0.0031886863488170755	-0.020895400685549063	-0.011937477258239968	2.546556486660471e-05
Xe	0.00010581329195304358	7.389303823284329e-05	0.0027875456142132534	0.005134470473793138	-0.007191583906439508	-4.254534726773972e-05
2
99000
Ar	-6.398071346024753e-05	-0.0003330109423546222	0.003188234385228863	-0.023577964568048115	0.004496886006927799	-0.000132690943392487
Xe	0.00012765617613062584	-1.0138463872581687e-05	0.0027874323048967696	-0.0009568135528706058	-0.008892543771581203	9.35039472064382e-06
2
99200
Ar	-0.0002652268569250935	-0.00021175107466362485	0.0031866259580464427	-0.014965949707154196	0.018703915905609513	-0.000170765275974781
Xe	8.78679240770906e-05	-8.955638053174928e-05	0.002787771113131256	-0.006644581215923797	-0.00634256354529189	5.9531305648496086e-05
2
99400
Ar	-0.00033911531687247425	1.0720862064421523e-05	0.0031855872006044173	0.0008095537389506719	0.023941254212002903	-2.7239086713721457e-05
Xe	5.987287976540512e-06	-0.0001263555130759377	0.0027882346489691476	-0.00902242269483131	-0.0007103388144161835	-4.952267889556124e-06
2
99600
Ar	-0.00025049089299081315	0.00022843585406548438	0.0031859686370300302	0.016161713733682744	0.01777015233888997	0.00010785815115200854
Xe	-7.825021687668091e-05	-0.00010259743796440967	0.002787741319865642	-0.007105233225992924	0.005268830123908563	-7.776758060671128e-05
2
99800
Ar	-4.1835692399193145e-05	0.00033706118329913476	0.003187250453775515	0.0237919779099027	0.00303706305404577	0.00011574820977237608
Xe	-0.00012467804715773039	-2.9535356185229244e-05	0.0027870772767426403	-0.001775767469255538	0.00873792971059723	-6.28809003671792e-05
2
100000
Ar	0.00018673095736352255	0.0002839903764437645	0.0031881324109715708	0.019996564311422774	-0.013204829574865443	4.7753091832106754e-05
Xe	-0.00011114352387934536	5.8127596263351716e-05	0.002786715400734998	0.004377254560831403	0.008047046453399922	-8.05184475707746e-06
2
100200
Ar	0.00032546311952884934	9.454146193832066e-05	0.003188219467438466	0.006617470348425699	-0.023117553649022717	5.280830744323347e-06
Xe	-4.42161432906121e-05	0.00011801884662335495	0.0027868460023127914	0.008436098733352689	0.0034093439868807195	3.0193596215956756e-05
2
100400
Ar	0.0003083800522333943	-0.00014058163591522033	0.0031878194174114393	-0.009896677789740307	-0.021935007477798384	-8.982706291826216e-05
Xe	4.390368110781724e-05	0.00012103253172622081	0.0027871855981113636	0.008434106347029178	-0.002830678293071484	4.107229408752468e-05
2
100600
Ar	0.0001433949481133348	-0.0003085484558910125	0.003186651548404111	-0.021696267244453466	-0.010239098378336406	-0.00012701758304313533
Xe	0.00011130559794656449	6.577727311051938e-05	0.002787565576363417	0.00445544069542649	-0.00775205681062883	5.328802269345127e-05
2
100800
Ar	-9.059842933085444e-05	-0.00032875084046070656	0.003185494907679759	-0.02309595324922136	0.006382832147280566	-8.966135801122142e-05
Xe	0.00012558007683499236	-2.12074336134721e-05	0.002788228821844461	-0.0017281705143150491	-0.008906412866336505	5.0969501213679934e-05
2
101000
Ar	-0.0002812841524954213	-0.00019133293046748448	0.0031849148374831	-0.013440567693132078	0.01992359232094418	2.1037572898695594e-06
Xe	7.965245304683508e-05	-9.792023343010944e-05	0.00278852251751494	-0.007056126261309711	-0.005794773491464131	2.712157843168954e-05
2
101200
Ar	-0.0003377364815766067	3.751221139057199e-05	0.0031856175981954333	0.002636544534947158	0.023924537178804148	0.0001227585971248226
Xe	-3.953218872008328e-06	-0.000127589785554177	0.002788425778861503	-0.008951363251880892	9.235109162914759e-05	-1.9448914437721983e-05
2
101400
Ar	-0.00023237751278301034	0.0002483692285689078	0.003187033793704379	0.017538483703042416	0.016471293679126458	0.00015381204402933397
Xe	-8.537839417625795e-05	-9.626228272475057e-05	0.0027881799339645294	-0.006646492757780772	0.005898398563547264	-1.554783930796889e-05
2
101600
Ar	-1.5339936356565553e-05	0.00033971802960959877	0.003188273880933619	0.024018422803865912	0.0010612567028472012	7.54550970895952e-05
Xe	-0.00012604031977554893	-1.9029263964641442e-05	0.0027882901847357737	-0.0011588892340797694	0.008902251318546769	5.522355543874764e-05
2
101800
Ar	0.0002088262628993977	0.00026783343870588014	0.003188425627742894	0.01893358750840828	-0.014821519208503862	-5.138086785253348e-05
Xe	-0.0001066045691308301	6.725351009664793e-05	0.0027890036550102105	0.004892129291356255	0.00762756341427113	6.745086193880657e-05
2
102000
Ar	0.00033244044651472324	6.750740745486388e-05	0.003187521643248849	0.004790499893823348	-0.02357967099887121	-0.00012514140642442672
Xe	-3.592652878960343e-05	0.00012136791282743443	0.0027893415908437696	0.008648828510554893	0.0027467533116686564	-1.65597985690182e-05
2
102200
Ar	0.0002970108493336008	-0.00016543213520868187	0.0031862352948749595	-0.011556959077345098	-0.021041814531781815	-0.00013477617537783562
Xe	5.2267447082673386e-05	0.00011763452034408902	0.0027887970211347896	0.008239080023430073	-0.003493223206660228	-9.696340179274709e-05
2
102400
Ar	0.00011953428560415323	-0.00031942042732675206	0.0031850824672319364	-0.022456281126439586	-0.008461722304854256	-7.299659271227625e-05
Xe	0.00011532173523905833	5.725637705974104e-05	0.002787768528301854	0.0038461299123808117	-0.008077275554146945	-0.00012532035979332716
2
102600
Ar	-0.0001156569373602674	-0.0003205035773920368	0.0031847890507692763	-0.022589266841328615	0.008248706378308497	2.989606462489793e-05
Xe	0.00012310675923720007	-3.0669229419906535e-05	0.0027868729921651392	-0.0023482188744283036	-0.008762588675184665	-5.3579996964162474e-05
2
102800
Ar	-0.0002956037795718868	-0.00016815520247504502	0.003185581567147803	-0.011903018721978487	0.020962553107949616	0.00012074853313063797
Xe	7.201662151121963e-05	-0.00010390205198145563	0.002786719817581644	-0.0074240761710408845	-0.005260202896608107	-2.1924590006418785e-05
2
103000
Ar	-0.0003340135509017827	6.472216057044665e-05	0.003187105932752155	0.004545652514689305	0.0236547983414911	0.0001836844541509032
Xe	-1.347429761438069e-05	-0.00012724014545606568	0.0027869356250187736	-0.008961062762218322	0.000809598168486062	2.8550073236205758e-05
2
103200
Ar	-0.00021209063564954698	0.0002664329882473982	0.0031884725837292884	0.01879240027502662	0.014983007135165767	8.209740501163058e-05
Xe	-9.246793890125783e-05	-8.902017042060016e-05	0.002787510976681196	-0.0061751214014815715	0.00653710501300684	8.033602383704223e-05
2
103400
Ar	1.1332092282370985e-05	0.00034017124567870384	0.0031887658124043596	0.024024452372981012	-0.0008534208840839317	-3.454626573607404e-05
Xe	-0.00012697481704349267	-7.60536772192035e-06	0.002788524646953506	-0.0004412491400695652	0.009055340944076836	0.00010983711741413369
2
103600
Ar	0.00022919435700577154	0.0002508135253527588	0.003188096320220708	0.017709658212991784	-0.01626922146152889	-0.00010082278439681428
Xe	-0.00010056038749094573	7.72274131590484e-05	0.0027893433301784737	0.005517285734558247	0.0072036347826256696	5.352589684270355e-05
2
103800
Ar	0.00033693095996055076	4.137715430136851e-05	0.0031871053878206675	0.0029258365078914396	-0.023897696442067753	-9.993800382229508e-05
Xe	-2.600137970378932e-05	0.00012491287047146875	0.0027896045315073167	0.008765222718083554	0.001921515486087185	-1.3486549033975783e-05
2
104000
Ar	0.0002833315318990235	-0.0001881902094396592	0.0031862480901744712	-0.013226443001123175	-0.02006440607605601	-6.476401551573309e-05
Xe	6.066661056054391e-05	0.00011255169047164205	0.002789035839883866	0.007825868443844834	-0.004278191968298622	-9.788503520226922e-05
2
104200
Ar	9.409912414067496e-05	-0.00032752350330322784	0.0031857739933247166	-0.023045284040879094	-0.006631146717764525	-1.8468758269921625e-05
Xe	0.00011808073990845472	4.639411531878281e-05	0.002787787735298734	0.0031621476244069534	-0.008385358313310875	-0.00013774738848286883
2
104400
Ar	-0.00014028678947455178	-0.0003099116046964016	0.0031859473292959227	-0.021866013472036303	0.010002093647908546	8.423059629483728e-05
Xe	0.00011890475753285354	-4.142571758039805e-05	0.002786581784533819	-0.0029786073746978113	-0.008442278371631076	-8.562209319667205e-05
2
104600
Ar	-0.0003073592269017529	-0.0001438837766381002	0.0031868715541476557	-0.010147598123066016	0.021804986761495733	9.142894293169615e-05
Xe	6.310747464868471e-05	-0.0001090276581534995	0.00278602555705936	-0.007719156402046251	-0.004498217566951733	-3.334912065189336e-05
2
104800
Ar	-0.00032700444294952237	9.102170116265693e-05	0.00318748067457265	0.006385741576168424	0.023195827449693774	2.6904887282797716e-05
Xe	-2.3055057854000896e-05	-0.0001239494983782584	0.0027858307836164196	-0.008786876402358878	0.0016292484652375295	2.436787104978799e-05
2
105000
Ar	-0.00018982537382992756	0.0002820888313494227	0.0031875670521940625	0.019890695255980178	0.013394925006439285	-2.6466998312214397e-05
Xe	-9.828444128744259e-05	-7.921432878520897e-05	0.0027863647300568205	-0.00563703628253425	0.006940424918065683	8.802929533010937e-05
2
105200
Ar	3.839077072467918e-05	0.0003375112231791348	0.0031873186151827318	0.023821210054253757	-0.002757955165917216	-4.8124878190159666e-05
Xe	-0.00012656668842904968	3.6924369287980843e-06	0.0027874458726125425	0.0001991711526074467	0.008951710018122203	0.00011685278202911484
2
105400
Ar	0.0002480956947273411	0.00023154115274992993	0.0031869390287443196	0.016369926271380165	-0.01753467198320307	-2.9861655137099014e-05
Xe	-9.436386374573724e-05	8.508805722394201e-05	0.0027886282210421182	0.005976145206643216	0.006637799944428482	0.00010254710188037662
2
105600
Ar	0.00033902109847086835	1.4938016040920093e-05	0.003186819666995228	0.00106203530294685	-0.02397045493580445	3.010814444461594e-05
Xe	-1.7062041906598878e-05	0.00012575898626143215	0.0027894876814632567	0.008837517085083397	0.0011662879696401384	4.0315981768304074e-05
2
105800
Ar	0.0002673508012723232	-0.00020890564763206544	0.0031871726372860133	-0.014784905349698821	-0.01889686609167813	4.8312463647282406e-05
Xe	6.813598870659751e-05	0.00010652161982244668	0.002789520145400056	0.007458318427105501	-0.004854126141518561	-3.9818734494377005e-05
2
106000
Ar	6.751668350748876e-05	-0.00033241957811043466	0.0031875839424508876	-0.023530130977879742	-0.0047648130548776715	3.2189885268362766e-05
Xe	0.0001203160619941935	3.6437028645996e-05	0.002788578110399653	0.0025315794986586703	-0.008577990042817948	-9.87383882023049e-05
2
106200
Ar	-0.00016470695498882593	-0.0002965342517508257	0.0031877431088786256	-0.020970477830385737	0.01165692517363107	-1.998481443633001e-05
Xe	0.0001146939146936595	-5.1020549682763184e-05	0.002787345252914254	-0.0036016816015675456	-0.008187193966463873	-0.00011343072509335496
2
106400
Ar	-0.0003178934001619987	-0.00011832846597832188	0.003187444485814279	-0.008375561466544978	0.02248282540205624	-4.2604515749344146e-05
Xe	5.4354449772129996e-05	-0.00011405202649769871	0.0027866400696487134	-0.007961181309385687	-0.003890556658007156	-3.526726792281771e-05
2
106600
Ar	-0.00031893023203315857	0.00011665149374263391	0.0031868715523521826	0.00822192891518765	0.022529822519919553	-4.7244385530003704e-05
Xe	-3.1853745985732105e-05	-0.0001225358478902434	0.0027866214735989335	-0.00855577954133843	0.002278524839754928	3.7503968716504124e-05
2
106800
Ar	-0.00016684606597478047	0.0002954899330281339	0.003186406736349301	0.02091518265733537	0.011744628712982019	-5.702551194953441e-05
Xe	-0.00010283633060076205	-7.233940243413537e-05	0.002787447831407469	-0.005027173119373135	0.007325997164992174	9.504343392864657e-05
2
107000
Ar	6.517399968618752e-05	0.0003326637840598765	0.0031861088045139095	0.023565336370557376	-0.004610608776433705	1.6951328230120944e-05
Xe	-0.00012463215795380017	1.2312091972195837e-05	0.0027883329414136967	0.0008650900071153409	0.008884805860534941	9.014612474529827e-05
2
107200
Ar	0.00026614708314535263	0.00021041972466285768	0.003186379321128294	0.014923291778314045	-0.018789373223861032	1.5059347461255778e-05
Xe	-8.684763297057061e-05	9.10375408034395e-05	0.0027888500488616108	0.006360276588401672	0.00619438639733065	3.3778679421189564e-05
2
107400
Ar	0.00033945813939546734	-1.2601309723643724e-05	0.0031867358516775826	-0.0008608786986788009	-0.023930531197286543	3.111418837958162e-05
Xe	-7.506273601904991e-06	0.00012609761262747944	0.0027887516667635423	0.008835858082038397	0.0005106007411191595	-4.6189115195698555e-05
2
107600
Ar	0.00025029303639272066	-0.00022953719360538827	0.0031871335607267723	-0.016219900979821754	-0.017614149140683842	5.362359536573765e-05
Xe	7.561663192154439e-05	0.00010060429685833639	0.0027879622529419982	0.007081856354738392	-0.005387823050535701	-0.00011225898938775735
2
107800
Ar	4.135415561924555e-05	-0.00033621613912971515	0.0031875852701670265	-0.02381869606245569	-0.002835163861001645	2.3975366714450005e-05
Xe	0.00012247784260772598	2.6781719610807872e-05	0.0027871443719950104	0.0018726053100485704	-0.008766235708765672	-7.427722484880073e-05
2
108000
Ar	-0.00018722458581684693	-0.00028159243475375334	0.003187608784968712	-0.01998284923538164	0.013296863208252461	-6.61449826654361e-06
Xe	0.00011004717324715031	-6.0227315694661484e-05	0.0027867478873245936	-0.004260873956918251	-0.007893716163859468	-1.2329281013635195e-05
2
108200
Ar	-0.00032583390474940374	-9.201436042511799e-05	0.0031875884281107325	-0.006598379850493944	0.023023848133913654	-2.0701264045938072e-05
Xe	4.438377429105037e-05	-0.00011831169455783025	0.002786659168241814	-0.008321817786646923	-0.003244635891656016	3.215177443356597e-05
2
108400
Ar	-0.00030818060439040125	0.0001416460780786023	0.003187184559685649	0.009967937869350667	0.02173697249615495	-3.193803749132133e-05
Xe	-4.269460054629392e-05	-0.0001197145828372967	0.002787223793432889	-0.008354905866580019	0.002994946638210397	7.025130576557593e-05
2
108600
Ar	-0.0001428379928177002	0.00030738621818256987	0.0031869861949549694	0.021711214918389544	0.010016851817211255	-1.3720218993383946e-05
Xe	-0.00010892384828714242	-6.353204452637328e-05	0.0027879088014268355	-0.004361931327892753	0.007770743708613104	5.2154490100833576e-05
2
108800
Ar	9.07762285522334e-05	0.00032599365521564477	0.003186932141485285	0.0230735197796706	-0.006458083713979621	-1.236979523773577e-05
Xe	-0.0001230939852204653	2.3161452852957923e-05	0.002788199565370513	0.0016398419878405081	0.008822949844116279	-4.281358798435326e-06
2
109000
Ar	0.0002811150856346342	0.00018839475750187103	0.0031868858586266116	0.013427074765822061	-0.019893582910089493	1.754360674263616e-05
Xe	-7.849531851413975e-05	9.863325010650848e-05	0.0027877891724458785	0.006892819293633607	0.005620708902709388	-5.846298690238419e-05
2
109200
Ar	0.0003368795548144965	-3.93947424557911e-05	0.0031869968809736726	-0.002776355115962062	-0.023761642119043618	-3.780618951566053e-06
Xe	3.4897303005346383e-06	0.0001266069283044716	0.0027870255533723343	0.00883091050486501	-0.00027224835855908965	-6.998918850371495e-05
2
109400
Ar	0.00023070405444006672	-0.00024842163331039016	0.003187059777525468	-0.017554015125212125	-0.0162797720538516	1.9630590266946927e-05
Xe	8.384775938505808e-05	9.370630345460874e-05	0.0027865852960121894	0.006554729195915559	-0.0060449815216167945	-1.940309680672832e-05
2
109600
Ar	1.4186538632833973e-05	-0.0003384631459212491	0.003187434104336983	-0.023945019239517085	-0.0009531618113486167	5.239129593386555e-05
Xe	0.00012404457062955158	1.57684888141296e-05	0.0027868020317208604	0.0011645475147754418	-0.008885143834011988	4.4679466567631085e-05
2
109800
Ar	-0.00020898132758144064	-0.0002662615861075841	0.0031878649408416493	-0.01885315891209726	0.014771626584114145	3.782929835429818e-05
Xe	0.00010511473404072329	-6.944337008197264e-05	0.002787516919653545	-0.004780713123821102	-0.007460668440839828	7.665040568664994e-05
2
110000
Ar	-0.00033207207574383063	-6.665530371261557e-05	0.0031879268204595425	-0.004755601786662295	0.02346732597525706	-1.700219278682862e-05
Xe	3.608770891033469e-05	-0.00012122600982686813	0.0027883182120728186	-0.008405948979676114	-0.0024597136200320904	0.00010806622860286791
2
110200
Ar	-0.0002963276316233821	0.00016501691027664863	0.003187372844587045	0.011583932760714306	0.02094625593002407	-6.589234162706213e-05
Xe	-4.978925690343151e-05	-0.00011487803515047045	0.002789023661220765	-0.008018726814086235	0.003652777901092874	4.5269527519404416e-05
2
110400
Ar	-0.00011897858979617373	0.0003179665951720527	0.003186715398640603	0.022413610965870207	0.008375659265803612	-7.246431603382296e-05
Xe	-0.00011161573879303933	-5.407293442691325e-05	0.0027889855815185684	-0.0038203827957555957	0.007996859878226086	-5.310881099597148e-05
2
110600
Ar	0.00011530007738940604	0.0003190830296727029	0.0031862000375535706	0.022468878777996127	-0.0081577239186853	-2.8746603783164903e-05
Xe	-0.00012012638059529182	3.222253597204623e-05	0.002788131412819505	0.0021814401169296623	0.00854015865042378	-8.920990907857222e-05
2
110800
Ar	0.00029440936181858256	0.00016763732762827121	0.003186317764626069	0.011832156567015903	-0.02086830953813991	4.407892055816001e-05
Xe	-7.144529067086408e-05	0.000102882175354419	0.0027872199698177878	0.0071610414058741875	0.005022135477825274	-7.316436006296021e-05
2
111000
Ar	0.0003327539186790528	-6.436490997234523e-05	0.0031871331451035784	-0.0044842784920927576	-0.02358997005368256	0.0001206541808792645
Xe	1.1566676979481299e-05	0.00012434482608126633	0.002786456315831148	0.008739607560666968	-0.000933549037624863	-5.723154208090487e-05
2
111200
Ar	0.00021183952949256827	-0.0002654608811591328	0.0031878168640461406	-0.01866701727044631	-0.014937921154432305	2.294274769583572e-05
Xe	8.934349908828157e-05	8.578536955264636e-05	0.002786462471628917	0.006162848924208315	-0.006461631941296506	5.86772196050314e-05
2
111400
Ar	-1.0134155458306611e-05	-0.0003390341747979377	0.003187866431824238	-0.023853959656359915	0.0008334799086239532	3.439150415080682e-06
Xe	0.000124272978532209	5.502801811409876e-06	0.0027871336249611772	0.0005432323482273984	-0.008895089051665474	7.521490541756007e-05
2
111600
Ar	-0.00022675722985807434	-0.0002501744255297927	0.003187664000410758	-0.017657750592751258	0.016197521805753096	-5.4512053391370205e-05
Xe	9.943484223354794e-05	-7.748312951562017e-05	0.002787755068642022	-0.005276828842282099	-0.007014001244496835	4.3185277213849844e-05
2
111800
Ar	-0.00033469868217378044	-4.1336050542954925e-05	0.003187110947896113	-0.0030253592272057113	0.02382787462237857	-3.2578747574866274e-05
Xe	2.693015597675482e-05	-0.00012315258153248668	0.002788060685462795	-0.0086140489897982	-0.0017342543391581306	5.765414746510678e-06
2
112000
Ar	-0.00028234401389596757	0.00018728638436007127	0.0031868873548613224	0.013054126330720627	0.019998668387463954	7.81258669632678e-06
Xe	-5.839872795699903e-05	-0.00010958847866015061	0.002787683405136275	-0.0077439446397286555	0.004322035914090556	-7.907898645805622e-05
2
112200
Ar	-9.487533016636045e-05	0.0003260160973286187	0.003187105169773196	0.02285953123061	0.006573859558714317	5.049811971565085e-05
Xe	-0.00011537451431382721	-4.348484112390743e-05	0.0027870952858315553	-0.0031904665483265863	0.00832509837678269	-3.6890417320704395e-05
2
112400
Ar	0.00013785350811034092	0.0003081763632289989	0.0031877216561675835	0.021747695700899704	-0.009988878496429921	6.0058521249584985e-05
Xe	-0.00011716472082459894	4.356937877780112e-05	0.0027870127462508065	0.0028788156285398476	0.008326357511959833	-1.5179864651108765e-05
2
112600
Ar	0.0003049082886314166	0.00014254092121869364	0.003188227338511026	0.010244700086465658	-0.021754761632916314	4.08437680031678e-05
Xe	-6.2562379987636e-05	0.00010961553110170301	0.0027864261492153834	0.007598768154732672	0.004319196215267082	-6.772996215595712e-05
2
112800
Ar	0.0003257657843187618	-9.124634667366823e-05	0.003188259080462985	-0.006243207758633637	-0.023036892666122077	-5.720688294115102e-05
Xe	2.232255206462914e-05	0.00012315479334641625	0.0027862020536795055	0.00868323367982423	-0.0017208379095649284	3.343972647299574e-05
2
113000
Ar	0.00019009066830882624	-0.0002808216533126186	0.003187326413977195	-0.01976026220917111	-0.013272919098735993	-0.00012012405888718293
Xe	9.685081381944302e-05	7.779156391460666e-05	0.0027870378348180142	0.005592600875965565	-0.0069639051646810555	0.00010434116543710658
2
113200
Ar	-3.6833834736367706e-05	-0.0003356222959520083	0.0031863469710928854	-0.02373921504589831	0.002781319747099565	-8.066073979655181e-05
Xe	0.00012515685850997637	-4.706959438830887e-06	0.00278815307469551	-0.00017694968749785192	-0.008819612667807909	0.00011510013849343848
2
113400
Ar	-0.0002463063701294807	-0.00022973086440736495	0.0031861526162645787	-0.016389033217829432	0.017494738764895407	6.806827429746373e-05
Xe	9.381122768435162e-05	-8.471273485761024e-05	0.002789003333606777	-0.005835695238801706	-0.006516045108542565	3.959409058434716e-05
2
113600
Ar	-0.00033795639359413454	-1.4130074640434546e-05	0.003187407434925642	-0.0011692459911965389	0.02383766862168303	0.00015054236940423594
Xe	1.804181930475168e-05	-0.00012418813169824314	0.0027888821047312115	-0.00870224640531091	-0.001036710908300312	-4.995771873452449e-05
2
113800
Ar	-0.0002676176770953327	0.00020814556146077855	0.0031885380178449056	0.014632716551579574	0.018749517053460996	7.319248858583218e-05
Xe	-6.609996882184553e-05	-0.00010386297890003143	0.002788035561444543	-0.007415660136176185	0.004934855139827465	-0.00010284895685152034
2
114000
Ar	-6.920252765265019e-05	0.00033036233780370575	0.003188813786290479	0.023412191566040068	0.004680229431303877	-9.559696307050965e-06
Xe	-0.00011841205073696719	-3.365694895737552e-05	0.002786880540549893	-0.0025963092854983977	0.00853723732844739	-0.00012733955295904682
2
114200
Ar	0.00016236566332334103	0.0002943348138927372	0.0031884888385597145	0.020963064117845383	-0.011578734662803531	-4.813013137119356e-05
Xe	-0.00011391121093762379	5.2875400814411634e-05	0.0027857588507454066	0.0034428209170658873	0.008047873326945508	-9.123384997215838e-05
2
114400
Ar	0.000316001680340045	0.00011745805120095258	0.0031878726557195325	0.00846779192087953	-0.022332533663491135	-7.980697863147935e-05
Xe	-5.479821599147506e-05	0.00011412472821474725	0.0027851080149429363	0.007906134649144414	0.003688663545841117	1.102259724348328e-05
2
114600
Ar	0.00031788328957771676	-0.00011607325603861492	0.003187034496318979	-0.008097668600365045	-0.022386032588588355	-9.471024100774217e-05
Xe	3.0984103873945124e-05	0.00012052487778039405	0.00278590464297299	0.008525141375766166	-0.00247917438119182	0.0001283148753461366
2
114800
Ar	0.00016729092778099068	-0.0002940367437108846	0.003186202985797992	-0.020770863765840933	-0.0117357470116909	-6.865133605176376e-05
Xe	0.00010198227372013862	6.891677408697422e-05	0.0027874540170992747	0.0050607261219662416	-0.007398525427349067	0.00015376215363650895
2
115000
Ar	-6.352808748947396e-05	-0.0003316609993292911	0.003185933609999075	-0.023495592278101097	0.004525254001228758	2.29508051235643e-05
Xe	0.00012404052432442262	-1.5382328872525034e-05	0.0027885521381547118	-0.000821004977726444	-0.008765463444970995	7.017221388158283e-05
2
115200
Ar	-0.0002642159486466911	-0.00021090566067063818	0.003186729194322508	-0.01493759690799818	0.018609416418910247	0.0001071079112946743
Xe	8.678748338635083e-05	-9.216920703385476e-05	0.002788693471843165	-0.006311103210743273	-0.005937976889779622	-2.710153790857356e-05
2
115400
Ar	-0.00033828478319469047	1.0812876240704004e-05	0.0031879343690246497	0.000739150631984396	0.023832663419130633	0.00011582306115665462
Xe	7.928886994231811e-06	-0.000124752861358204	0.0027882240131177965	-0.008792999235937835	-0.0002794458250012328	-6.999282692054558e-05
2
115600
Ar	-0.00025066917789717564	0.00022707528909722435	0.003188839793841449	0.016062628172666932	0.01761385358400168	4.1156632411581074e-05
Xe	-7.486774129214902e-05	-9.736859300212033e-05	0.002787252523746479	-0.007065621629489118	0.005524323503002543	-9.243013654170404e-05
2
115800
Ar	-4.3238964140325386e-05	0.00033465504935260425	0.0031888511944646184	0.023669417575715734	0.0029851619411996096	-4.096191217545023e-05
Xe	-0.00012179186351650933	-2.328986148466707e-05	0.0027865310085512626	-0.0019222609767189337	0.008695567812292995	-8.426744045657036e-05
2
116000
Ar	0.00018435248981747896	0.00028197555589490423	0.003188236287307316	0.01995944441907525	-0.013076265887785658	-7.107306960372715e-05
Xe	-0.00011031385913416032	6.25756641125974e-05	0.0027860815896388765	0.004116967381449185	0.007735361378788132	-1.9356931517415052e-05
2
116200
Ar	0.00032369814162545293	9.413992115922301e-05	0.003187344297697623	0.006701876786416272	-0.022915098615724452	-5.673862595660028e-05
Xe	-4.586252483361303e-05	0.00011847114424018209	0.002786225988151325	0.008210798446292184	0.0029858966195135464	5.476761733695776e-05
2
116400
Ar	0.00030801865029897446	-0.0001391997541783583	0.0031870170718061564	-0.009715052949214388	-0.02178086068329724	-1.8837953462602622e-05
Xe	4.075973853256541e-05	0.00011760253882173201	0.002787003437935118	0.008370053108936999	-0.0031354772925570656	0.00010616171219611324
2
116600
Ar	0.00014490597929798035	-0.00030593807600997534	0.003186965419932224	-0.021538057168335352	-0.010176013683319086	2.5494881220263844e-05
Xe	0.0001079371708465291	6.051892199887547e-05	0.002788083975495581	0.004491895397449818	-0.007785565260925731	7.030344863256505e-05
2
116800
Ar	-8.778302816008972e-05	-0.00032622681860209837	0.0031873945643084954	-0.023069136349380806	0.006277681867392982	5.4065988808612835e-05
Xe	0.0001231818467251344	-2.5505925530728166e-05	0.0027883269035211497	-0.0015612029298188417	-0.008672586674496495	-3.2139655981757587e-05
2
117000
Ar	-0.00027872878848432417	-0.0001904293456854	0.0031880730447418583	-0.013509212927937261	0.019749194604923897	6.839467883232208e-05
Xe	7.929147824405856e-05	-9.916512804546233e-05	0.0027875000197043285	-0.0068571728891896905	-0.0054318744705310305	-0.00010593578564637522
2
117200
Ar	-0.0003361262287291206	3.656413424133925e-05	0.003188370531418763	0.002535159374210111	0.023714470627168905	-1.4712627429148486e-05
Xe	-2.669949367863615e-06	-0.00012550639819811627	0.0027864156130458966	-0.008850241583497613	0.00040276631602218025	-8.288859283150277e-05
2
117400
Ar	-0.00023215946715597055	0.0002454230333737317	0.003187824973015258	0.017378189086352667	0.01630687876727027	-6.769041582934766e-05
Xe	-8.34774006280347e-05	-9.147283066390975e-05	0.0027859040600279675	-0.006607884344779078	0.006128661794732977	-1.434608777125822e-05
2
117600
Ar	-1.707392519706546e-05	0.0003365411008678231	0.0031872399072844755	0.023833812099974705	0.001124239483800882	-4.388635961100425e-05
Xe	-0.00012420689147771998	-1.3134516161668496e-05	0.0027859622124888953	-0.0012048872040912274	0.00888346210667735	2.8252632971347262e-05
2
117800
Ar	0.00020631099407987906	0.00026612850575452726	0.003187113859719996	0.0189666802579596	-0.014629473886167199	3.4057681225315384e-05
Xe	-0.00010552652355928826	7.173958061597034e-05	0.0027862499787182403	0.004803726243408993	0.007377549936280484	2.7122265921673874e-05
2
118000
Ar	0.0003312167737289429	6.797057173559576e-05	0.003187464959124811	0.004957014721423436	-0.02335776815075634	1.0107408484743565e-05
Xe	-3.6148237194162925e-05	0.0001225469250621552	0.0027865018109615646	0.008494907365962086	0.0023658113304737996	3.360627897551663e-05
2
118200
Ar	0.0002974339360722866	-0.0001628015779914015	0.00318734836982942	-0.011444133401884563	-0.020860688631877813	-5.0920120393339084e-05
Xe	5.0745850125882054e-05	0.00011488444787327459	0.0027870509345132677	0.008142966235571602	-0.0038265900135371505	6.043501870124266e-05
2
118400
Ar	0.00012099539890402277	-0.0003151856828718124	0.003186687231473944	-0.022344428159213326	-0.008362894747527046	-6.477118774947011e-05
Xe	0.00011331627407344545	5.222329415535745e-05	0.0027875139720927	0.003844124303185236	-0.008172105623445503	1.0758478490909165e-05
2
118600
Ar	-0.00011358162917566931	-0.00031661155782721786	0.0031866827045854574	-0.022594263604813213	0.008081688379568927	7.236890995113336e-05
Xe	0.0001216336204285999	-3.5121088631729687e-05	0.0027873150842203072	-0.002254113373210466	-0.00859175679784209	-4.078113948222501e-05
2
118800
Ar	-0.0002937512894691527	-0.00016673045702260937	0.003187597563910669	-0.011940923406776499	0.02067198755082247	9.178609239985551e-05
Xe	7.174626016039297e-05	-0.00010587806320255288	0.002786710124370902	-0.0072912324658498	-0.004979960832321512	-6.150778383264947e-05
2
119000
Ar	-0.00033284171569941624	6.334511397912849e-05	0.0031882703762835833	0.004446710352054449	0.023422877101578882	4.135900844146154e-05
Xe	-1.2470406911142547e-05	-0.00012607634821657778	0.0027862554755282046	-0.008867191689510749	0.0011154236427146358	-2.659604453159459e-05
2
119200
Ar	-0.00021237604811094677	0.00026340624828369205	0.0031883709819478852	0.018651291745753796	0.01488933435912159	-6.0457545821993906e-05
Xe	-9.10986558656648e-05	-8.558693684686415e-05	0.0027862705134743004	-0.006185405682470696	0.006622424099464998	1.5879316788422725e-05
2
119400
Ar	9.899305666814137e-06	0.0003371797890238008	0.003187624330787804	0.023936849172610124	-0.000753806752387292	-7.664997160161771e-05
Xe	-0.00012626135978889246	-3.9889866776327295e-06	0.002786519105810013	-0.0005475936145825219	0.009007174319677846	4.321662109724459e-05
2
119600
Ar	0.00022745726664128807	0.0002495758074363077	0.0031871934913888134	0.017776564368874377	-0.016032726547545954	-2.215553249029814e-05
Xe	-0.00010096188123566704	7.97160849692696e-05	0.002786954190402435	0.0054221343833062655	0.006996662440548276	1.9926487396603676e-05
2
119800
Ar	0.00033640727778664855	4.228456387744094e-05	0.003186708264651809	0.0030725552959124415	-0.023672841567073947	-6.715922264765656e-05
Xe	-2.681529912030227e-05	0.00012515539016908354	0.0027872406575823877	0.00877587662836659	0.0016643219488485462	5.2960087164114564e-05
2
120000
Ar	0.0002839746620306077	-0.00018532900641830502	0.0031859970036323816	-0.013103597652343278	-0.019936853902948675	-5.4939754698499804e-05
Xe	6.000523202301993e-05	0.00011040633371382216	0.0027876201921276248	0.007879728908788346	-0.004490927056964564	3.658112069230834e-05
2
120200
Ar	9.562768361524515e-05	-0.000324159230376188	0.0031861073007952876	-0.0230026622918603	-0.0066737019524261264	7.42443916674426e-05
Xe	0.0001178301626109647	4.289081193391918e-05	0.002788006529320571	0.0031957293711368066	-0.008443803077289007	3.815985350010457e-05
2
120400
Ar	-0.0001388368596130846	-0.0003076796556958173	0.0031873100441419705	-0.021928776763414915	0.009807623158396866	0.00016807007769892507
Xe	0.00011921286546195516	-4.469392096070418e-05	0.0027879317546638956	-0.002937627587779065	-0.008354750718118779	-5.5901219209415206e-05
2
120600
Ar	-0.000307070011887145	-0.00014351600569515856	0.0031890286291093926	-0.010297210295661996	0.021638487847973564	0.00013605902485325892
Xe	6.366263589150494e-05	-0.00011070445124174628	0.002787195119429135	-0.007711093521899631	-0.0042824469658725205	-8.075045089404667e-05
2
120800
Ar	-0.00032781653099428113	8.969842907948874e-05	0.0031892130381781757	0.006329268700035356	0.023034097286465455	-8.883838207474122e-05
Xe	-2.27581407126655e-05	-0.0001232735821449379	0.002786560293712348	-0.008840484184560907	0.0018689180216425187	-4.6981264499996954e-05
2
121000
Ar	-0.00019097140007689374	0.00027978248545523885	0.003188072542607074	0.019858363035175814	0.013394029994121991	-0.00013285423756928462
Xe	-9.831896908721082e-05	-7.629039864716345e-05	0.002786483162910791	-0.005679768899059266	0.0071259841929864854	1.8107829532523938e-05
2
121200
Ar	3.719084596587075e-05	0.00033593033131930166	0.0031868597553053133	0.023848518401419896	-0.0026376459497464647	-0.0001066035065180644
Xe	-0.0001269096184707122	7.512275408553606e-06	0.002786570850500607	0.00022061101955067266	0.008930706680789413	2.623686163290407e-06
2
121400
Ar	0.00024761741759826017	0.00023126899177849816	0.0031859599421540426	0.016482773368495497	-0.017438154402544204	-5.168221655744986e-05
Xe	-9.447936776083837e-05	8.782093204947206e-05	0.0027866082672319704	0.005973709301005727	0.006464073326757468	2.2005458212056792e-05
2
121600
Ar	0.0003396565187359474	1.5087041643353277e-05	0.0031859441630631715	0.0011500788952890752	-0.02395092238582032	3.127150908381157e-05
Xe	-1.688966059709133e-05	0.00012644934079450532	0.002787180089523117	0.008882455110019616	0.0009269723060059912	9.167155661517527e-05
2
121800
Ar	0.00026906447748461355	-0.0002086549733410895	0.0031863582018746843	-0.014704263354802509	-0.018927248757249448	5.4697961861039e-05
Xe	6.877833393121387e-05	0.00010466384810000533	0.0027883642691781995	0.007520723967479022	-0.005104167614866713	0.00011737229179193335
2
122000
Ar	6.945913833260482e-05	-0.0003328875006548842	0.0031870736880528377	-0.023535672972088664	-0.004842379154372853	5.5998232785154415e-05
Xe	0.00012135636423032892	3.268006172252399e-05	0.002789149593525095	0.0025652826487742005	-0.008681465895828909	1.904467330234795e-05
2
122200
Ar	-0.00016364008498695665	-0.0002976821208809922	0.003187543645134171	-0.02113012922517385	0.01160140861041462	5.520916861542847e-05
Xe	0.0001159097272513579	-5.472502098954403e-05	0.0027887769914420185	-0.0036060921485352583	-0.008069665465702534	-7.731678970886634e-05
2
122400
Ar	-0.0003185325481966883	-0.00011974471255222596	0.0031878925695757606	-0.008548357280269871	0.02247767813637597	-1.4169884527345868e-05
Xe	5.48858920827565e-05	-0.00011590220314690541	0.002787824628439594	-0.008083855606942303	-0.0036508549338042403	-0.00011570393021149736
2
122600
Ar	-0.0003207227772471032	0.00011537164346260346	0.003187644917251386	0.00814748957992378	0.022556847568748983	-4.812476198883713e-05
Xe	-3.2611858537679924e-05	-0.00012171136653526721	0.0027867133069901773	-0.008689988526264767	0.0025108857389449847	-8.4390266732262e-05
2
122800
Ar	-0.0001689899025989668	0.0002949945314339924	0.003186973245783866	0.020918027751355744	0.011855097900253369	-5.900593098172994e-05
Xe	-0.00010507880037268452	-6.971968911237539e-05	0.002785912484317045	-0.005182314196233581	0.007476269106362048	-8.369208784891611e-05
2
123000
Ar	6.373592874264072e-05	0.00033288715246756795	0.003186561474510834	0.02367026513156361	-0.0045832952141956285	-2.959782078390241e-05
Xe	-0.0001274911564761301	1.6059406167610216e-05	0.002785523754769324	0.0008781133485669204	0.008941330981949727	1.8401658348479805e-06
2
123200
Ar	0.0002659606469871456	0.0002108744499903122	0.0031864622504890637	0.015081156046525108	-0.018816135191658843	-2.534096108777262e-06
Xe	-8.879145028078683e-05	9.454623615167679e-05	0.002786141563122472	0.006542753519103824	0.00609728664574994	0.00013081316553497307
2
123400
Ar	0.00034085764653157244	-1.2456511347574615e-05	0.003186516615764562	-0.0007355977145699422	-0.023971964669521176	2.310128865654149e-05
Xe	-7.3368175723183095e-06	0.00012787327188413042	0.0027878278812276443	0.009057880100332413	0.00031323634128938303	0.00020309604848953083
2
123600
Ar	0.00025197995676695933	-0.00022938602572681758	0.0031869219934595613	-0.016247447114598527	-0.017606928724926134	4.6677745876249294e-05
Xe	7.749221289469875e-05	0.00010025564551734432	0.0027895210941470752	0.007231986873281118	-0.0056144184508814966	0.0001447403885079494
2
123800
Ar	4.253781905075046e-05	-0.0003363818434883974	0.00318741300334702	-0.02389084465543991	-0.002902326916510157	4.769575012445699e-05
Xe	0.00012523261186469018	2.487957518671785e-05	0.002790308779556172	0.0019195709914618163	-0.0088192828712147	2.8367940797263815e-06
2
124000
Ar	-0.00018719838567501313	-0.0002824320961200777	0.0031878182510326676	-0.020129708406794636	0.01322981300676401	2.991828652576515e-05
Xe	0.00011271627307895083	-6.193530485272298e-05	0.0027895539039921396	-0.004274291076737525	-0.007839733094546828	-0.00012391848674465412
2
124200
Ar	-0.0003270337348665246	-9.330539381133114e-05	0.003187717269024695	-0.006648729961891717	0.023008587800567724	-5.256246415357368e-05
Xe	4.653243225990621e-05	-0.00011927018205294092	0.00278819358542605	-0.008400005597174227	-0.003173576615838462	-0.00016672916427413792
2
124400
Ar	-0.00030988637416633685	0.00014052557724495479	0.0031871368747518297	0.009986255156645163	0.021809368905963755	-4.8283750780034433e-05
Xe	-4.2067270047763965e-05	-0.00011970132662167964	0.002786632739589037	-0.008562971899840194	0.0030747877940817694	-0.00013017973832847287
2
124600
Ar	-0.00014384884437036282	0.00030721584877774704	0.0031864685490017985	0.021826159364937293	0.010119410534178908	-6.524499936377332e-05
Xe	-0.00011045876429419233	-6.273740994169529e-05	0.0027858283144897708	-0.004552962868418937	0.00782528953348674	-2.6695955397518864e-05
2
124800
Ar	9.108165274480769e-05	0.0003264832877801746	0.003185929749477236	0.023187824961524422	-0.006412468281728827	-7.112422305532472e-06
Xe	-0.00012600990000737132	2.4347069201270886e-05	0.0027860339692313807	0.0015739615708041273	0.008862050952108283	7.21329035402017e-05
2
125000
Ar	0.00028225130112902365	0.00018942906168494875	0.0031863126634507147	0.013435889413546695	-0.019842394870151794	5.5859533159067414e-05
Xe	-8.125537795853846e-05	0.00010007294568298997	0.002787068532810997	0.00698256936525492	0.00561876132410964	0.00012671866404143905
2
125200
Ar	0.0003380727136870465	-3.8482019425702246e-05	0.003186920369802823	-0.0027447883097789284	-0.023804110238245173	3.9974870555237e-05
Xe	2.2358131905911727e-06	0.00012777309930109594	0.002788378035003921	0.009016118697092146	-0.00030114701996994137	0.0001365723844631461
2
125400
Ar	0.00023189517703893373	-0.000247978240071031	0.003187300596697152	-0.017602705444048402	-0.016326590442477355	5.270680357799769e-05
Xe	8.428672546312562e-05	9.417385452046155e-05	0.0027893903288518937	0.006715166645030309	-0.006110319541392267	6.475945016348458e-05
2
125600
Ar	1.4753887407503044e-05	-0.00033879197696086205	0.0031877865022279478	-0.024001277301044864	-0.001067802247789468	3.115930062328618e-05
Xe	0.00012591499791867898	1.5678338230590353e-05	0.0027894371594534397	0.0012616595070821105	-0.008924860644306632	-6.933225390210451e-05
2
125800
Ar	-0.00020922124605289813	-0.0002673993150429777	0.003187587756149513	-0.018899060835499432	0.014741008755078054	-5.346774472334756e-05
Xe	0.00010748186155875295	-7.024772085240333e-05	0.002788210819687259	-0.004810378410018439	-0.007539297060167981	-0.00015253870530933415
2
126000
Ar	-0.00033279481038093036	-6.77881820694176e-05	0.003186839448949948	-0.004765566730989021	0.023520671717566034	-9.919647106676764e-05
Xe	3.7320753344470405e-05	-0.00012264835486239532	0.0027866443163096994	-0.008616354281822027	-0.0025016778413241504	-0.00013439339640264783
2
126200
Ar	-0.00029668099450044685	0.00016463769878492486	0.003186022832738949	0.011656404284076919	0.02100537506464106	-7.514171899911536e-05
Xe	-5.079917640478057e-05	-0.00011636409995720323	0.0027859020087131706	-0.008265638622609987	0.0037110032956113896	-4.574937944061059e-05
2
126400
Ar	-0.00011878299828923665	0.00031795539297431436	0.0031855205553724024	0.022438654768775622	0.008372283221288543	-1.0323203660767529e-05
Xe	-0.00011455989034807357	-5.466063234083621e-05	0.002785824010138883	-0.003955029556924787	0.008130990673686953	4.1560128243897105e-05
2
126600
Ar	0.00011577090524292446	0.0003187451540175797	0.0031858341341417505	0.022505251815973057	-0.008226663666716105	5.3387675187821745e-05
Xe	-0.00012347422216654318	3.310837050499177e-05	0.0027866795043305775	0.002253419692126657	0.008684695713191097	0.00012010438497660108
2
126800
Ar	0.00029495591069462904	0.00016677750522235793	0.003186627742437693	0.011803592095169797	-0.020906522742463955	0.00011337294823924552
Xe	-7.302513079508487e-05	0.00010504505234349135	0.0027882260653060912	0.007377645933256235	0.0051154322378016495	0.00015871261258412747
2
127000
Ar	0.000332873912562225	-6.519672666316179e-05	0.003187582489203457	-0.0045530946708600036	-0.023538540626464353	6.624584552270811e-05
Xe	1.2392359838924407e-05	0.00012675882193387188	0.002789389863862858	0.00897362639146607	-0.0009381894808307831	6.689200635808731e-05
2
127200
Ar	0.00021140083228384215	-0.00026594467621398097	0.0031879860127715753	-0.018719873174620615	-0.014935866132339553	2.9195585581473327e-06
Xe	9.160342825799639e-05	8.76681628760741e-05	0.0027896657681217817	0.006220410200408997	-0.006529038557366946	-2.4716474809158562e-05
2
127400
Ar	-1.1091144313869248e-05	-0.00033953947846478676	0.0031876734089845106	-0.023941128626828033	0.0008119200982138383	-6.110855996242835e-05
Xe	0.00012680242272143855	6.520874951877345e-06	0.0027888795576318653	0.0005246455878288701	-0.00900334629075459	-0.00015131186036566044
2
127600
Ar	-0.0002285398846387184	-0.00025067509895548596	0.003186700458513703	-0.017704834237826365	0.016223841035735247	-0.00011198140304814431
Xe	0.00010130529498873005	-7.762267789123453e-05	0.0027872295053260098	-0.00541722444285794	-0.007143151395189295	-0.00015310223388743414
2
127800
Ar	-0.0003362919647294918	-4.169352775814056e-05	0.003185601439146469	-0.0029662883214070933	0.02384192873552768	-8.701679689173646e-05
Xe	2.7192591694957848e-05	-0.00012461780739320635	0.0027860022683158223	-0.008774237813008724	-0.001872941643478288	-8.949688299209745e-05
2
128000
Ar	-0.00028297659823949835	0.0001873566700502586	0.0031851806903464316	0.013179602150580276	0.02003656832894289	9.248894747149976e-06
Xe	-5.984272763702165e-05	-0.00011190670055619618	0.0027855809244582298	-0.007887836901834025	0.004309118912007077	1.1070201401123598e-05
2
128200
Ar	-9.390686193930665e-05	0.0003267339469126639	0.003185969410073668	0.023032924691561665	0.006630067685131982	0.00011610715248033818
Xe	-0.00011802890033820234	-4.551662407420804e-05	0.0027862974849860067	-0.0032501775105108805	0.008408091987721097	0.0001025364451285673
2
128400
Ar	0.00014029014165928668	0.00030918935913303654	0.0031871343586803613	0.02183771374084107	-0.009991385970011033	0.0001244854316779102
Xe	-0.00011972813151056001	4.270257224541564e-05	0.0027875695853058825	0.002929087695733251	0.008505073738235202	0.00012775385572135484
2
128600
Ar	0.00030732487185596426	0.00014321646336328515	0.0031883045687737953	0.010184966813960928	-0.021794874424199202	0.00010204443017452111
Xe	-6.392859031358241e-05	0.00011046850297518944	0.0027887662004755834	0.007748340183944367	0.004499219406124364	0.00010606116200318964
2
128800
Ar	0.00032706272432826857	-9.129004517795876e-05	0.003188894987368346	-0.00640297855500553	-0.02313523832384814	3.8653126751654295e-05
Xe	2.254197924368549e-05	0.0001253919708631658	0.0027896145204930043	0.00882088104921767	-0.0016367716447582557	3.9744422039118935e-05
2
129000
Ar	0.00018973779114185186	-0.00028207473070526214	0.0031887361675006594	-0.019913017387007008	-0.013416249960275193	-7.416007040797032e-05
Xe	9.84054509020285e-05	8.028068847942241e-05	0.0027896140310867293	0.0057066849646213655	-0.007001878264195731	-5.500395575199426e-05
2
129200
Ar	-3.86353861982524e-05	-0.0003376104176180364	0.0031874170323798073	-0.02383846996114828	0.0027933226429756627	-0.0001502141498130933
Xe	0.0001274861641259275	-3.3320118794160656e-06	0.002788923112648957	-0.00014106748700016278	-0.00903444823376515	-8.225205819160629e-05
2
129400
Ar	-0.00024852500668777835	-0.00023090216154331836	0.0031859810028405564	-0.016384336199097443	0.017626016551527016	-0.00010074158722000375
Xe	9.56540329914967e-05	-8.547709392003478e-05	0.002787882433328754	-0.005965759646944269	-0.00671094499335921	-0.00010485382078944076
2
129600
Ar	-0.0003395283737016491	-1.3522273944446092e-05	0.0031855343943693673	-0.0010454906938150094	0.02402376289267643	-1.1928420767279172e-05
Xe	1.7765507610008023e-05	-0.00012645264494008594	0.002786660166086803	-0.008941119172704608	-0.0011553308301368954	-0.00013304108411573519
2
129800
Ar	-0.0002680674446718476	0.00021047693338947137	0.0031858143213300185	0.014759554129438109	0.018881552673319067	5.577295419923e-05
Xe	-6.882331203366976e-05	-0.00010680870649952467	0.002785890939288536	-0.007640688348990809	0.0049284566390389315	-1.5553295357219512e-05
2
130000
Ar	-6.818816541290602e-05	0.0003334636697096781	0.003186437608477087	0.02353558322988784	0.004706700599867886	5.78023192139085e-05
Xe	-0.0001225264855251776	-3.5908526732456747e-05	0.002786158160209337	-0.002652107756477723	0.008660926616742507	4.8301313525429e-05
2
130200
Ar	0.00016468730214292825	0.00029654870486573365	0.003186927473665637	0.021068180026841434	-0.011769401546590121	4.6448013650841484e-05
Xe	-0.00011742231752598195	5.245749361466796e-05	0.002787114781556761	0.0036262857138751724	0.008272499105011606	0.00013528381065848648
2
130400
Ar	0.00031856370807786463	0.00011739751346702259	0.0031875103540039023	0.008420748008333452	-0.02256850734913786	3.269618565438066e-05
Xe	-5.586473959285812e-05	0.00011572850240278085	0.002788359246825121	0.008158291715745825	0.003863462933738624	0.00012694459826415464
2
130600
Ar	0.0003196198033732961	-0.00011818634651848224	0.0031875835178032507	-0.008243864989322773	-0.022556032314807524	-5.202242558981351e-05
Xe	3.2536147360171694e-05	0.00012337451397176545	0.0027891325481104873	0.00877004356449262	-0.0023738681434381137	2.4506283418050082e-05
2
130800
Ar	0.0001672639459117162	-0.0002971262884674592	0.0031866585236015846	-0.020945274979858135	-0.011748915064965957	-0.00012048212092749064
Xe	0.00010517558784906859	7.19500785448911e-05	0.0027890055033338262	0.00513095585686917	-0.007469296458759427	-4.012875081440455e-05
2
131000
Ar	-6.528128746940547e-05	-0.00033381213150086977	0.0031855582266230326	-0.023635254144417823	0.004707715964014754	-6.193004428877683e-05
Xe	0.0001273189107596351	-1.3824083098925543e-05	0.002788315011194343	-0.0009066385677913908	-0.008966999962624797	-0.0001217621973571465
2
131200
Ar	-0.00026682093588495224	-0.00021070566465841028	0.003185502921268974	-0.014981202361550795	0.01889943392636002	2.3109146464666782e-05
Xe	8.848887228494009e-05	-9.289541085005562e-05	0.002787270793231761	-0.006543508609060106	-0.006193147770053128	-7.868413731694092e-05
2
131400
Ar	-0.0003406826588016016	1.3417736601494713e-05	0.003186010628432589	0.0008551085147171783	0.024031981164404595	6.644284830965201e-05
Xe	7.067881817499843e-06	-0.00012733715784828755	0.0027867752743854124	-0.009051520152358224	-0.0004053826598275959	-4.144495316120156e-07
2
131600
Ar	-0.0002507350332259417	0.00023102537082937504	0.003186727186561081	0.01637363890795018	0.01767668234325589	0.0001098603270170488
Xe	-7.773972659075379e-05	-0.00010082795969318613	0.002787224651061284	-0.0072055965930247256	0.005514099684532791	7.920720952096637e-05
2
131800
Ar	-4.00565483868422e-05	0.0003381270798566156	0.00318761099719316	0.02398765910330427	0.0028322645982555438	7.335434067220727e-05
Xe	-0.0001253775458257888	-2.5889668839744896e-05	0.0027882058916836156	-0.0019282009791866082	0.008846424018209436	0.00011380537650607392
2
132000
Ar	0.00018983824698415072	0.0002831430126053295	0.0031876860231054233	0.020064407843133614	-0.013367660913812722	-7.400092585653236e-05
Xe	-0.00011280172176508813	6.138648103434316e-05	0.0027892471183852503	0.004332261607280903	0.00789071766868463	7.89871497989998e-05
2
132200
Ar	0.0003286415702455124	9.227947270251837e-05	0.003186592500180377	0.006527657123961635	-0.023213625514203057	-0.00013051346668825248
Xe	-4.5985706526427974e-05	0.00011914260493676717	0.0027894611577896876	0.008480050568711282	0.0031670096762097303	-2.6351823212416714e-05
2
132400
Ar	0.0003098128291141688	-0.0001430867871204042	0.003185194626300678	-0.01012981391196118	-0.021866322836387956	-0.00012325335735957466
Xe	4.266218401864944e-05	0.00011960185941214581	0.0027890066716418443	0.00848115340554737	-0.0030573586554219685	-7.804221875373114e-05
2
132600
Ar	0.00014227391038522852	-0.000309709452547395	0.0031844552785362887	-0.021950843172878223	-0.01006521885555342	-1.6592620367488747e-05
Xe	0.00011031138467363395	6.283396915049045e-05	0.0027880087084284446	0.0044892261359545165	-0.007816242656912303	-0.00014397838199006454
2
132800
Ar	-9.343039826151687e-05	-0.0003279814942634221	0.0031848507341180566	-0.02323303934011971	0.006552749953805462	0.00010342883554155081
Xe	0.00012536039937445308	-2.4032320477847483e-05	0.0027867739922275963	-0.0015993587410435164	-0.00883292259657812	-8.444192977157222e-05
2
133000
Ar	-0.0002845038300713997	-0.0001889202519090607	0.00318627301107309	-0.013347177868986653	0.020088853967522288	0.00018134376997157935
Xe	8.07410476320845e-05	-9.954146639449694e-05	0.0027862780954137144	-0.006965143349381285	-0.005639601549263066	1.2357394221978067e-05
2
133200
Ar	-0.0003387898363013714	4.0921720663557154e-05	0.0031878365471471695	0.002930999028241104	0.02393894229506469	0.00011424309304887176
Xe	-2.7948377319354154e-06	-0.00012772622417022212	0.0027868910256040025	-0.009030980811361354	0.00026017607285642346	0.00012236799418173682
2
133400
Ar	-0.00023049716572450375	0.0002510023562158255	0.0031884318504077688	0.0178331966748011	0.016331543924172066	2.364107114305304e-06
Xe	-8.495097349739164e-05	-9.460635408642295e-05	0.002788292412203522	-0.006717360216722948	0.006078013984805804	0.00014981637278825425
2
133600
Ar	-1.1475636380092505e-05	0.00034086645644278873	0.0031878786247845794	0.024136325364376297	0.0008999733505173294	-9.461522581509541e-05
Xe	-0.00012591711128350443	-1.6040475467110808e-05	0.0027897829481952916	-0.0011688690930153865	0.008973214734061133	0.00012107215332000518
2
133800
Ar	0.0002130546318765349	0.0002675170286915846	0.0031865747818223575	0.01890174708636349	-0.014939250689277052	-0.00015309543369921482
Xe	-0.00010655414319344865	7.044602081029154e-05	0.002790756248181575	0.004854645510801361	0.00759432416335741	6.981842834229165e-05
2
134000
Ar	0.00033577760493179194	6.601235733339922e-05	0.003185357475366436	0.004615701973599097	-0.02363933481563954	-8.022114062703988e-05
Xe	-3.664176710928319e-05	0.00012336319025842978	0.002790944915470434	0.008544031810380501	0.0025320520787617605	-5.6045783300349655e-05
2
134200
Ar	0.0002979305340032018	-0.00016695524918103026	0.0031848158258029435	-0.011885675994617843	-0.02099672663543224	9.300369913769504e-06
Xe	5.0479045098136545e-05	0.0001171429163295957	0.0027901020221354944	0.008141465384347357	-0.0037138692987865258	-0.00010861885740561626
2
134400
Ar	0.00011759124993104329	-0.0003199473236008734	0.003185602005749306	-0.022688469843322727	-0.008323713576246441	0.00011267864162902912
Xe	0.00011289486366978031	5.504008883397979e-05	0.0027886867944137586	0.0038281767393806335	-0.00817787446327771	-0.00017516682168000223
2
134600
Ar	-0.00011896058653739957	-0.00031967081736469533	0.0031870630793830726	-0.022635580557735537	0.00836208772606621	0.00014762502650680735
Xe	0.00012101041979866246	-3.3140663674245956e-05	0.0027868811692380716	-0.002267793586289226	-0.008701490223142844	-0.00017083912566541007
2
134800
Ar	-0.0002981887552747238	-0.00016624832435148705	0.0031882027766968173	-0.011703080726818195	0.021040732461650554	7.373722239100221e-05
Xe	7.10090155126846e-05	-0.00010510451817225195	0.002785615888604408	-0.0073439742115042825	-0.00510117884190739	-9.869310412880062e-05
2
135000
Ar	-0.0003337559124418617	6.704109732750303e-05	0.0031883562124525376	0.004868547343794731	0.023630249406129098	-3.6940820917310375e-05
Xe	-1.3730185125048153e-05	-0.0001266791483273808	0.002785371209306753	-0.008908133097173946	0.0009571462348453005	5.474935404786669e-05
2
135200
Ar	-0.00020901207621597777	0.00026782764176739985	0.003187620382483976	0.019018404865570743	0.014839144956100631	-0.00010008204460634231
Xe	-9.253424254531163e-05	-8.732513986124938e-05	0.0027863038411709805	-0.006151278638118355	0.006571150582086797	0.00013750074159412965
2
135400
Ar	1.593567574768936e-05	0.0003398749616089986	0.0031866214034938505	0.02406313058593923	-0.0010351077087672478	-9.506901143688544e-05
Xe	-0.00012681742818452168	-5.798533644552331e-06	0.0027880354010282626	-0.0004228445878304858	0.009024031485847296	0.00019613422669292131
2
135600
Ar	0.0002332783067921136	0.0002490214469057573	0.0031858502199289744	0.017585907077679184	-0.01636614801029281	-2.678582123984806e-05
Xe	-0.00010017615113500155	7.843844640430828e-05	0.0027897508528128426	0.005497290492543555	0.007107069010657367	0.00013980248794960245
2
135800
Ar	0.0003392371530927882	3.9036870708842765e-05	0.0031858413120645357	0.0027057410759030996	-0.0238689435915596	1.8947270072937185e-06
Xe	-2.594490164498302e-05	0.0001249639854578708	0.0027904296012122107	0.008740771632384037	0.0018075926341470983	-1.649823213095546e-05
2
136000
Ar	0.00028296531413838424	-0.00018961051153986764	0.003186134163948535	-0.013526701469871888	-0.019936814935575232	3.959626391031694e-05
Xe	6.056923519279402e-05	0.00011172047528755007	0.0027894635210383564	0.007819528452758948	-0.004353367019404077	-0.00016363424650506372
2
136200
Ar	9.087724710803311e-05	-0.000327336278421077	0.003186559174862373	-0.02326965196527642	-0.0064470298520087205	5.949163850350155e-05
Xe	0.00011798676402676903	4.49732396367748e-05	0.0027873108987976586	0.0031715212769536905	-0.00845054802561357	-0.00021337620606279187
2
136400
Ar	-0.00014455358310520294	-0.00030798747706623555	0.003187324494337255	-0.021856790538097196	0.010162318067425992	4.7091774794270476e-05
Xe	0.00011865234252702637	-4.3326888373082e-05	0.002785396612221132	-0.0030591493679889823	-0.008494573302144478	-0.00014774261715210418
2
136600
Ar	-0.00031063496234178266	-0.00014044330205792153	0.00318759608364428	-0.009975680932827307	0.021915881100684986	8.25222173643886e-06
Xe	6.174525255844901e-05	-0.00011106286527098762	0.0027847413189259966	-0.007817796020590087	-0.004483237046633995	1.6479939406172205e-05
2
136800
Ar	-0.00032755549137141105	9.468293955240038e-05	0.003187425413609387	0.00671138049663001	0.023125096335488607	-3.793572555317611e-05
Xe	-2.5050762452387897e-05	-0.00012559423308644235	0.002785787490748901	-0.008798590810899044	0.001698211333620544	0.0001774668139250032
2
137000
Ar	-0.0001873604200844869	0.00028462902978116885	0.003186814629330176	0.020151907028643494	0.013281587194387733	-6.054950366323701e-05
Xe	-0.00010012325374056418	-7.996080582482814e-05	0.0027879947248333693	-0.005596614089527545	0.007047991902099793	0.0002454588904112824
2
137200
Ar	4.2599823611108564e-05	0.0003384031034706759	0.003186177411686884	0.023917062294614596	-0.0029641637060960034	-3.010568389254105e-05
Xe	-0.00012765273417780215	4.046221066215122e-06	0.0027903485556359645	0.0003288005766728051	0.009037807014851202	0.00020784958590781035
2
137400
Ar	0.0002522624883389368	0.00023047414922042518	0.003185880792027713	0.016261966738838587	-0.01771655620653251	-9.036562744939953e-06
Xe	-9.405122658125193e-05	8.598635871546742e-05	0.002791680215625715	0.006112991236217214	0.00666928023282719	5.3130045945555724e-05
2
137600
Ar	0.00034103242244877985	1.252199426748844e-05	0.0031860000757248405	0.0007707147889728276	-0.024052560339756546	3.360802546472269e-05
Xe	-1.55798023592661e-05	0.00012645686884321024	0.002791226594078073	0.00890453665282754	0.001126343046128592	-0.00010833427451663032
2
137800
Ar	0.00026671701247869557	-0.00021138366786122712	0.003186546519457956	-0.01500899604335571	-0.01883837480903177	9.129018696994831e-05
Xe	6.986428235911559e-05	0.00010655562404331431	0.002789407556452746	0.0074560766876290855	-0.004947481746242139	-0.00024100699036870232
2
138000
Ar	6.50128006355024e-05	-0.0003341018990365408	0.0031873701039574404	-0.023664078816665213	-0.004647880675330499	6.711251459842986e-05
Xe	0.00012144253934574163	3.56159443010399e-05	0.0027869127716130307	0.0024283827525814596	-0.008661140002917294	-0.00025527751048982965
2
138200
Ar	-0.0001678170250796503	-0.0002963480785428397	0.003187660107331858	-0.020957416885862643	0.011856281321262709	-2.6754785375384203e-06
Xe	0.00011452127288816868	-5.253661278013897e-05	0.0027849740016428074	-0.003744427150980508	-0.008230029355554615	-0.00011762598306332066
2
138400
Ar	-0.00032016660228096207	-0.00011633674846050547	0.0031871366869154196	-0.008228361814471528	0.022635200173454426	-7.589081454073753e-05
Xe	5.256165262289326e-05	-0.00011566328592579573	0.0027846017879052504	-0.008157154367594873	-0.0038581969588510263	6.293662435460817e-05
2
138600
Ar	-0.00031895694186543364	0.00011956518928515847	0.0031863080859622656	0.008462298503951853	0.022556180165399228	-7.306590962886215e-05
Xe	-3.5092995211188655e-05	-0.00012342255315994294	0.0027860233668560966	-0.008628841377360513	0.0023703322415354025	0.00021010788095886116
2
138800
Ar	-0.0001647183685674214	0.0002982391636676149	0.0031855739590460003	0.021107743563296446	0.011677462902644844	-6.007490342770158e-05
Xe	-0.00010580093956737617	-7.207723555792025e-05	0.002788437582228696	-0.004925963263115313	0.007468257598188808	0.0002657894116972599
2
139000
Ar	6.864345298156392e-05	0.00033416528808616347	0.0031854600209757474	0.023609599606455697	-0.004821823172249568	3.943130018085259e-05
Xe	-0.0001259098179987324	1.3630569226878962e-05	0.0027907865939687773	0.0010934574798088011	0.008948103624597897	0.00017131370315730287
2
139200
Ar	0.0002691362099928549	0.00021025040044385078	0.0031862663070891754	0.01479507824400159	-0.01893094386865698	8.397785767035779e-05
Xe	-8.58463251867905e-05	9.235512467487185e-05	0.002791685740192264	0.006580527813055878	0.006150338798816659	-2.926793741797038e-05
2
139400
Ar	0.0003405807064783847	-1.4206265459326412e-05	0.0031871538747210767	-0.001113156266229385	-0.02405505913070711	8.701377150258015e-05
Xe	-5.122019599312237e-06	0.00012665265826978833	0.0027903433312354135	0.008903641223682828	0.0004296716527521802	-0.00023103114673286165
2
139600
Ar	0.0002485568160398016	-0.00023165821385034697	0.003187651420244529	-0.016507169145265482	-0.017616595385118367	1.807382533633348e-05
Xe	7.784924103591698e-05	0.00010053919809856783	0.0027874839143467527	0.006994355634768221	-0.005450944131754336	-0.0003031553873113743
2
139800
Ar	3.712328233021472e-05	-0.0003379103264499223	0.003187428164521619	-0.02398243446324343	-0.0027171605260413174	-5.4108801895658184e-05
Xe	0.0001234131301238244	2.5962081555175712e-05	0.0027850399249442813	0.0017489579864578412	-0.00882451899538628	-0.00018600686488296308
2
140000
Ar	-0.00019198981507231167	-0.0002818167438098571	0.0031866527880253484	-0.019909153161868993	0.013467610946439695	-9.631570474816808e-05
Xe	0.00010985736454566896	-6.156768787374294e-05	0.002784132187012556	-0.0043938548576182915	-0.007948663691205556	1.7052933231063704e-05
2
140200
Ar	-0.00032903511217294567	-9.049753820148536e-05	0.0031858696326605936	-0.0063324616667058044	0.023216549026847836	-4.2756716888268084e-05
Xe	4.301588899030185e-05	-0.00012004665445293494	0.002785319468181858	-0.008405789325253077	-0.0032448675735046438	0.0002129580698581264
2
140400
Ar	-0.0003082959092831326	0.0001445379467331897	0.003185912429986045	0.010280959202933357	0.02181741460749612	2.6934305859690073e-05
Xe	-4.4780857100111176e-05	-0.00012108304563494891	0.0027877802704616476	-0.008382704474756884	0.00302765874834452	0.0002591086137300372
2
140600
Ar	-0.0001399526769189156	0.0003105206680815152	0.0031865138629227786	0.021977685088440696	0.009972205040637378	7.357522597105845e-05
Xe	-0.0001109286607692879	-6.430053288109865e-05	0.0027901109249346503	-0.004299655749430504	0.007854536629355462	0.00019029035673783344
2
140800
Ar	9.546878576858896e-05	0.0003275067662482087	0.003187160470989914	0.023128254094513963	-0.006695690181189282	4.5467398028939605e-05
Xe	-0.00012373634145132554	2.2921298380629516e-05	0.0027911835110910246	0.0018412572707112518	0.008855859227311753	3.727066049694903e-05
2
141000
Ar	0.0002850196175136351	0.00018737415422226167	0.003187489915991814	0.013186100157632427	-0.020154768999378733	4.664897293033125e-06
Xe	-7.710428937497072e-05	9.871041588562457e-05	0.002790847367976115	0.0070801912256400115	0.005683107218582754	-0.00012468226515668186
2
141200
Ar	0.00033791227690133926	-4.2802252127561126e-05	0.0031873739278717858	-0.003059802506672415	-0.023955858717426372	-4.913469316946543e-05
Xe	6.228117434290056e-06	0.00012710193929627874	0.0027889915882417546	0.008893660586026034	-0.00022421183340032568	-0.00022307212871491725
2
141400
Ar	0.00022873174757598032	-0.00025284250180288893	0.0031867516099985927	-0.01786994409560711	-0.016284479143471572	-7.250226428653324e-05
Xe	8.657883689195271e-05	9.434349866324946e-05	0.002786672640982606	0.006497795231989851	-0.006050651335755433	-0.00021458145798220997
2
141600
Ar	9.599636057571258e-06	-0.0003418386582709417	0.0031859753315251487	-0.02408901250754409	-0.000741873115098351	-6.62194607927749e-05
Xe	0.00012567184321327855	1.603809920031962e-05	0.002785214038089051	0.0009585192412638497	-0.00893237178482838	-7.714616539457726e-05
2
141800
Ar	-0.00021388164287075893	-0.0002666850053287681	0.003185419341115309	-0.018745595307762066	0.015140578618734047	-2.0578781704820857e-05
Xe	0.00010428778242862094	-6.996584521933061e-05	0.002785317702972774	-0.005064963673249527	-0.007544022697203836	9.565522266157026e-05
2
142000
Ar	-0.00033455832734507796	-6.368896993374457e-05	0.003185787731156739	-0.004376951757640071	0.023770471018780697	9.148300519566431e-05
Xe	3.284043199725124e-05	-0.00012260408925156494	0.00278681267569169	-0.008644819118064292	-0.0025314574581707166	0.00019718102888484465
2
142200
Ar	-0.0002944902825544598	0.00016990465838589386	0.003186891686146884	0.012062822934573654	0.021009207010141313	0.0001283867592038395
Xe	-5.452474011160488e-05	-0.0001165255443942424	0.0027885302062118362	-0.008091302381763926	0.0037108175658171517	0.00016393125387171458
2
142400
Ar	-0.00011296331531312192	0.0003219260031069291	0.0031879483497713385	0.022701677828543692	0.008124087200976212	4.779479198408702e-05
Xe	-0.000115767449623383	-5.474601973666791e-05	0.0027900081636199224	-0.003656981912834797	0.00813229824483867	0.00011936551674685155
2
142600
Ar	0.00012266285249234578	0.00031933566834553394	0.0031878784999738526	0.022455562708073876	-0.00860684008091775	-6.720238648098962e-05
Xe	-0.00012154405445755088	3.293677885066268e-05	0.0027907311068461373	0.0025145917188992574	0.00866278890432701	3.64288292289085e-05
2
142800
Ar	0.0002996919770643031	0.00016379975545868458	0.0031871178545639736	0.011449454172899904	-0.02117617243589895	-7.513592826968828e-05
Xe	-6.944426487638845e-05	0.00010460376084161448	0.0027902791504565887	0.007493861043491151	0.005041976897833368	-0.00011484719319906206
2
143000
Ar	0.000333028459288932	-6.9712687646957e-05	0.0031864128419812347	-0.005052891336062565	-0.023582785188330645	-7.005809062472162e-05
Xe	1.5996432964991886e-05	0.00012596047240850204	0.0027886205651686756	0.008866042252613619	-0.0009437759153666293	-0.00018898778787662063
2
143200
Ar	0.00020679028842821023	-0.0002697593164713573	0.0031858752240701066	-0.019144329497570525	-0.014754399065985496	-2.7015665109057962e-05
Xe	9.359499729647157e-05	8.711485413788536e-05	0.0027867521028879373	0.006001546043608898	-0.006515361345507599	-0.00017749850556458258
2
143400
Ar	-1.8742183617446105e-05	-0.0003404708898733246	0.0031859252489142595	-0.02408945825930991	0.0012005938483116718	2.7529912827928378e-05
Xe	0.00012621192358728953	6.5391685807230866e-06	0.0027857082689299356	0.0002564643580797567	-0.008941490108337707	-2.4067687786918156e-05
2
143600
Ar	-0.000235230954850397	-0.00024782245509479277	0.0031863625782875293	-0.0174061995189025	0.016557748496242083	4.932540389061755e-05
Xe	9.833727893907112e-05	-7.733690057940327e-05	0.002785942531150509	-0.005607128270580122	-0.007103286692423372	8.899193849380332e-05
2
143800
Ar	-0.0003387715496229749	-3.626780488315968e-05	0.003186860606319831	-0.002431583521288276	0.023984300474109547	5.3623497117503844e-05
Xe	2.3157120819933392e-05	-0.00012399529446667322	0.0027871394499644504	-0.008792163217511145	-0.00182933422006066	0.00013139290795936357
2
144000
Ar	-0.000279635148949169	0.00019251819953332219	0.0031871285030783524	0.013740894697406796	0.019854743331076025	1.2307923976591377e-07
Xe	-6.328176316668227e-05	-0.00011124278666301866	0.0027882947846532375	-0.007769958305933678	0.004304557234874857	8.72276260562118e-05
2
144200
Ar	-8.616496929303082e-05	0.00032885205830591904	0.0031871232113699207	0.023338310172354854	0.006250024426828234	7.259450025877838e-06
Xe	-0.00011942140743036116	-4.49309180266241e-05	0.002788965779856931	-0.002999490609825473	0.008399965805631187	6.0370084607301355e-05
2
144400
Ar	0.00014887993446024956	0.00030744444052061075	0.0031869322418049875	0.02169054863733857	-0.010359342242773333	-4.321062273991801e-05
Xe	-0.00011804519744865049	4.300115388899554e-05	0.002789416199516272	0.0032429099511207806	0.008446798652340062	1.362659796040622e-05
2
144600
Ar	0.00031244836964071864	0.00013860842529959852	0.0031865335007220013	0.009659847816241043	-0.021989198150827127	-1.9458684789747896e-05
Xe	-6.0258570190782195e-05	0.00011030453877214839	0.002789278366741685	0.007846507102501498	0.004451701652677901	-3.262991764275322e-05
2
144800
Ar	0.0003262526732888171	-9.65092307293906e-05	0.0031867383090908824	-0.006995695575520199	-0.023073266481737582	4.265760705024275e-05
Xe	2.6470548847577757e-05	0.00012476360281186844	0.002788588759339632	0.008781131980093507	-0.0016914212127906085	-8.892504238049753e-05
2
145000
Ar	0.00018359710499395374	-0.00028540280790975475	0.0031871867887275115	-0.020336907591788883	-0.01313249622539721	3.456792976212599e-05
Xe	0.00010073280930118122	7.910456046295673e-05	0.0027876185351820406	0.005452500900902929	-0.007057744965054965	-0.00011477940346902552
2
145200
Ar	-4.728731285029588e-05	-0.0003375206306000295	0.0031872258005893194	-0.023903090279744018	0.0031687190553906317	-2.105887069045578e-05
Xe	0.00012683559890488107	-4.618775565647452e-06	0.002786707504339935	-0.00046659992339558303	-0.008992616508852467	-4.8467302731393524e-05
2
145400
Ar	-0.0002553740747872021	-0.00022718699236211183	0.003186884845238104	-0.015932217090725433	0.01797694266228127	-4.6904297478892346e-05
Xe	9.223574870057014e-05	-8.608766366097789e-05	0.002786737981463182	-0.006142312066513295	-0.006619717247748716	4.03321218010384e-05
2
145600
Ar	-0.00034041831220986	-7.652118798002706e-06	0.003186440455509703	-0.0003676385410056951	0.02408063349713748	-1.911971226195503e-05
Xe	1.3503252955731717e-05	-0.00012616591781279443	0.0027876246046342275	-0.008934049720274496	-0.0010635148695127107	0.00010060667944402022
2
145800
Ar	-0.0002623742697420098	0.000215484059975393	0.003186496483855428	0.015338217061396264	0.018666360477786068	2.590160736267616e-05
Xe	-7.159568027154151e-05	-0.00010582655872312842	0.0027884816240896226	-0.00737229781189657	0.004966126878309324	5.696804014859191e-05
2
146000
Ar	-5.84711663126644e-05	0.00033557319089433385	0.003187056190228489	0.02374184112388708	0.004333278442549207	5.69726578255277e-05
Xe	-0.00012247644560957246	-3.493257332985818e-05	0.002789168120421458	-0.0023590567438563585	0.008623825517404697	7.4404610505329e-05
2
146200
Ar	0.00017402018710832378	0.0002947840418127338	0.0031874748217611787	0.020780240615666513	-0.012158960570895187	2.3249275531893278e-05
Xe	-0.00011467518159625679	5.248169189554516e-05	0.002789890253781365	0.003849089611255299	0.008119001681119528	5.121566631410055e-05
2
146400
Ar	0.0003232118204803676	0.00011249435383170235	0.0031872962458739085	0.00784489186043363	-0.0227742988737821	-3.333416391170782e-05
Xe	-5.2081980830720007e-05	0.00011440452690373066	0.002789991485983334	0.008148424074601276	0.0037611657228215044	-1.4492325461438408e-05
2
146600
Ar	0.00031778241802211195	-0.0001237320664965967	0.0031868353899636007	-0.008867197541908792	-0.022469138765343268	-3.960641931761313e-05
Xe	3.5296556078457406e-05	0.00012167466688367231	0.0027892408955397263	0.008593356683098768	-0.002377847728354213	-0.00011898774248491455
2
146800
Ar	0.00016004816565013901	-0.00030067850651761797	0.003186479220555237	-0.02135619255039231	-0.011413077396294524	-1.614519223877971e-05
Xe	0.00010564039137380944	7.059279830831735e-05	0.0027878402445191868	0.004881789240714224	-0.007407736396455084	-0.00015325845553517973
2
147000
Ar	-7.446142833705685e-05	-0.0003333585195973535	0.003186243520959094	-0.02356754043193025	0.005174563551173185	-3.088159733019936e-05
Xe	0.00012529424291946031	-1.44226108160362e-05	0.0027867102990977426	-0.0011336230156947995	-0.00890136617598893	-5.8213372058810125e-05
2
147200
Ar	-0.000273113578908496	-0.00020585155176518812	0.0031859770215208563	-0.01448659062029523	0.019248581647026298	-3.084210352352417e-05
Xe	8.480998448408327e-05	-9.2634082156529e-05	0.0027866089638373566	-0.006598706622660851	-0.006079044328718193	2.228061782119902e-05
2
147400
Ar	-0.0003405318821991032	2.025942509761057e-05	0.0031860106902930996	0.0015619095723582628	0.02406586323073441	2.0407765195379763e-05
Xe	3.770983165137312e-06	-0.0001263111221948007	0.002787292679501905	-0.008935415967589705	-0.0003879674903370585	0.0001048136661907965
2
147600
Ar	-0.00024441764457539927	0.0002365490051291924	0.0031865263157062136	0.016851089811778658	0.01737381495395465	7.11227238164574e-05
Xe	-7.925880296748358e-05	-9.966068438162311e-05	0.0027883921959336775	-0.00697606916979975	0.005502518447101774	0.00010812170136381294
2
147800
Ar	-3.101299798417608e-05	0.00033932955966775233	0.0031870642163516543	0.024046835222556517	0.002302057781928005	4.919901677556681e-05
Xe	-0.00012417195816834028	-2.537260202241144e-05	0.0027894219250165584	-0.0016431326422731225	0.008747526835603005	9.606890329659647e-05
2
148000
Ar	0.00019734877595040874	0.0002794774247711931	0.0031869391794244546	0.019708836093430916	-0.013817159350259421	-7.241691853411287e-05
Xe	-0.0001092834100186103	6.10607186357487e-05	0.002790040238977532	0.004484379860868256	0.007820714603013737	2.2502504443308087e-05
2
148200
Ar	0.00033105951287843897	8.558987742018247e-05	0.003186058358500061	0.005914876568084128	-0.023336074344887943	-9.861562241268455e-05
Xe	-4.1973971951398264e-05	0.00011836695031819082	0.002789815568170563	0.008423123257200398	0.0031521031732468095	-6.522701842734693e-05
2
148400
Ar	0.00030627744119364296	-0.00014935684701346141	0.0031853919786363123	-0.010660131136120805	-0.02168412625393822	-3.306941400333036e-05
Xe	4.5410374101598055e-05	0.00011877662927981538	0.002788699218435627	0.008308481428398667	-0.0030530381301495657	-0.00015122278622741727
2
148600
Ar	0.0001351353620606923	-0.0003127911143500416	0.0031856174206816696	-0.02215882260539056	-0.009622347886587024	6.602060962399513e-05
Xe	0.00011118646604087606	6.235162476837301e-05	0.0027870639242220697	0.0042700217024546315	-0.0077620894153657945	-0.00015364636505389487
2
148800
Ar	-0.00010083408576950064	-0.00032590153884731336	0.0031863111463576346	-0.023033546789844782	0.0071034794636367716	5.6821669515466014e-05
Xe	0.00012391202470300825	-2.4121064488363293e-05	0.0027859169455976764	-0.0018435521471491033	-0.00880531957006401	-6.501837871971646e-05
2
149000
Ar	-0.00028801758070993224	-0.00018249209392675594	0.00318671093460564	-0.012841320693498593	0.02036974153443624	1.3063772764752116e-05
Xe	7.700055073764145e-05	-9.960080498172338e-05	0.002785978099912949	-0.007142850512920584	-0.005602058006555321	7.131062258844496e-05
2
149200
Ar	-0.0003369806704546076	4.8355092538185665e-05	0.0031867570621457396	0.0034701425776855325	0.023869345503033615	-4.196048999532272e-06
Xe	-7.076934308441717e-06	-0.00012726502614177328	0.0027870402692207114	-0.008983464928589821	0.00032434577594305246	0.0001339101490731878
2
149400
Ar	-0.0002243403211006378	0.00025605417762251226	0.0031867236131204314	0.018105403806451387	0.015932669935631683	-1.8092298737185358e-05
Xe	-8.848743039571636e-05	-9.374968934744156e-05	0.002788779410700737	-0.006587541787594967	0.0060937241681403055	0.00019360644698192175
2
149600
Ar	-4.32645525767523e-06	0.00034102469450379745	0.0031862394422211347	0.02402956900468801	0.0003580003795585629	-4.4119375987567275e-05
Xe	-0.00012781846817619608	-1.534539752973522e-05	0.002790428746648662	-0.000940251549053861	0.008946587478223824	0.0001066339004509892
2
149800
Ar	0.0002176741325266725	0.0002623216481817828	0.003185936268443804	0.018496171463252203	-0.015432331103254971	1.6724379710289358e-06
Xe	-0.00010590735175254585	7.012718402571176e-05	0.002791118656562324	0.005134369258040844	0.0074710363048591435	5.803673361392748e-06
2
150000
Ar	0.00033551863930864523	5.781310122716615e-05	0.003186314893507002	0.004081974462892683	-0.023733688680145876	6.750534859338322e-05
Xe	-3.357638247976679e-05	0.00012186349272118295	0.0027902123950362895	0.008718078980316273	0.0024460021923945036	-0.0001685778274370222
2
150200
Ar	0.0002927483293043829	-0.00017400545052572008	0.003187240877256911	-0.012286253174600505	-0.020696388105173245	9.140845160474757e-05
Xe	5.43220943743562e-05	0.00011501190753739997	0.002788237509017934	0.008115882356070326	-0.0037581715265086624	-0.00020900593334991857
2
150400
Ar	0.00010972275704834737	-0.0003220541594657173	0.003187791744641357	-0.02279608851899239	-0.007663849894256866	5.812708042734025e-06
Xe	0.00011571302358857223	5.259134981267929e-05	0.0027864892523182766	0.0036677173134513907	-0.00820340101711728	-0.00010674272924365932
2
150600
Ar	-0.00012573890687165635	-0.0003152320913071985	0.0031873903216791287	-0.022337342470763497	0.008977514492408445	-6.2664458736411e-05
Xe	0.00012160543222889086	-3.582004746316184e-05	0.0027861382447689777	-0.0025147299713505697	-0.008730069534837948	2.725286550171399e-05
2
150800
Ar	-0.00030092380652778827	-0.00015707127521734027	0.0031865064147773873	-0.011212573733809322	0.021329303453920485	-9.752605880170022e-05
Xe	6.940620414135446e-05	-0.00010755763929685719	0.0027868831285944623	-0.007491155436982098	-0.005015854455640095	8.851847551506314e-05
2
151000
Ar	-0.00033152323582996717	7.671884890342311e-05	0.0031854984751339887	0.005332261112447778	0.023458900398148564	-7.72596140813067e-05
Xe	-1.5986885176933494e-05	-0.0001277701488286663	0.0027880253291835376	-0.008857176814868644	0.0011263671398226472	0.00011609504116044725
2
151200
Ar	-0.00020318247566809554	0.0002740366597038958	0.0031850614722838937	0.019254581118550076	0.014340211313114932	-1.4827924530625697e-05
Xe	-9.352435003437206e-05	-8.689244240283292e-05	0.0027893695600375843	-0.006001814049002441	0.006691789720893435	0.00015551729380191268
2
151400
Ar	2.243432406427974e-05	0.0003399446259713441	0.0031854978640993054	0.023983365480019486	-0.0016946358232605046	0.00010016126795619175
Xe	-0.00012637997424391672	-4.8656526555254e-06	0.002790431680033413	-0.0002921310523053563	0.009008193536276122	5.2461639422765e-05
2
151600
Ar	0.00023736306087378012	0.00024308347303487335	0.0031867543696826326	0.017209574935965706	-0.016850491352673143	0.00012864188555980802
Xe	-9.868766849325602e-05	7.886538133390671e-05	0.00279026310370409	0.0055907257620335105	0.007034535264417241	-7.557277007022906e-05
2
151800
Ar	0.00033855638606615143	3.0102244541042188e-05	0.003187954992104932	0.0022006975043473284	-0.023974859959632777	9.06513420433055e-05
Xe	-2.3396761406158704e-05	0.0001244409101823231	0.0027889723171132578	0.008816539170569498	0.0017271124015711956	-0.00016416898536358138
2
152000
Ar	0.0002774447844585706	-0.00019745028093494051	0.003188094627331235	-0.013897695611169018	-0.019618534361992155	-5.610509350212209e-05
Xe	6.340874989597682e-05	0.00011050530116687302	0.002787439553275681	0.00782602275913521	-0.004390605534909113	-0.00012743458036775638
2
152200
Ar	8.333617657454707e-05	-0.00033019375396049246	0.003186926050069343	-0.023276998927665306	-0.005813044449222279	-0.00016390987369837505
Xe	0.00012037441403631716	4.362557101201517e-05	0.0027864665183863864	0.003095518567886227	-0.008395318786780844	-4.120375585982916e-05
2
152400
Ar	-0.00015092072532971838	-0.00030447765466823216	0.003185444863175305	-0.021585712015162403	0.01075053126751116	-0.0001286411468337673
Xe	0.00012011220310959887	-4.381573657527087e-05	0.00278665987164317	-0.0031385587038723793	-0.00838340983980255	5.3704197961891494e-05
2
152600
Ar	-0.0003128962686775526	-0.0001326738620217941	0.0031844366061054494	-0.00946680596821189	0.022157915083542205	-5.975959506419693e-05
Xe	6.245796841831455e-05	-0.00011031584718114284	0.0027872843867226514	-0.007911424399700913	-0.004352791311821518	7.719247823553935e-05
2
152800
Ar	-0.0003249721328521038	0.00010271115496010929	0.003184569219720691	0.0071440135634739214	0.022948774166065767	8.94975962384546e-05
Xe	-2.5331647984018187e-05	-0.00012395395427345845	0.0027882334140470655	-0.008908993522165282	0.0017424055177902064	0.00010507994839753127
2
153000
Ar	-0.00018136191821929663	0.00028905256013136445	0.003185912323018653	0.020394425468432745	0.012768376634327732	0.0001811305868557429
Xe	-0.00010096786684058106	-7.820102564434605e-05	0.0027889673747183647	-0.005614241829223177	0.00702529357710692	4.3776875316534595e-05
2
153200
Ar	4.9433204376196345e-05	0.0003372450422846924	0.003187709510210172	0.02383811854875617	-0.003543106595277432	0.0001472321043972941
Xe	-0.00012844518585278703	5.1134345423290225e-06	0.0027891674234501425	0.00034345733891463586	0.008928611931432113	5.350402072983784e-06
2
153400
Ar	0.00025657615313946764	0.0002236838753480883	0.0031885827710840314	0.015832186707588725	-0.01820475012683566	2.683672947458965e-05
Xe	-9.453168899564445e-05	8.61345459551581e-05	0.0027890653685519523	0.006148666389572756	0.006589258976701067	-4.003708702839534e-05
2
153600
Ar	0.000340327146717413	2.987280503257999e-06	0.003187926364044362	0.00022087111161489266	-0.024101606035359043	-0.00015261453348230241
Xe	-1.5444579688939615e-05	0.00012586988041934544	0.0027887701504447486	0.009016210842602616	0.0010055240382436312	-3.386220260721854e-05
2
153800
Ar	0.00026079805713301893	-0.0002189080005370581	0.003186192223516321	-0.015455017710621292	-0.018409585853108503	-0.00015524651276578683
Xe	7.109959902658091e-05	0.00010487261112580606	0.002788699979302131	0.007570510680283052	-0.005027206276913964	1.021640506399592e-05
2
154000
Ar	5.650900980740422e-05	-0.0003355923479742117	0.003184806985147036	-0.023680633823932023	-0.003959651870325649	-9.044485862439435e-05
Xe	0.00012360852874370356	3.381131998157755e-05	0.002788608018249209	0.0024900192036746123	-0.008577755774650865	-4.772469340255106e-05
2
154200
Ar	-0.00017465240094332544	-0.0002916752382295617	0.003184315996081939	-0.020590949473564067	0.012383207288013844	-1.7796343472692596e-05
Xe	0.00011681582723877637	-5.31602966712407e-05	0.002788231922445169	-0.003782062428499269	-0.008073609550339282	-2.844735562577453e-05
2
154400
Ar	-0.0003220558327780351	-0.00010799881540070151	0.003184731253169572	-0.007644343284166872	0.02282208640612855	7.777825726089173e-05
Xe	5.416079111101113e-05	-0.00011460372074365871	0.0027880038929899813	-0.008224569157198073	-0.003707275785402946	-1.8553811649463365e-05
2
154600
Ar	-0.000315342678333861	0.0001275684340082851	0.0031857198134606253	0.00894018947171979	0.022314246439512374	0.00014687555244832272
Xe	-3.420370151725958e-05	-0.00012150229504317886	0.0027877782533829894	-0.00870437486964451	0.00241812236570893	-4.1512470006855353e-05
2
154800
Ar	-0.00015767990970288402	0.00030211801480837624	0.0031875875486036607	0.021273740058359834	0.011092522019632168	0.0001841859467523979
Xe	-0.00010595180262377913	-7.002098208522923e-05	0.002787435361088191	-0.0050622484423364115	0.00743657726127937	-2.5780997881138262e-05
2
155000
Ar	7.548480968376024e-05	0.0003312785464525741	0.0031888041894568364	0.02340349330822257	-0.005493777192660633	7.237944418174551e-05
Xe	-0.00012706070287417333	1.5131174548358627e-05	0.0027874296847943615	0.0010163505174725182	0.008895757005149395	4.3914819616852896e-05
2
155200
Ar	0.0002722654077330552	0.00020131640290556402	0.0031887943575873317	0.014304114651433967	-0.01940711636619386	-6.363187275302432e-05
Xe	-8.69196483623547e-05	9.344007371944515e-05	0.0027879703726013598	0.00666940979365508	0.006109612665691521	9.292146920982571e-05
2
155400
Ar	0.00033835904022075396	-2.5410840622038604e-05	0.0031875397240234533	-0.001624968369089258	-0.02402141904118097	-0.00015917162709115084
Xe	-4.60775431703572e-06	0.0001273908255193021	0.00278894232026435	0.009108724157306874	0.0003686295413427315	9.077476893366978e-05
2
155600
Ar	0.00024231127658057674	-0.0002400078235111301	0.0031857730409368934	-0.01679277823302511	-0.017105393078756394	-0.00019472781468861522
Xe	8.011436725652112e-05	0.0001003017943452961	0.00278980882148913	0.007113554180549441	-0.0055496223116447	7.135895032798151e-05
2
155800
Ar	2.9816098960876095e-05	-0.0003396674694998962	0.003184220279929698	-0.023919494716061494	-0.002012264972800145	-0.0001059739802537287
Xe	0.00012606078076485267	2.5509990938184274e-05	0.0027899398546273094	0.0017188341869932777	-0.008771603283108565	-2.3516942289282297e-05
2
156000
Ar	-0.00019730314417301515	-0.00027709357097439744	0.0031840915717488935	-0.019583386604006565	0.014001315429083686	7.894975669430206e-05
Xe	0.00011174015049446006	-6.0792180386226684e-05	0.0027892387182838715	-0.004451192081114037	-0.007769768002738571	-0.00011209040706819471
2
156200
Ar	-0.000330173629525963	-8.185878053063238e-05	0.003185282506212999	-0.005856072408446232	0.023382958853753008	0.00015452526886172593
Xe	4.438718154666533e-05	-0.00011737185433219009	0.002787845417329084	-0.008466880680650182	-0.0030908178094562894	-0.00016740148008867348
2
156400
Ar	-0.00030503114793402006	0.0001527247073632169	0.003186825631090734	0.01069583359067506	0.02155047147898491	0.00013321651220686085
Xe	-4.391248068807222e-05	-0.00011764113579738142	0.002786566405492669	-0.008446751207592331	0.0030457277635208457	-8.960818731053526e-05
2
156600
Ar	-0.00013354922836553759	0.00031421107673414996	0.003187975272626477	0.02215813315579159	0.009360667317656949	9.215199476544292e-05
Xe	-0.00011074534123277248	-6.115990403519919e-05	0.0027863103510817255	-0.004374952649450623	0.007782678329835421	2.3553097491220337e-05
2
156800
Ar	0.0001018199681068083	0.000324602390356794	0.0031882299541584817	0.022964199751408423	-0.00736227774232578	-2.976679232887606e-05
Xe	-0.00012452388408457709	2.5272702547630184e-05	0.002787104093278627	0.0017266392592996337	0.008771674032977888	0.00013044239217871716
2
157000
Ar	0.0002881736402218526	0.0001788256451578597	0.0031874936837690427	0.012768268188615374	-0.020543205720316163	-0.00010679699145159191
Xe	-7.862605496118556e-05	9.988225410209425e-05	0.0027885343581000536	0.007058387586633954	0.005531179133646308	0.00013692515808043753
2
157200
Ar	0.0003364109386500718	-5.2962160930343906e-05	0.0031864135684326247	-0.003537960527371844	-0.023854486505492208	-0.0001038191918891346
Xe	5.099030930674072e-06	0.00012637773902631725	0.002789504824617424	0.008970337894570107	-0.00042312097807673557	6.0064637336953185e-05
2
157400
Ar	0.0002233700832966513	-0.00025942508245819335	0.003185586202911385	-0.018117720467683847	-0.01572277401067268	-5.680617354757755e-05
Xe	8.615860891681307e-05	9.210002407033729e-05	0.002789866503433899	0.006587942097647313	-0.006138237068458644	6.159176700499296e-06
2
157600
Ar	3.377107201955295e-06	-0.0003419058367734779	0.003185193481706758	-0.024038710795781626	-5.8803449123369896e-05	-2.1910996175453056e-05
Xe	0.00012614305070556537	1.3899486943856826e-05	0.002789706220800698	0.0010641524498655236	-0.008871937423357712	-4.103393082258364e-05
2
157800
Ar	-0.0002184483084400503	-0.00026063944501978405	0.0031853401031790127	-0.01847569573549916	0.015642350717144413	5.042955294037426e-05
Xe	0.00010557255042173015	-7.085269056084678e-05	0.002788799304787572	-0.004984643463457286	-0.007362785039960239	-0.00013272284971051128
2
158000
Ar	-0.00033574171184678326	-5.461833658430471e-05	0.003186246412748437	-0.003980796776825181	0.023809238438633567	9.51402713621841e-05
Xe	3.4704439845504594e-05	-0.00012154492184212263	0.0027871721749766366	-0.008594983046506001	-0.0023655359121597594	-0.00015191179621733446
2
158200
Ar	-0.00029146724948891396	0.00017710551190322664	0.0031869833061384497	0.012446264014487446	0.020576849432426703	5.2532603671628735e-05
Xe	-5.262582010838838e-05	-0.0001141190928708024	0.002786388320967359	-0.00813642570041219	0.0037816027735186213	-3.301661471346591e-06
2
158400
Ar	-0.00010718769600226127	0.0003236462044152323	0.0031873916269922337	0.022837584418608215	0.007490180343486016	8.060452342520302e-06
Xe	-0.00011491208549809654	-5.1734042372157876e-05	0.0027870166966613994	-0.003786661833943238	0.008172493192917952	0.000119989682891322
2
158600
Ar	0.0001282833532789849	0.00031463340501311146	0.003187241007220395	0.0222904709430556	-0.009198766528010618	-3.7148094776867e-05
Xe	-0.0001220758723749968	3.5944321704010714e-05	0.0027882887751397014	0.0023809422292743946	0.008630345385279545	0.00013762584211110242
2
158800
Ar	0.00030237197552796473	0.00015466734370069392	0.003186881593626428	0.011067982042216583	-0.021451597629634812	-3.496446881886446e-05
Xe	-7.080174179993459e-05	0.00010659990823929165	0.0027894607373621537	0.007428225584033206	0.004890730258550599	8.895655696361174e-05
2
159000
Ar	0.0003313998531387945	-7.955412539309358e-05	0.0031864729712849046	-0.005481845015889716	-0.023425375409126276	-4.4845669179661026e-05
Xe	1.4400320738006186e-05	0.00012604097731913543	0.002789958723069732	0.008890498661200666	-0.0011482484045451692	1.4900674357448056e-05
2
159200
Ar	0.0002017878060835532	-0.0002755994127581143	0.003185984624582148	-0.019339287302817726	-0.01413261966021842	-3.336251710775005e-05
Xe	9.258369137456042e-05	8.503510973332078e-05	0.002789691001274031	0.0060870569600681235	-0.006679465692313371	-7.918251872060576e-05
2
159400
Ar	-2.404468384328441e-05	-0.0003393507432966082	0.0031859911692828737	-0.023930283469873068	0.0018890697093022655	1.706666575888125e-05
Xe	0.00012615336949313864	3.181588908833115e-06	0.002788664423106308	0.0003645394817060111	-0.009017253638608292	-0.00011884570273749086
2
159600
Ar	-0.00023811833364668756	-0.00024081278074115562	0.003186233347179305	-0.017097653784478084	0.017009380151154826	3.512029772439627e-05
Xe	9.929046182153222e-05	-8.024447924772687e-05	0.0027875724842741554	-0.0055232330592763995	-0.006966092308743726	-9.703507544834083e-05
2
159800
Ar	-0.0003381598710686029	-2.6748293646992812e-05	0.003186715738381647	-0.0020741219278075616	0.02400492030624231	6.838263665752478e-05
Xe	2.463484092636704e-05	-0.0001246662079294376	0.0027866315091353198	-0.008784884493909021	-0.0015660519524744732	-7.084753352549011e-05
2
160000
Ar	-0.00027599973322068146	0.00020030342224777853	0.0031869878200841634	0.01398042351736667	0.019487008592942223	-1.1889110066157083e-05
Xe	-6.21682315563365e-05	-0.00010893973529417347	0.002786420203918135	-0.007856136008498067	0.004566665657475733	4.606129137755803e-05
2
160200
Ar	-8.122600401926254e-05	0.00033128410254081324	0.0031869022935039552	0.02333552074393193	0.005597161133965659	-1.9962511412649252e-05
Xe	-0.00011937425500514845	-4.0705430276848863e-05	0.0027873194356711375	-0.0031099096091347883	0.008509590051276657	0.00010096588527580513
2
160400
Ar	0.00015259862344854173	0.0003032683808360888	0.003186727297382178	0.021455778663926357	-0.01095377847639573	5.859803950181654e-06
Xe	-0.00011923025918287973	4.7109946021464025e-05	0.002788284035576121	0.0031167924608118936	0.008330790080653665	8.551638609978055e-05
2
160600
Ar	0.00031319741543449006	0.00012980769866654423	0.0031867974726179564	0.009323011312413096	-0.022296408994173705	7.895431471083083e-06
Xe	-6.192736869486223e-05	0.00011227533503469007	0.0027889422264627058	0.007858099183135148	0.004151651794947134	5.153764830976734e-05
2
160800
Ar	0.00032374364658484223	-0.00010588723671437129	0.0031866405505663617	-0.007300723405162577	-0.022848437077432705	-2.6956998180171444e-05
Xe	2.513807648131482e-05	0.0001236814595265004	0.0027890696581792233	0.008801760056497581	-0.0019639608690679364	-2.515083425035415e-05
2
161000
Ar	0.00017897004353107374	-0.00029028938666002084	0.003186053494714641	-0.020451408438746516	-0.0125069790693516	-3.144658799143936e-05
Xe	0.00010003446360347344	7.593924030860837e-05	0.0027885927395246194	0.005568106321054017	-0.007184143084524306	-5.581534169895932e-05
2
161200
Ar	-5.2246634087754635e-05	-0.00033574197317796277	0.003186133495101016	-0.023812573326932346	0.003802385398427318	3.739685987237297e-05
Xe	0.00012708341483471706	-7.984619870825745e-06	0.0027881193441560786	-0.000356198814681853	-0.008934479552099316	-3.795326133480325e-05
2
161400
Ar	-0.0002584277493762888	-0.00022039878434035144	0.0031867571813694218	-0.01569592650472185	0.018291362274064735	7.778270754782051e-05
Xe	9.312051157942081e-05	-8.794337910342845e-05	0.0027877855375456895	-0.006140687351865498	-0.0063937514622674965	-3.054402618507364e-05
2
161600
Ar	-0.0003406268825329639	4.6155469677455926e-07	0.003187210968681039	-4.821815471436676e-05	0.024004283499527313	3.874985150035199e-05
Xe	1.4502490945359267e-05	-0.00012548438733669444	0.0027877665286452358	-0.008935319933741763	-0.000804694186850572	3.530515799012835e-05
2
161800
Ar	-0.00025950786660681666	0.0002205770664498579	0.003187340282532251	0.015585920823653244	0.018181496630636212	6.699603633368792e-06
Xe	-7.101985618942905e-05	-0.00010281656560292418	0.0027884377241199337	-0.007455972224344073	0.005141683376519615	5.996804178234013e-05
2
162000
Ar	-5.402337915067745e-05	0.00033480487064435307	0.0031873044872508497	0.023769323392379315	0.0037023950342552417	1.4238129826220852e-06
Xe	-0.00012240846156615328	-3.091703722951007e-05	0.0027887233545846254	-0.00241382594680679	0.008635750467552628	-3.810493406557967e-06
2
162200
Ar	0.0001774385823267402	0.000288719562315061	0.0031872503627419953	0.02056263536033164	-0.012551301584580699	-2.3706641536069158e-05
Xe	-0.00011517654942754562	5.580939659016729e-05	0.0027884779592523773	0.0037916270818351473	0.007982585688524158	-3.688006431065995e-05
2
162400
Ar	0.00032355034540023595	0.00010425397464500569	0.003186935223318993	0.007430267175843229	-0.022795994901280897	-8.197797912888295e-06
Xe	-5.269749207131495e-05	0.00011571117380241281	0.002787974878311647	0.00818774407029905	0.0035012651162084673	-2.845942747841427e-05
2
162600
Ar	0.00031400043687578857	-0.0001301127633468405	0.0031868690707030902	-0.00922403850108991	-0.022089108576390584	-2.5265273123180715e-05
Xe	3.516364783258041e-05	0.00012011100839893037	0.0027878977537097276	0.008652741457583855	-0.002658841259439754	2.669635601200983e-06
2
162800
Ar	0.000154019719004522	-0.0003017966645944011	0.0031867410721396266	-0.021403204277783836	-0.010793838781333817	-1.1047306113288512e-05
Xe	0.0001061495594605183	6.692125541176387e-05	0.002788109802807547	0.004957868877714288	-0.007535403571794709	1.84581124263984e-05
2
163000
Ar	-7.950944675783869e-05	-0.0003286136222819894	0.00318698373373484	-0.023347911319034978	0.0056497987872354246	3.186858494326827e-05
Xe	0.00012657931891792994	-1.8213052877589805e-05	0.002788082222878137	-0.001083011323770538	-0.008778365317140789	-1.0994599779115112e-05
2
163200
Ar	-0.00027487741834867713	-0.00019804057766770257	0.0031871969502520778	-0.014071498389985596	0.019372010363014416	-2.470419648014409e-05
Xe	8.644021648693941e-05	-9.458855431684614e-05	0.0027881506654624743	-0.006611615028628562	-0.00586564539734138	5.6480834430503516e-05
2
163400
Ar	-0.0003384084459980052	2.7569108979093704e-05	0.0031866886407269177	0.001890942969926128	0.023840162509905165	-5.8590487307802874e-05
Xe	4.700185021559194e-06	-0.0001256245367888169	0.0027886839743293305	-0.009029173253503598	-9.6838811731155e-05	6.793528561045023e-05
2
163600
Ar	-0.000240182054173324	0.0002398930901653428	0.003186268747988191	0.01693666147147743	0.01685837239761688	-1.6560055578938333e-05
Xe	-7.914456804447731e-05	-9.633604461182444e-05	0.0027891818394354894	-0.00703398592784814	0.005683395211901346	1.459937756214104e-07
2
163800
Ar	-2.7151754864211464e-05	0.00033759196415979236	0.003186464447082261	0.023885004635450163	0.0018596331178936767	5.0689590329359406e-05
Xe	-0.00012463354116820427	-2.0828225315218087e-05	0.0027887309164854727	-0.0017156105514711032	0.008764162081895125	-9.817633508966449e-05
2
164000
Ar	0.00019896862664858586	0.00027401458940280184	0.003187155569867338	0.019450330217931366	-0.014068607115256145	9.042027324053699e-05
Xe	-0.00011031404393615349	6.476010900036656e-05	0.002787655306537724	0.0044534255252380965	0.007629876370293395	-0.00010419581884067341
2
164200
Ar	0.00033010530857424897	7.921329528875963e-05	0.0031880353944347536	0.0056952138202123305	-0.02327954611410382	5.688725404755125e-05
Xe	-4.3016567201083515e-05	0.0001192010266416943	0.0027867625599693386	0.008465518226192926	0.0028084884448336834	-8.574461291217144e-05
2
164400
Ar	0.00030319166920934735	-0.00015346476030425106	0.003188111027287073	-0.01085966025009268	-0.021316466094314774	-5.191206876840513e-05
Xe	4.5282619581174836e-05	0.00011641058552412847	0.002786672494844983	0.00844410810994517	-0.0033489002574099277	4.838407186934381e-05
2
164600
Ar	0.00013063890005671666	-0.00031243337104401624	0.0031875793827741365	-0.022194901672149877	-0.009154206070687088	-5.575556782282771e-05
Xe	0.00011213602771091429	5.7762589605948585e-05	0.002787262969886203	0.004359441807159835	-0.007892121430173824	5.0705398859136505e-05
2
164800
Ar	-0.00010469958538984804	-0.00032180090829096324	0.003187037270716651	-0.02289739385120074	0.0073714599995982275	-6.088304401809223e-05
Xe	0.00012545689006640272	-2.8654995872735765e-05	0.002787702597429458	-0.0018190871968435393	-0.008677153433742982	4.0353689698481105e-05
2
165000
Ar	-0.0002901973526741497	-0.0001767542505346661	0.0031861278458088955	-0.012622957687605747	0.02041964160330029	-9.407115006371913e-05
Xe	7.85798053402874e-05	-0.0001016326713816731	0.0027882408036576218	-0.0071661729139821	-0.005310487224060307	5.505189605382764e-05
2
165200
Ar	-0.00033658759975471123	5.322250903788217e-05	0.0031851878089176533	0.0037255425231425944	0.023633887951281907	-7.89230605575657e-05
Xe	-6.075804779263258e-06	-0.00012626243257126283	0.0027887595212546493	-0.009037915341040927	0.0005863016224051604	5.415864924111099e-05
2
165400
Ar	-0.0002218057372884574	0.0002575403257476975	0.003185069003175295	0.01825326639705072	0.015526738814548257	4.101397186232193e-05
Xe	-8.770426474957311e-05	-9.06269495686454e-05	0.0027889710343469254	-0.006599173359785557	0.006235685146164673	-6.56572031821894e-06
2
165600
Ar	-7.581572672211022e-07	0.0003388350367447759	0.0031861408906047393	0.024120340010758502	1.2990340406747884e-05	0.0001647566169327944
Xe	-0.00012709731093814958	-1.170645600329418e-05	0.0027885483873849614	-0.0009632481807733024	0.00888685706296744	-5.33238402774655e-05
2
165800
Ar	0.0002210347864986792	0.0002576811331683917	0.003187862836649268	0.01837009408009045	-0.015569009087329529	0.00014037471133372952
Xe	-0.00010545455179954931	7.259650580821e-05	0.0027878046077600954	0.005126127890368746	0.007283163465366995	-7.763253625248711e-05
2
166000
Ar	0.0003366003011109195	5.293196766233919e-05	0.0031885068468347835	0.003781820139818678	-0.023637146758716435	-1.0905054109522216e-06
Xe	-3.2887238109562034e-05	0.00012210487234168228	0.0027872606872683127	0.008771961041964338	0.002237269455459708	-7.953135931911142e-06
2
166200
Ar	0.0002905236810654653	-0.00017697031644850746	0.0031880478460477963	-0.012595864391044662	-0.020392514432340712	-7.79065393283205e-05
Xe	5.567109775384402e-05	0.00011307636138084616	0.0027876527274448733	0.008189530588632104	-0.003957819135414471	7.75094057702094e-05
2
166400
Ar	0.00010508837364054641	-0.00032181841209745563	0.0031871069786601172	-0.022923504949453655	-0.007381446068642699	-0.00010452390787391563
Xe	0.00011755730012383488	4.9548614792951635e-05	0.002788264184076587	0.003663648417646258	-0.008205938770996284	3.938978539208561e-05
2
166600
Ar	-0.00013069097708202993	-0.0003125530632507303	0.0031861730128811953	-0.022258787858000836	0.009145662697639655	-8.722858577697899e-05
Xe	0.0001230923725804182	-3.763441859239843e-05	0.002788463047273565	-0.002590595290178925	-0.008499931544837004	-2.616920847552646e-05
2
166800
Ar	-0.0003040199611954554	-0.00015369410333300923	0.003185506395025786	-0.010951376647489894	0.021305321300222543	-4.649659155009978e-05
Xe	7.00198955775216e-05	-0.00010667714498873741	0.002787691156616475	-0.007599447018744131	-0.004731674235807535	-0.00010403756833138596
2
167000
Ar	-0.00033158753807616695	7.876942128036485e-05	0.0031854791046776044	0.005635160939671671	0.023242314370364833	4.18550186747631e-05
Xe	-1.618640700973806e-05	-0.00012456936342414933	0.002786890282800027	-0.0089341635040224	0.0012987023456700493	-3.290206124404729e-05
2
167200
Ar	-0.00020050914139515025	0.000273414715947788	0.0031863409267240263	0.019468047108760118	0.014048614210089511	0.0001073569888270979
Xe	-9.430688052763244e-05	-8.274010154303505e-05	0.002787019708001083	-0.006036362714290829	0.006705570958840358	4.2480994177573104e-05
2
167400
Ar	2.6313962131244142e-05	0.0003370392082950173	0.003187609361976579	0.024004736173408887	-0.001847186982913816	0.00012524076896244657
Xe	-0.00012708961966559086	-1.4105140091964733e-06	0.0027875343173026585	-0.0002467626627594642	0.008896146764059684	6.012897390201421e-05
2
167600
Ar	0.00024040580967078356	0.00023931400602627452	0.0031884437210866036	0.01702476129761765	-0.016881468917793588	2.303195793530087e-05
Xe	-9.903032150378592e-05	8.0569645338717e-05	0.002788243877087944	0.005614658333005523	0.006814929971105004	8.735995956781192e-05
2
167800
Ar	0.0003390331879670164	2.685054836715613e-05	0.003188213288264724	0.0018852049794173932	-0.023830456423243104	-7.510305584615732e-05
Xe	-2.3467746852831696e-05	0.00012370344048206187	0.0027889974592249793	0.008837438174952177	0.001468939828847159	4.3272197281443536e-05
2
168000
Ar	0.00027481904243514365	-0.00019856213640152907	0.0031871796839855917	-0.014154824264017653	-0.019377212640996323	-0.0001178989293609792
Xe	6.344442204999228e-05	0.00010788089506587036	0.0027893844977917937	0.007799871561889252	-0.004505102039519942	3.45286136677399e-05
2
168200
Ar	7.908276029025325e-05	-0.0003293662377838737	0.0031861807980665176	-0.023354579236587892	-0.005677831504164429	-7.588129795249647e-05
Xe	0.00011973906509598955	4.082636741162339e-05	0.0027890092777287188	0.0030074803435365793	-0.008370452050541485	-9.557816522539669e-05
2
168400
Ar	-0.00015433877014616596	-0.00030273120048255855	0.003185865502441301	-0.021370375259288758	0.010763779936358147	-1.201654419056795e-05
Xe	0.00011869177498553072	-4.58228294160908e-05	0.00278830706684964	-0.0032065536609805936	-0.008244026236693564	-4.247966358806667e-05
2
168600
Ar	-0.0003136994263558762	-0.00013122488005962092	0.0031860217594317976	-0.009162011052980076	0.022107940619052583	3.961014180319399e-05
Xe	6.085537161880423e-05	-0.00011063490001661164	0.0027878911575967263	-0.007861335734447758	-0.004173779341430784	-2.5718396403096214e-05
2
168800
Ar	-0.000322818375338118	0.00010341999736490051	0.003186501844470233	0.0073881300416033975	0.022838358580871267	6.0069258117737494e-05
Xe	-2.5927489361728424e-05	-0.00012221066879230554	0.0027875685304244668	-0.008786099627852874	0.0019362354761459076	-1.9807133756201287e-05
2
169000
Ar	-0.00017763976415978073	0.00028848728255258753	0.00318695226997033	0.020398721738050275	0.012631503545270718	2.391781189071863e-05
Xe	-0.00010049441506499192	-7.538104153080144e-05	0.0027874597335975568	-0.005506013963894143	0.007037828025990676	-1.4458920982606738e-05
2
169200
Ar	5.225096692585863e-05	0.00033516856991252494	0.003187239150687267	0.023649789836987487	-0.00366917951567431	2.9134401372784143e-05
Xe	-0.0001270084212812729	7.39085766710837e-06	0.002787162037863741	0.0004336006712269987	0.008810810153061885	-4.097751021255586e-05
2
169400
Ar	0.00025709366879262974	0.00022100495768904904	0.003187171344066655	0.01558652381347589	-0.018206924681403943	-3.460045091745595e-05
Xe	-9.228822161491082e-05	8.658478729272262e-05	0.00278683026685487	0.006190039795319928	0.006358648753325443	-1.865566112243512e-05
2
169600
Ar	0.0003387136567919121	9.74261773224277e-07	0.0031866201416569117	5.853435016986517e-05	-0.023965320338454523	-8.026815581883181e-05
Xe	-1.3230298069600557e-05	0.00012394498249497954	0.0027869503523585675	0.00896125186237078	0.0007898559435164044	2.6165708844601923e-05
2
169800
Ar	0.00025805311563131226	-0.00021942930454192782	0.003186138569578346	-0.01551862330865473	-0.018289410096221616	-2.723385400652467e-05
Xe	7.210091719269727e-05	0.00010147856306154848	0.002787014890852047	0.00741235803043481	-0.005082056056677042	6.594533042852613e-06
2
170000
Ar	5.390973354818822e-05	-0.0003347362173987961	0.003186188412557792	-0.023612551787053168	-0.0038219110570092067	4.83875094109421e-05
Xe	0.0001229591422840521	3.0380511415773232e-05	0.0027872562524124526	0.002329032241903049	-0.00854207323556193	3.449878593454512e-05
2
170200
Ar	-0.00017602884184748517	-0.0002896514841383184	0.0031867602441426183	-0.020428686773949056	0.012453754005574285	4.0543966902569717e-05
Xe	0.00011477522304651446	-5.526905221612477e-05	0.002787362346982633	-0.0038946046401577587	-0.007899117995325371	3.1642557019852675e-06
2
170400
Ar	-0.00032158836094625345	-0.00010582094584589106	0.0031872063932400258	-0.0074375463120769664	0.02276041483337681	6.148040940616323e-05
Xe	5.145735404753464e-05	-0.00011467766222530981	0.0027875582677116466	-0.008234718084438649	-0.003484818051045063	4.123457175074811e-05
2
170600
Ar	-0.00031272213938025986	0.00012850985196082167	0.0031875142819313214	0.009117438653338892	0.022154560486598078	1.0346392174282173e-05
Xe	-3.6618013910005107e-05	-0.00011918159118821624	0.002788186950249713	-0.008638358975358064	0.0026080605254274556	5.4575953588871344e-05
2
170800
Ar	-0.00015400125850169007	0.00030120881763888587	0.003187529646908772	0.02127890751786879	0.010974569572109738	6.188503373210858e-06
Xe	-0.00010731451869596366	-6.664081980429468e-05	0.0027886050099643522	-0.004916366057582456	0.007461645640054437	2.0151759810179754e-05
2
171000
Ar	7.850822087368211e-05	0.00033009453794853475	0.0031872405447536567	0.02327438154226844	-0.0054541091493622365	-5.66323518978627e-05
Xe	-0.0001267919821385586	1.7718186276120738e-05	0.0027886567667003604	0.0011978203549106146	0.008713076877042574	-6.852068347721358e-06
2
171200
Ar	0.00027368164777692423	0.00020085877950054839	0.003186552575213138	0.01412422159365695	-0.019311023007543025	-8.67920365909629e-05
Xe	-8.536071580813057e-05	9.375982950666574e-05	0.002788546046443219	0.00671919067156035	0.005849048685799619	-4.568932653635767e-06
2
171400
Ar	0.00033816653169753863	-2.4711963932627326e-05	0.0031859829655353474	-0.00176551450594153	-0.023906780241180373	-1.8778181381917466e-06
Xe	-3.0255986445805505e-06	0.00012500389274582583	0.002788340291366262	0.009069712709791537	0.00015688763056090588	-4.321464102130467e-05
2
171600
Ar	0.00024097257742420776	-0.00023857257895052418	0.0031861105185322473	-0.016865632754329587	-0.0170842446737146	6.14998057814526e-05
Xe	8.083827541766947e-05	9.649273233071298e-05	0.0027877533924481573	0.006973718149617149	-0.005632878258742318	-7.498206816340761e-05
2
171800
Ar	2.8110728154204406e-05	-0.0003383658858697877	0.003186936528024522	-0.02389986280617397	-0.0020409453569031517	0.00011055611727509281
Xe	0.00012556890997073228	2.1476789184235735e-05	0.002786906066125772	0.0016104058409507033	-0.008743637317786532	-9.860644404832696e-05
2
172000
Ar	-0.00019827191210427836	-0.00027615801922571464	0.0031877990105259203	-0.019471002346776917	0.013977412316878452	2.5978228591891917e-05
Xe	0.00010994683138203507	-6.420242466745538e-05	0.002786042673701695	-0.004594861370914283	-0.007688859750618214	-4.882831355133077e-05
2
172200
Ar	-0.00032962702737190914	-8.168739655215033e-05	0.003187684139386376	-0.005675813972981917	0.023290746153252356	-7.291884559827082e-05
Xe	4.101775765466689e-05	-0.00011957647569453702	0.002786325951606741	-0.008591802845173947	-0.002899084240070742	8.642548794189007e-05
2
172400
Ar	-0.00030275295416500465	0.0001519696893079862	0.0031869971295868504	0.010826100524195584	0.02146961485411139	-6.424534779936256e-05
Xe	-4.7815961932210896e-05	-0.00011732356587063372	0.0027876444430366067	-0.008410360398056491	0.0033164775273293585	0.0001672398469786042
2
172600
Ar	-0.0001307238379395608	0.0003127528474418219	0.003186670103469395	0.02215106314684758	0.009336076778614543	3.831039152712933e-07
Xe	-0.00011362754348244663	-5.898666435815044e-05	0.002788987289609254	-0.0042020211614353375	0.00786676039094416	7.296243553815427e-05
2
172800
Ar	0.00010422920940407585	0.00032367519261608237	0.0031869250364904966	0.022854050573799224	-0.007266935078607698	5.5059269168064264e-05
Xe	-0.0001248093187576564	2.7323367078701368e-05	0.00278926423920908	0.002048897397223352	0.008681045129039631	-7.666555345759441e-06
2
173000
Ar	0.0002892996260364519	0.0001792291912494153	0.0031871152696787463	0.012615945280840627	-0.020384637488898037	-1.6601293449734777e-05
Xe	-7.590609325508276e-05	0.00010047716696475464	0.002789083800471011	0.007311476573684146	0.005357886175155342	-3.22982007422176e-05
2
173200
Ar	0.0003359301622743315	-5.106225105662681e-05	0.003186958600266229	-0.0036800957560184514	-0.023743100892471513	-1.6416194821489984e-06
Xe	9.3305005943611e-06	0.00012582790465840338	0.0027883422153310894	0.009026617823036409	-0.0005260333357294327	-8.831198491988803e-05
2
173400
Ar	0.0002214006106547361	-0.00025709416114769597	0.0031872542857820678	-0.018256882142953495	-0.015712394169151416	5.4682804014210985e-05
Xe	8.98117586849016e-05	9.110480340715649e-05	0.002787500534590045	0.006406851433542602	-0.006142397967956609	-9.173314459742195e-05
2
173600
Ar	4.143293915247602e-07	-0.0003395108577736765	0.0031875877153721773	-0.024080433891384707	-0.00010240871184323934	-3.6392853880132713e-06
Xe	0.00012715467826086396	1.2793129975989084e-05	0.0027868563599912303	0.0007356762820071611	-0.008865733062984384	-3.070396333541232e-05
2
173800
Ar	-0.0002207073839542677	-0.00025906956791498875	0.0031873422975979837	-0.018316756715069858	0.015509308657293972	-6.663287295472811e-05
Xe	0.00010335533385653008	-7.170932587560459e-05	0.0027869495748025215	-0.005279444767203631	-0.007336404934167797	6.366915631937834e-05
2
174000
Ar	-0.0003357635329978528	-5.467176170139067e-05	0.0031865598348345234	-0.003725676620761015	0.02366752129366287	-6.610502153157858e-05
Xe	3.0140222523009116e-05	-0.00012162580996358439	0.0027878449800020104	-0.008772037345419943	-0.0022630103563840986	9.950966940319135e-05
2
174200
Ar	-0.00028979794234227903	0.000175981649805698	0.003186314911929584	0.012534222478694864	0.02054559643152972	1.416203179197657e-05
Xe	-5.7645611371082253e-05	-0.00011316754420911741	0.0027889088511564354	-0.008059397841509176	0.0038519322570637984	7.385030309359743e-05
2
174400
Ar	-0.0001050903210616788	0.00032287472449416725	0.0031867507755851663	0.02288453098838887	0.007573416017218331	6.961952666432946e-05
Xe	-0.00011794932414989134	-5.065142271929809e-05	0.0027893871931743	-0.0034748269213626397	0.008109520134433766	2.920427505668156e-06
2
174600
Ar	0.00013044110597645818	0.0003149359443871637	0.0031873570481130097	0.022262364910253574	-0.009124475363720541	3.444169434262029e-05
Xe	-0.00012158399324383254	3.585611863225932e-05	0.0027893716388867587	0.002774649716308081	0.008487161341285427	-2.8570900938150404e-05
2
174800
Ar	0.00030374355599003925	0.00015577797533545873	0.0031875800602515726	0.010922318145442854	-0.02139382325566797	6.339360654331811e-06
Xe	-6.71201417076725e-05	0.00010499546778771088	0.0027887751455447133	0.007674550195286664	0.004771629744873836	-8.89507601846061e-05
2
175000
Ar	0.0003312414570857562	-7.802601800503494e-05	0.003187527541598919	-0.005653906552428039	-0.023383690032413286	-3.0489060845161797e-05
Xe	1.9782141612667818e-05	0.00012387129348522382	0.002787504109928807	0.008978416842602194	-0.0011953578216389936	-0.0001469933448651543
2
175200
Ar	0.00020001468637827793	-0.0002742406348367386	0.003187014414604624	-0.019486775142416965	-0.014226089874936542	-6.827688722405419e-05
Xe	9.772048093056308e-05	8.325800266138096e-05	0.0027862578090211755	0.005941221755385921	-0.0065747078395072996	-0.00011967129649366865
2
175400
Ar	-2.6912721670318515e-05	-0.0003391956264147385	0.0031863669741895306	-0.02399219848854657	0.0017817551609355718	-7.667626593203953e-05
Xe	0.00012880368324702415	2.9107522325157568e-06	0.0027857342847904406	2.0659807493018496e-05	-0.008806428634880691	3.0074974079646736e-05
2
175600
Ar	-0.0002408865968172745	-0.00024139599876757837	0.003185507071104079	-0.017004498964263832	0.016938327908016564	-5.9763883161803655e-05
Xe	9.809911816835864e-05	-7.860323411139286e-05	0.0027863625789191805	-0.005920072800603945	-0.0068300141708979795	0.00010167431190768332
2
175800
Ar	-0.0003395464951861818	-2.8049897510011096e-05	0.0031853899049514803	-0.0018827630833432	0.023926658168165776	7.234421668567966e-05
Xe	2.011772548251393e-05	-0.00012252325332363326	0.0027877928243109722	-0.009030105144815644	-0.0015819373501960608	0.00017970681727322966
2
176000
Ar	-0.0002755912542009675	0.00019850783103313987	0.0031866674835374126	0.014153568683772159	0.019474977874018827	0.00018988552724159258
Xe	-6.743229237253954e-05	-0.00010790871030809295	0.0027892804403963187	-0.007740214143778784	0.0043666413661275294	0.00010971946349579285
2
176200
Ar	-7.954562424776712e-05	0.00032992909919287133	0.003188462853481325	0.023420854383642477	0.0057055699471810105	0.00015096423351453018
Xe	-0.00012241335406763993	-4.202256652022678e-05	0.00278980319305035	-0.0027938618336233526	0.008244008882818118	5.4566676927104335e-06
2
176400
Ar	0.00015462428527023453	0.0003033566315708421	0.0031892141734987402	0.0214536785088185	-0.010833491640961203	2.3081498266047795e-06
Xe	-0.00011871976977295622	4.377832689192814e-05	0.0027893197347384855	0.003508971173145382	0.008214136854141636	-6.384940459631566e-05
2
176600
Ar	0.0003145277802066242	0.0001312820874849668	0.003188337799446269	0.009180017507881458	-0.02212832829416194	-0.0001609802306461079
Xe	-5.801356852745716e-05	0.00010897414114053243	0.002788683814311362	0.008125413800943572	0.004255617576644809	-5.8525132620417706e-05
2
176800
Ar	0.0003236229135524959	-0.00010352124182081186	0.003186669304062125	-0.007437445620706956	-0.022855195388766774	-0.00014402359411752909
Xe	3.040255048158772e-05	0.00012192503808495427	0.0027879858581965527	0.008819073985842415	-0.0017632168430868126	-8.60159295401863e-05
2
177000
Ar	0.00017774256914064693	-0.0002887447901242703	0.003185634370544903	-0.02052625762153762	-0.012629693744073604	-6.124134196848945e-05
Xe	0.00010396798781915621	7.641818118638074e-05	0.0027870796422020078	0.005304949467314991	-0.006970559491359201	-8.659473973274436e-05
2
177200
Ar	-5.3604592201365674e-05	-0.000335605438146979	0.003185167941876827	-0.02377780973193326	0.003680127995830631	-3.069345492775586e-05
Xe	0.00012780856675528098	-5.763815106326333e-06	0.0027864678653296508	-0.0007139711669296008	-0.008803527102378677	-1.615006474802915e-05
2
177400
Ar	-0.0002591508965821468	-0.00022128873902871243	0.0031853817456378997	-0.015589723473269597	0.018199554342579256	5.199315818868932e-05
Xe	9.058518460455956e-05	-8.519481567316783e-05	0.0027869139274211002	-0.006416742983621634	-0.006422028338959371	7.515784809631346e-05
2
177600
Ar	-0.0003403110694491913	-1.0095847050268185e-06	0.0031863216885681914	4.862464887688167e-05	0.024003070123059994	0.00014299891434553074
Xe	9.903451670045418e-06	-0.00012356700809294815	0.0027878309195623883	-0.009016704641129166	-0.0009320234561304595	8.57594535041769e-05
2
177800
Ar	-0.00025851870382123925	0.0002197175354732563	0.0031877979471961874	0.01564151224402195	0.018285637613799647	0.00014889451466285614
Xe	-7.548548717477849e-05	-0.00010245105011584313	0.0027885615576610954	-0.007344175465907149	0.004956630289507533	5.7607927302754913e-05
2
178000
Ar	-5.296997358009041e-05	0.0003350280708623548	0.003188890035532192	0.023733027274600478	0.003802754289563393	4.554298144273564e-05
Xe	-0.00012481014374112297	-3.2167807168671256e-05	0.002788962165075454	-0.0021025240544462493	0.008493102622981412	1.3725384020263205e-05
2
178200
Ar	0.0001779849500730043	0.0002896336215849825	0.0031885965291137924	0.020496317807316967	-0.012515657763044028	-9.778327666807207e-05
Xe	-0.00011414599709016008	5.372928457843253e-05	0.002788739090511265	0.004141980264367343	0.007962978380376594	-2.6016616887986778e-05
2
178400
Ar	0.00032348127486946885	0.00010541923207468185	0.0031871719999905057	0.0074018328960802245	-0.022789739542261076	-0.0001753366976933346
Xe	-4.858149512759903e-05	0.00011413517710655681	0.0027884307966650093	0.008396887845902683	0.003594702481311404	-4.58791980496268e-05
2
178600
Ar	0.0003140445080969417	-0.00012936840343683143	0.0031855696854913573	-0.0092098096341944	-0.022190111082716377	-0.00011106612265750112
Xe	3.9845750627821986e-05	0.000119770602008418	0.002787566766274632	0.008551116133030457	-0.002501926975492921	-0.0001238801551049761
2
178800
Ar	0.0001542730932566805	-0.00030232423433614595	0.0031850755123355302	-0.021412812863777	-0.01094071516799165	-2.785511532493789e-06
Xe	0.00010862837157642365	6.819359022273591e-05	0.002786610468335494	0.00462500656102359	-0.007391483797538178	-5.033690687229394e-05
2
179000
Ar	-7.922027372686622e-05	-0.0003305244464614969	0.0031857545781534685	-0.023330477325834202	0.005560065397673101	0.00012470729065379812
Xe	0.00012524847805636202	-1.619700147393771e-05	0.0027865449430748896	-0.0014318325698065401	-0.008757718866959197	3.5016770978270394e-05
2
179200
Ar	-0.00027451204633606484	-0.00020029174244278055	0.0031870252840865993	-0.014067823560126208	0.019382624020483786	0.00010865813060519164
Xe	8.191667195894985e-05	-9.288101169035412e-05	0.00278719127605075	-0.006860797707486618	-0.005947319477054781	8.376841149458186e-05
2
179400
Ar	-0.0003377383418861059	2.555616461945414e-05	0.003188305310523952	0.0019306023181954223	0.023910605788714425	0.00011957802274061412
Xe	-9.19063938105242e-07	-0.00012533349132311697	0.0027880431253335006	-0.008994464902153223	-0.0002590594508015757	6.311132834735722e-05
2
179600
Ar	-0.00023900315827548254	0.00023919420219561504	0.003189099425374293	0.01698478935523296	0.017007297987193172	7.658854183677173e-06
Xe	-8.320501928014757e-05	-9.77186258592826e-05	0.002788420658829464	-0.006752006104391376	0.00552958784992558	1.7689088470954012e-05
2
179800
Ar	-2.5810017865193027e-05	0.00033827449725901517	0.0031885177702138017	0.02385918544759148	0.0019609294816390747	-9.671393041494731e-05
Xe	-0.00012496057239294917	-2.319192642383547e-05	0.0027883987442542104	-0.0012811700607599597	0.00874323396611149	-2.405138238635931e-05
2
180000
Ar	0.0001994827693399638	0.0002752635716675169	0.0031870445730488605	0.01930032386845693	-0.01403774474700098	-0.00019082911256914964
Xe	-0.00010677605441257027	6.257758246189052e-05	0.002787856934906628	0.0047633748791918095	0.007694686986029164	-6.803050345348113e-05
2
180200
Ar	0.0003291063490364249	8.039473517784975e-05	0.003185500455114805	0.005536041157539798	-0.02330213084561423	-9.916687761147563e-05
Xe	-3.731462764435507e-05	0.00011844695602965591	0.002787299206175007	0.008523479566696933	0.003000686387803408	-5.754253059960399e-05
2
180400
Ar	0.00030124880605271226	-0.00015312226607587393	0.0031852879821835825	-0.0108687655575198	-0.02144571243302617	5.402541150481903e-05
Xe	4.962399505827192e-05	0.00011741177461545234	0.0027866878447377233	0.00814248292828828	-0.0031822001973693054	-6.346797725727816e-05
2
180600
Ar	0.00012970256903966143	-0.0003135865164217132	0.0031863918976087692	-0.022030922228311007	-0.009279541035819105	0.0001486664889676864
Xe	0.00011281677367788476	6.001273091804739e-05	0.0027861259704545778	0.003947977232118897	-0.007804758877761037	-2.6419732118217523e-05
2
180800
Ar	-0.00010379102478382058	-0.0003236033866089452	0.003187770468197671	-0.022706140283052755	0.007365863302521239	0.00010568046958644544
Xe	0.00012209261330068408	-2.638548738497424e-05	0.002786476262307902	-0.0021705951387032746	-0.008754001479101282	9.407547982285946e-05
2
181000
Ar	-0.0002873597936913345	-0.00017846382220035748	0.0031883653647577287	-0.012466593379931923	0.020428319675318343	2.7493214946475182e-05
Xe	7.289188165486068e-05	-0.00010088208772569826	0.0027874862019130384	-0.007257197457766918	-0.005509798864066885	9.98769762416574e-05
2
181200
Ar	-0.00033301239195942514	5.2052890441979404e-05	0.0031882503324903604	0.0037100896079884107	0.02375784194102534	-4.6659912609376674e-05
Xe	-1.1140706031767411e-05	-0.00012727710073639042	0.0027881682175495293	-0.008838325296227549	0.00045455759355776687	3.8731990881061914e-05
2
181400
Ar	-0.0002188820907012677	0.0002581144067583259	0.003187824660238368	0.018159622067468222	0.015720457234657273	-5.13000966931923e-05
Xe	-8.987724545237358e-05	-9.242598416173499e-05	0.0027884195893498353	-0.006230710728302499	0.006226505927725778	1.2621221404826842e-05
2
181600
Ar	6.80385862245662e-07	0.00034067547333593525	0.0031870939685793203	0.023898015017181178	0.00010832845902431091	-7.529412922368133e-05
Xe	-0.00012540093922567966	-1.3121231215478077e-05	0.0027885330652916854	-0.0005891424623376965	0.00897678723880756	1.7948213660550012e-05
2
181800
Ar	0.00022016809191474938	0.00026004198553892496	0.0031865056144208216	0.018159048783205827	-0.015546690197610713	-3.069798763327115e-05
Xe	-0.00010059538585528954	7.256731104093553e-05	0.002788735217461355	0.005341537436520174	0.007439289192109997	3.0642359100125547e-05
2
182000
Ar	0.0003343174979448867	5.503314938131394e-05	0.0031865725803787307	0.003713289835767509	-0.023765173686324487	4.552116326427203e-05
Xe	-2.7604071525850698e-05	0.00012350448656469457	0.0027886669170732975	0.008629164628527803	0.0023091377858043545	-3.652013984084029e-05
2
182200
Ar	0.00028828309013382165	-0.00017643790373018944	0.0031873439990275135	-0.012559725335580784	-0.020581334218319012	9.016600591960605e-05
Xe	5.790904405551719e-05	0.00011528010773685312	0.0027879667460650446	0.007772175359933452	-0.0039062323882861163	-7.498936683041558e-05
2
182400
Ar	0.0001037073495694038	-0.000323601734800576	0.00318789862777187	-0.022786051532885463	-0.007578392300721259	2.660711976341521e-06
Xe	0.00011551107040236131	5.1761429859611144e-05	0.0027871823581688267	0.0032679380958951557	-0.008279987707954302	-6.855186516909452e-05
2
182600
Ar	-0.0001301399502001985	-0.00031551914423065183	0.003187103917025466	-0.022029331275679305	0.009093930790524224	-0.00012637313104053743
Xe	0.00011798791056431413	-3.646237786105277e-05	0.002786944615452622	-0.0027785846542491294	-0.008641099947023905	9.91220526404865e-06
2
182800
Ar	-0.00030122992830351443	-0.00015633494389910297	0.0031860220311767527	-0.010765461875064292	0.02139436161440312	-7.62958923752982e-05
Xe	6.41631766826927e-05	-0.00010719684584007778	0.0027871935175661387	-0.0075239859896482275	-0.004894641973571772	2.106521590661226e-05
2
183000
Ar	-0.0003281933971557794	7.774387916224785e-05	0.0031860365517918706	0.005609246003928043	0.02347689120505608	9.026542143112278e-05
Xe	-2.0105276340932326e-05	-0.0001264842608331649	0.0027873314530744734	-0.008634414229656058	0.0012152782114030402	-6.122694478277841e-06
2
183200
Ar	-0.00019798390751468505	0.000274801124763313	0.003187429518602515	0.01933995231548807	0.014273080888063177	0.00015254779628791267
Xe	-9.4738017324949e-05	-8.50907471603561e-05	0.0027872114646988046	-0.005677692997817036	0.0067055898579435015	-1.0948367827387144e-05
2
183400
Ar	2.6924222165381176e-05	0.00033994253420068486	0.003188696135573114	0.023752238947260137	-0.0017851272715661444	4.7645989622818014e-05
Xe	-0.00012414328919293642	-2.6937510191926177e-06	0.0027871479151484737	3.5781702446396286e-05	0.00906952725560531	8.314452070536913e-07
2
183600
Ar	0.0002384723087699165	0.00024181600855428196	0.0031884701521067613	0.01677705390966091	-0.01699370502777305	-6.983116658414947e-05
Xe	-9.403091843294963e-05	8.15019243118976e-05	0.0027872937016962876	0.005737638703188871	0.007059502720319009	2.187760715878938e-06
2
183800
Ar	0.00033536558391573365	2.7592724374008672e-05	0.0031877515924527327	0.001796190581535381	-0.02402827776754378	-6.990607539887401e-05
Xe	-1.8838084298526525e-05	0.00012661798985200249	0.002787036973042876	0.008672091488025738	0.0015699560872486137	-5.015680859787743e-05
2
184000
Ar	0.0002714478000258514	-0.00019991328177922454	0.003187150370388382	-0.014036403157705414	-0.019549996663810236	-4.88896681372161e-05
Xe	6.550298608050575e-05	0.00011033853030499191	0.0027865429564272494	0.007448989891859691	-0.00465228381978616	-4.231440170031544e-05
2
184200
Ar	7.724074590419091e-05	-0.00033158824295939334	0.003186709571477265	-0.02316546726047888	-0.00567710947916056	-4.497075852691032e-05
Xe	0.00011818228578176982	4.087311487787741e-05	0.002786728313729497	0.0026319883743712545	-0.008650172203271227	6.0128274892829614e-05
2
184400
Ar	-0.00015419337867582036	-0.0003044342280652273	0.0031864906115369905	-0.021157548170544275	0.01087224658015074	-4.766235820660994e-07
Xe	0.00011410195341651591	-4.8410906954394804e-05	0.0027874938997986785	-0.0033998921686633657	-0.008466549422371721	7.558042997660028e-05
2
184600
Ar	-0.0003117758769920523	-0.0001315731561557319	0.0031869166880900772	-0.009051588698297778	0.0222505223706055	8.117693263404548e-05
Xe	5.5677979831668454e-05	-0.00011451883573230175	0.002788049419993334	-0.007818094020396649	-0.004194362393877066	1.6099577076823304e-05
2
184800
Ar	-0.00032043190335618904	0.000104691164905041	0.0031877103755956512	0.00741776007487874	0.023005352410752928	7.55096974644854e-05
Xe	-2.939604377498693e-05	-0.00012551663284209264	0.0027876762783521063	-0.00847497033017518	0.0020649484575211165	-7.113121833973818e-05
2
185000
Ar	-0.00017547653828328983	0.0002907868055032319	0.003188075701022781	0.020358494837296952	0.012643063458467376	-7.622029643064405e-06
Xe	-0.00010030544052272052	-7.648237450041004e-05	0.0027871079966808134	-0.005109837682929412	0.007325770954371075	-4.9164823516719036e-05
2
185200
Ar	5.350877486800381e-05	0.0003370527687833836	0.0031873055418585043	0.02350934314602138	-0.003767460238297759	-0.00013088237761486985
Xe	-0.00012341517781878577	9.162332036052063e-06	0.0027870399411227312	0.0007022963806130105	0.009096097636277816	2.0389533714089685e-05
2
185400
Ar	0.00025669478180705325	0.00022197718456019527	0.003186241432315001	0.015430298258528378	-0.01830760623790589	-7.951636102828332e-05
Xe	-8.748983573789267e-05	9.050887779219335e-05	0.0027874520977923755	0.006206977867287498	0.006477881558517067	4.51757210652542e-05
2
185600
Ar	0.0003369521864855824	3.889917842784905e-07	0.003185822639700911	-4.30593609128817e-05	-0.024144050531023982	3.205500953013786e-05
Xe	-9.695221935818198e-06	0.00012836219170925	0.002787810878724749	0.0087137597229914	0.0007859404323977234	1.9523037793173138e-05
2
185800
Ar	0.0002559770349659352	-0.00022160931827140806	0.0031863824246849085	-0.015470511227373822	-0.01838356972461519	5.859474631261706e-05
Xe	7.248820405950523e-05	0.00010484915269050024	0.0027878935326478807	0.007052261508894344	-0.005291856995800093	3.915537348665461e-07
2
186000
Ar	5.2545827760704645e-05	-0.0003372079496314723	0.0031868810633269213	-0.023528240446813745	-0.003771494546459319	4.914303873924006e-05
Xe	0.00012013885906406299	3.114948470574141e-05	0.002787949215609944	0.00206052608825023	-0.008844712075654392	8.65807803395996e-06
2
186200
Ar	-0.00017631331015779953	-0.0002910621881443045	0.0031873012490849215	-0.02028994853300846	0.012598464141327986	6.1866913646359e-05
Xe	0.00011038669998518453	-5.760146416892753e-05	0.0027880489105516605	-0.003912035520818448	-0.008157236598576038	-1.5724691339539134e-05
2
186400
Ar	-0.0003203438959387649	-0.00010594679606024071	0.003188069091954204	-0.007318602467588527	0.02290152558363923	6.233479675163303e-05
Xe	4.798843124237177e-05	-0.00011886943451063996	0.002787669063239215	-0.008041330808653492	-0.0035617102290211567	-5.7758282496242034e-05
2
186600
Ar	-0.00031093563863372406	0.00012995746512535153	0.003188251924917692	0.009138548628368937	0.02229583898651603	-4.482173589612623e-05
Xe	-3.743440035539126e-05	-0.00012282212315777315	0.0027869484728499047	-0.00833133671284771	0.002778611918661627	-8.1933823817319e-05
2
186800
Ar	-0.0001523251645857291	0.0003035484797952777	0.0031873004877102295	0.021267160442737937	0.010965305045175578	-0.00012241532148004147
Xe	-0.00010522117267050131	-6.772557209461256e-05	0.0027867457696179807	-0.0046553845274020025	0.007771671945384197	2.5101661987119516e-05
2
187000
Ar	7.943565006282607e-05	0.0003313201387386431	0.0031860689190827455	0.023158786935823496	-0.005643395729404633	-0.00010961309004455365
Xe	-0.0001229031570208377	1.9981827330184644e-05	0.002787258357020977	0.0012733026323669555	0.009019345469121873	9.051863800569339e-05
2
187200
Ar	0.00027329461742788344	0.00019998757230004012	0.0031855813122756683	0.014000597463375834	-0.019531500094849556	1.55753125191739e-05
Xe	-8.18304507447252e-05	9.807840158759435e-05	0.0027878547811190364	0.006588003030135027	0.00594756650403258	2.9471050541639233e-05
2
187400
Ar	0.0003366951213640273	-2.7415311390246736e-05	0.003185934345660931	-0.0018524703265035468	-0.024052628355794102	6.423981240610104e-05
Xe	-1.7272511414335467e-06	0.00012921675329204607	0.0027877213464630843	0.00876922498754377	2.939110536292535e-06	-3.445979571355519e-05
2
187600
Ar	0.00023891854742543608	-0.0002419932183196306	0.003186728208820149	-0.016879657566824063	-0.017043196322311445	5.637811463244677e-05
Xe	7.926458579856309e-05	9.84927603694593e-05	0.0027877568756390636	0.006743851709793929	-0.005879144987662079	4.870828444494246e-05
2
187800
Ar	2.6929319373551598e-05	-0.0003404939079962728	0.0031870960503417103	-0.023744544647701735	-0.0018209361451619421	4.091365380137418e-05
Xe	0.00012216970984476374	2.0779136260803133e-05	0.0027883154958405353	0.001477448331415329	-0.009009971105635933	4.6838662667174024e-05
2
188000
Ar	-0.00019755269646552724	-0.000275619662325658	0.003187484457113473	-0.019301031820495158	0.014256867378754664	4.1278271159796236e-05
Xe	0.00010656199639208634	-6.683813886948717e-05	0.002788441655785481	-0.004485873600836735	-0.007805206448413589	-2.828727160463945e-05
2
188200
Ar	-0.0003278330213954201	-7.856382416506318e-05	0.0031877730572709424	-0.005652851504763792	0.023498934259879735	2.95449480667316e-05
Xe	3.9947495949642915e-05	-0.0001228969729982816	0.002788035334249308	-0.0083209138671656	-0.00293983359863589	-5.626969570435548e-05
2
188400
Ar	-0.000301079603169925	0.0001563012154895164	0.0031876161900275257	0.01079312855944734	0.021483192733007837	-8.050542580019492e-05
Xe	-4.59637602399023e-05	-0.00012037379236672843	0.0027876341990793973	-0.008161807953211093	0.003424113075032588	-2.305147177600965e-05
2
188600
Ar	-0.0001296277771372616	0.00031606829537725924	0.0031865315251663755	0.02206403775385558	0.00913076483981338	-0.00012373723907121005
Xe	-0.00011017805956601124	-5.9842957197524924e-05	0.0027876481363654708	-0.004129387573858086	0.008154265419022744	2.4280850731658017e-05
2
188800
Ar	0.00010418596972837596	0.00032414315456676384	0.0031853430416433435	0.022760882842753	-0.007578918394491563	-8.447154195858594e-05
Xe	-0.00012181406481889092	2.9523145395847677e-05	0.0027882276339508956	0.0019045665842237279	0.00893680156587146	7.231579280366647e-05
2
189000
Ar	0.0002886451025961193	0.0001769242439353173	0.0031854144310296986	0.012600116834722525	-0.020628433245678018	9.849478307516918e-05
Xe	-7.509249634841745e-05	0.00010431703814152635	0.0027883269187352895	0.007019717829972974	0.005377855615566565	-2.337087138094794e-05
2
189200
Ar	0.0003352881523006448	-5.534591886332733e-05	0.003186824479132001	-0.0036766235128236477	-0.023843893761952055	0.00012114674059545055
Xe	7.224498267101764e-06	0.0001288195756240866	0.002788032452407307	0.008766262509444374	-0.0006938422821571417	-2.7205302449011346e-05
2
189400
Ar	0.00022102551503925462	-0.00026104174777057506	0.003188011198444158	-0.018234380923028724	-0.015543402999803746	8.238734525204925e-05
Xe	8.599098990161758e-05	9.157971600162438e-05	0.002787850640235826	0.006352011452063853	-0.006443576815705103	1.0865049378367362e-05
2
189600
Ar	6.944182661462522e-07	-0.00034105293243944803	0.003188116094044883	-0.023994064541670454	0.00016740329797209952	-4.1108458407973697e-05
Xe	0.00012377032957204006	1.0398108800634009e-05	0.0027881179281463563	0.0008917970373503947	-0.009099793416388268	3.143473616882628e-05
2
189800
Ar	-0.00021973365806621326	-0.0002577449956049228	0.0031874795812375767	-0.018268804556270148	0.01581112815628083	-7.310379100684055e-05
Xe	0.0001022068874053514	-7.550564371093308e-05	0.0027882638557698786	-0.005020815040835157	-0.007373121363381207	-5.638597663095486e-06
2
190000
Ar	-0.00033526053235605137	-5.087319113470708e-05	0.0031868796939841675	-0.0038392966756296363	0.023822575392189783	-6.708373023613962e-05
Xe	3.127445949591999e-05	-0.00012508322465444173	0.002788180974667753	-0.008561384974036456	-0.0021212855631963824	-1.7499219709898685e-05
2
190200
Ar	-0.00029011643511672416	0.0001799937535623472	0.0031861882135004994	0.012506110323259115	0.020412228867036825	-7.31401013685192e-05
Xe	-5.5015052161641686e-05	-0.00011442694949179455	0.0027881267689570262	-0.007957773904051698	0.0041682732939522325	8.183165494091536e-06
2
190400
Ar	-0.00010545224949592132	0.0003243599850748896	0.003185588676442805	0.02284406935391322	0.0072632407646943155	-3.2168101436922516e-05
Xe	-0.00011485371337311151	-4.883592224340652e-05	0.00278843020489082	-0.0034940523221807704	0.008412436423865362	5.534285537959187e-05
2
190600
Ar	0.00012972288457328417	0.00031349841547905947	0.003186103729947412	0.02223906870564097	-0.009333030211414513	0.00012182618876436626
Xe	-0.00011941804388544676	4.001192868047247e-05	0.0027886432184806753	0.002628407212259568	0.008606361355045727	-2.6515161854395656e-05
2
190800
Ar	0.00030294487419411204	0.00015251064519305048	0.0031875452785629045	0.010953697259623685	-0.02151449032289717	0.0001532949008569986
Xe	-6.662066214608894e-05	0.00010929317518986817	0.0027878855964047745	0.007465222161127612	0.004678562311931785	-9.873185510404953e-05
2
191000
Ar	0.00033082355645089204	-8.172492678874704e-05	0.003188601687387577	-0.005620134281204415	-0.02333959617747929	4.311607341076398e-05
Xe	1.7683813981981278e-05	0.000126136150717938	0.0027870307204129257	0.008709662928331295	-0.0014403431858386118	-4.7451433117325245e-05
2
191200
Ar	0.00019978585557377766	-0.0002764809013138787	0.0031884457012557274	-0.01948833705954959	-0.013977172473820718	-8.776590667859375e-05
Xe	9.360484230029198e-05	8.262463257776754e-05	0.002786988166801809	0.005841168731218979	-0.006901497895567209	3.327638604350585e-05
2
191400
Ar	-2.7013027934562568e-05	-0.0003386520322603646	0.0031871515695280515	-0.023961260450422805	0.0020755052699257637	-0.00013733299874881859
Xe	0.0001247068127896816	-7.510195239665809e-07	0.0027876590820248557	0.00012777156275320842	-0.009063509459639392	0.00010492112318516856
2
191600
Ar	-0.0002407430878042829	-0.00023841276699140108	0.0031861720894915957	-0.017006677694466087	0.017144037869043047	-2.971466081905607e-05
Xe	9.601606662907877e-05	-8.377776024039987e-05	0.0027883993830490777	-0.005615532199585208	-0.0068322370472878495	1.8449845700032155e-05
2
191800
Ar	-0.00033942366135617137	-2.4077315512636014e-05	0.0031861090820755043	-0.0018786100599680934	0.02395200602238617	-6.433777239086752e-06
Xe	2.1395723057691436e-05	-0.0001265852604890758	0.002788280565743317	-0.008674304348834132	-0.0013945845465501458	-3.673785216940028e-05
2
192000
Ar	-0.0002752486923501898	0.00020154542745746444	0.0031864039632134877	0.014143158220844275	0.019284376855586892	4.465654117089964e-05
Xe	-6.347059127403016e-05	-0.00010881937886211036	0.0027879903915057425	-0.007580849495304933	0.004809129340509065	-1.3724418956861314e-05
2
192200
Ar	-7.94798375436525e-05	0.00033018945563358316	0.0031871062832888393	0.023349762304381363	0.005381204809211501	0.00010213187790165506
Xe	-0.00011801524531707514	-3.864078490963896e-05	0.002787916176280987	-0.0028392643234966563	0.008638418286304113	1.6502061433680536e-05
2
192400
Ar	0.00015394324696063388	0.00030064818387645013	0.0031879940262110936	0.02139765646403015	-0.011043860414479034	7.559224907156124e-05
Xe	-0.00011569567343385504	4.996884424630677e-05	0.002787776304365707	0.003271890164430623	0.008323438485456018	-4.139124999849322e-05
2
192600
Ar	0.000313807911378907	0.00012740116369448182	0.0031887072000385858	0.00922933720119474	-0.02218374914475801	1.8131405005634166e-05
Xe	-5.78559900504559e-05	0.00011442025935781384	0.0027870894688703392	0.007820575798860781	0.004055524850976185	-5.821952284430443e-05
2
192800
Ar	0.00032298665647844993	-0.00010712197486622019	0.0031882912507511076	-0.0074720038067923765	-0.02272826813134398	-0.00012067563348274633
Xe	2.8124221349696443e-05	0.0001240827672229662	0.002786803891158127	0.008652789905893243	-0.0022158847567382315	1.3307858443808058e-05
2
193000
Ar	0.00017684907053547994	-0.00029007325691255683	0.003186937865525697	-0.02051544257844462	-0.01233289338730893	-0.00013445719463076722
Xe	0.00010109788503551961	7.362949423305416e-05	0.002787068839676092	0.005309511668202617	-0.00744385521710935	5.5766296548475704e-05
2
193200
Ar	-5.3956222393093216e-05	-0.0003340953244574834	0.003185749097164421	-0.02373057378364249	0.00390222185677324	-8.46341785516243e-05
Xe	0.00012563663204062084	-1.2508604678852092e-05	0.002787437501932965	-0.0005955137195671498	-0.009030649351156245	3.4328627942023155e-05
2
193400
Ar	-0.00025925811040198893	-0.0002183845371156027	0.003185294930325008	-0.015613558927512544	0.018286098833662966	2.469515923370968e-05
Xe	8.98422851768821e-05	-9.241482513787023e-05	0.002787417810542193	-0.006256670680228068	-0.006295869218956214	-3.3627085825447994e-05
2
193600
Ar	-0.00034068689968127147	2.1295951905193473e-06	0.0031859056338011636	1.7089047743956722e-05	0.023969078517833378	0.00010573446015219524
Xe	1.075545818090824e-05	-0.00012816819118837742	0.0027871435823120898	-0.008898128340217174	-0.0005253831687038538	-2.1146527592796743e-06
2
193800
Ar	-0.0002584889737492146	0.00022209074551580966	0.003187096146290469	0.015711396788233183	0.018167616493952887	0.00012112215287486764
Xe	-7.35562648092824e-05	-0.00010213608895803111	0.002787588875404281	-0.0072527861644368875	0.005510391293482166	8.93718884404816e-05
2
194000
Ar	-5.21172687107852e-05	0.0003358202190545258	0.0031880750002017365	0.023827783094438337	0.0036358880101108153	8.50660141881105e-05
Xe	-0.00012266527553152624	-2.700172594463023e-05	0.002788675191731406	-0.0021522099800569986	0.008846638391947674	0.00011043301427144899
2
194200
Ar	0.0001791613502803667	0.0002887216982484746	0.0031884671206390334	0.02051077194755719	-0.012690334321133727	1.3050225190592582e-05
Xe	-0.00011306438731483599	6.0731183595288256e-05	0.0027893073559630936	0.0039984975659187825	0.007959082791113022	3.064901011048603e-05
2
194400
Ar	0.00032500071437860866	0.00010298599897982096	0.00318824825344077	0.007397644865014226	-0.022912181114477875	-6.874036749158876e-05
Xe	-4.905532446696721e-05	0.00011951597724357847	0.00278922208642564	0.008262032126992227	0.003274631367773414	-4.3463231844829156e-05
2
194600
Ar	0.00031497431789610596	-0.0001322834440591566	0.003187192329057365	-0.009311246621700797	-0.02214280770719937	-0.0001475598629899908
Xe	3.8401893664285226e-05	0.00012103411558920038	0.002788485754891553	0.008490600273092163	-0.002998141210533381	-9.880517524914298e-05
2
194800
Ar	0.00015404041849263346	-0.0003039030542143034	0.003185605723482337	-0.021511556839930567	-0.010759870905457885	-0.0001228910636641346
Xe	0.00010735333440824643	6.430036210815838e-05	0.0027876409183120146	0.004699455052350079	-0.007869427571814039	-7.284447400436288e-05
2
195000
Ar	-8.027687071351408e-05	-0.00033021699289459346	0.0031850130473575025	-0.023389093802250127	0.005717129736793434	2.8321207694788023e-05
Xe	0.00012490342879343912	-2.3373412762937383e-05	0.0027871412632354572	-0.001317541301733045	-0.008924028312792346	-3.61738720149738e-05
2
195200
Ar	-0.0002760325510619695	-0.00019856115048922827	0.003185746268478376	-0.014110751408272023	0.01953401544863126	0.000135258689839524
Xe	8.310339512663065e-05	-9.974477767236924e-05	0.00278678206609091	-0.006701465045498674	-0.0057017961051217805	-4.450307952191791e-05
2
195400
Ar	-0.00033945860202395044	2.8442331675340204e-05	0.0031871571138235746	0.001957645813343747	0.02397894840693537	0.00013894273332621003
Xe	1.6620976640837389e-06	-0.00012815464007928835	0.0027866890588884754	-0.00892038731023754	0.00023877152328505858	4.734516386637695e-05
2
195600
Ar	-0.00023985956106048573	0.00024181546633361939	0.003188321298560343	0.017107906483908374	0.016906095642140073	6.331730836749417e-05
Xe	-8.082534287773167e-05	-9.523318469488954e-05	0.002787211949459513	-0.006872868733024709	0.0060637787495252905	3.765158909791587e-05
2
195800
Ar	-2.539628653724753e-05	0.0003392103610753828	0.003188653068936734	0.023980677738659032	0.0017529243044196148	-1.7543323529605736e-05
Xe	-0.00012440752407314669	-1.672758069061293e-05	0.0027876053297837466	-0.001479647119428716	0.008960973677357278	9.007605763061843e-06
2
196000
Ar	0.00020109162898297497	0.0002740321769705815	0.0031880845151162924	0.019404109917997157	-0.014232315284564851	-0.00010234886573674075
Xe	-0.00010791922713712022	6.964965292230856e-05	0.002787628345767891	0.004618050171851667	0.0075895381815450766	-1.6575689332005166e-05
2
196200
Ar	0.00033088924411278517	7.757662737646689e-05	0.0031867460560492797	0.00546203972978403	-0.02339728551494221	-0.00014325448658039237
Xe	-3.9491374593618194e-05	0.00012271045376239858	0.0027876123762660375	0.008476130539971413	0.002578616227705076	2.0996338170398558e-05
2
196400
Ar	0.00030183398615304133	-0.0001559569039337092	0.003185268194763654	-0.01101841444878977	-0.02135126091879502	-0.00010875437872672147
Xe	4.7934149208437684e-05	0.00011703448895483172	0.002787913677770017	0.008280126723244179	-0.0036789029676016615	3.574418852488493e-05
2
196600
Ar	0.00012843820484695958	-0.00031475043560290036	0.003184882843931189	-0.022217012152728	-0.009068404271253083	2.1746622098401294e-05
Xe	0.00011243889195244739	5.537553179497021e-05	0.0027879917602570514	0.004070605999871639	-0.008164453363993452	1.3393145699027324e-06
2
196800
Ar	-0.00010679902200490889	-0.00032280211231027313	0.0031859194209449713	-0.022849976892978786	0.007505881991627137	0.0001439043198885873
Xe	0.00012292920836603499	-3.288053586451659e-05	0.0027878548362264403	-0.0020478595598610776	-0.008757085855348923	-3.0293400783570454e-05
2
197000
Ar	-0.00029143064821293284	-0.00017637079051128257	0.003187504999261537	-0.012505054747845756	0.020543957865629504	0.0001508641682404084
Xe	7.485903084374311e-05	-0.0001053306285787257	0.0027877409303990177	-0.007153532584765576	-0.0051411149472418375	1.1185080940815291e-05
2
197200
Ar	-0.00033639720059691196	5.4812779146936575e-05	0.0031887953218012535	0.003914958451831735	0.023753583985867136	8.575383608095529e-05
Xe	-8.969079633086746e-06	-0.00012703943753929973	0.0027877931394234266	-0.008924681507578016	0.0009788616712983924	2.2586511157736208e-05
2
197400
Ar	-0.00021973632973785404	0.00025989377892616486	0.0031890986045672374	0.01841472053793644	0.015549155524367182	-3.3639844867905414e-05
Xe	-8.887290224067712e-05	-8.766649291730732e-05	0.0027881155823178175	-0.0063902198029805795	0.006561752775539786	2.4768401634183902e-05
2
197600
Ar	2.2341938683503336e-06	0.00034028945339709474	0.003188287422244968	0.02410651261869287	-0.00014327882766960174	-0.00010622873789348817
Xe	-0.00012660435763548912	-6.327592793139818e-06	0.0027882599398086384	-0.0008152294742962736	0.009039202946889377	-1.2885673730867685e-05
2
197800
Ar	0.00022324631786763263	0.0002572658935939052	0.0031870884263633537	0.01824609128441412	-0.015779575802857434	-0.00011981264269424975
Xe	-0.00010406612692865047	7.824055574942908e-05	0.0027879020697330497	0.00514623189695501	0.007138058327930973	-7.132860935532476e-05
2
198000
Ar	0.0003373250926291413	5.075497857781817e-05	0.0031858621326017332	0.003629048664976251	-0.023802039849289545	-0.00011689631628889064
Xe	-3.192450825178199e-05	0.00012527974454787895	0.002787556647569482	0.008695214615669621	0.0018754264189046266	-1.0729971008401866e-06
2
198200
Ar	0.0002897346991846013	-0.00018019193553861596	0.0031850254709352706	-0.01272152244807731	-0.020421891717207815	-3.77069814682508e-05
Xe	5.56252004455487e-05	0.0001126633557947968	0.0027877609716935544	0.00808391768702781	-0.004310862095626672	2.4273060797777968e-05
2
198400
Ar	0.00010364550853216885	-0.00032468317752296414	0.0031853834784082925	-0.022938205723777003	-0.007286832173683923	9.591441933264177e-05
Xe	0.00011638158118605242	4.5998564376259664e-05	0.002788025844975972	0.0035759468251171296	-0.008452919449461102	2.1533632980716533e-05
2
198600
Ar	-0.00013201032810104574	-0.00031396015438583366	0.003186696811440359	-0.022215757646152218	0.009343462801892967	0.00013598708116376973
Xe	0.00012148805960716458	-4.2726232180138e-05	0.0027880510362302507	-0.002597865050637643	-0.00853923513060979	-3.658930638318417e-06
2
198800
Ar	-0.00030459012881522415	-0.00015279983930500566	0.003188131051207733	-0.010840296648903982	0.021542996771354083	0.0001071183996587637
Xe	6.83577038249819e-05	-0.00011095837724418571	0.0027880517090448577	-0.0075958390992466275	-0.004557032885460963	-2.1351814038151864e-05
2
199000
Ar	-0.00033098388082308946	8.180183533922748e-05	0.0031885048537438564	0.005772941509796613	0.02339090707716077	-2.4158597250104724e-05
Xe	-1.79941162786428e-05	-0.00012615729182487278	0.0027878541636691505	-0.008938197139659682	0.001654687577242504	-2.541258291509343e-05
2
199200
Ar	-0.0001984698891952298	0.0002770584319023658	0.0031877305349493684	0.01959272332823599	0.014030634698323472	-0.00010801288198693537
Xe	-9.5860485677141e-05	-8.062959260612533e-05	0.0027876791387828944	-0.005986737776601383	0.007039449947194374	-1.1311269906957e-05
2
199400
Ar	2.9005616518860904e-05	0.00033946569305155083	0.0031865522306009815	0.024004367746416826	-0.0020719447357994054	-0.00013316595169043133
Xe	-0.00012775959131237008	3.3800171723130196e-06	0.0027874651838248974	-0.0001287110003663352	0.009047041611153125	-2.7573984723510566e-06
2
199600
Ar	0.00024276161999492037	0.00023888649053987264	0.0031856113691814307	0.016953562524453014	-0.0172021028088417	-5.938953352455349e-05
Xe	-9.827338014479108e-05	8.583989420539014e-05	0.0027875516266044607	0.00576885536165355	0.006745220472780302	1.6509334591623668e-05
2
199800
Ar	0.00034016551499726393	2.368103799928732e-05	0.003185089785569144	0.0017078616945947905	-0.024053735379717302	-1.9814040323517383e-05
Xe	-2.1744393697071682e-05	0.00012693337651887969	0.00278793773438302	0.008906540688232064	0.001144827586513939	6.498472241383055e-05
2
200000
Ar	0.00027446754180992454	-0.00020304189911637664	0.003185348465023285	-0.014291067244735455	-0.019381990107446286	6.941625089576972e-05
Xe	6.518075443687507e-05	0.00010720997938244627	0.002788672844465154	0.007766898431972716	-0.004930655496363055	5.3766472299967426e-05
2
200200
Ar	7.742644144715955e-05	-0.0003325816214414864	0.0031864805058484827	-0.023458313628878524	-0.005448249129554696	0.0001571549235851142
Xe	0.00012087086092300228	3.632382368422782e-05	0.0027888595567435465	0.0029008956058021334	-0.008650326841956964	-4.78078602924321e-06
2
200400
Ar	-0.0001566426782237339	-0.0003029429257513615	0.0031878986592667664	-0.021405424157539186	0.0111195661685333	0.00010043748902064814
Xe	0.00011825905143649079	-5.172325745711041e-05	0.002788551701550692	-0.003394682252352583	-0.008243649805036859	-7.854268733399845e-05
2
200600
Ar	-0.0003154510768946913	-0.00012800741386505198	0.0031883646324176477	-0.009033460416274959	0.022377183503594165	-2.2028952691782302e-05
Xe	5.8940672579931014e-05	-0.0001149601654529875	0.002787662200296433	-0.008003838545615097	-0.0038572369006103484	-8.584393776803865e-05
2
200800
Ar	-0.0003226020406389371	0.00010823423132838326	0.003187606435156512	0.007666074500482876	0.022867523120799517	-0.0001221149796060446
Xe	-2.8690033225103907e-05	-0.00012288981544866367	0.0027870507960811633	-0.008798169173743573	0.0023526893515999187	-1.3318730228399548e-05
2
201000
Ar	-0.00017480597821097058	0.0002924142499721258	0.003186351427614614	0.020627365388751446	0.012403277402461287	-0.00010805720995967951
Xe	-0.00010274084073616718	-7.187929261094317e-05	0.002787145427834072	-0.005400446553365478	0.0074425745848622025	2.0654817702542673e-05
2
201200
Ar	5.654237109924102e-05	0.0003363380623512741	0.003185995589575423	0.02370595296686043	-0.004006365322127613	3.247740382171524e-05
Xe	-0.0001277012086240214	1.3698509691725801e-05	0.0027872996701358336	0.0006193968280183702	0.008932892120069659	1.2918324458755623e-05
2
201400
Ar	0.00026077577396296976	0.00021878354936243917	0.003186609893341468	0.015402121667944772	-0.018511799527048543	6.783871639369252e-05
Xe	-9.157033141596942e-05	9.252622102294197e-05	0.0027875795164257924	0.006302600225470124	0.006199146447086117	4.552744298115971e-05
2
201600
Ar	0.0003395568516529643	-3.7982341632640903e-06	0.003186988893142338	-0.00030502381150325475	-0.024128321372199328	1.9806042989419065e-05
Xe	-1.1533905263536538e-05	0.00012733298372272515	0.0027881185576950685	0.009022628093060736	0.0004642558602028651	6.739697350815566e-05
2
201800
Ar	0.0002556355767887469	-0.00022456154382909644	0.003186912231510374	-0.015786269907776054	-0.018165914804222073	-2.2101691132485383e-05
Xe	7.372554195500186e-05	0.00010119763302361167	0.002788878525270176	0.00732893868123976	-0.005478973868973941	8.232793769667664e-05
2
202000
Ar	4.964632993919936e-05	-0.0003377625525692494	0.0031870429865688108	-0.02369747451172319	-0.003514187708776167	4.8732430955862366e-05
Xe	0.00012329306569758183	2.673459272778809e-05	0.002789133895062007	0.002190774650668227	-0.008789120882952223	-5.230550049051268e-05
2
202200
Ar	-0.00018017639644248107	-0.0002892201594778958	0.0031874337130943973	-0.02033739531595241	0.012821419996169032	1.957128212928357e-05
Xe	0.00011395318761123625	-6.029637084724815e-05	0.0027884687471801868	-0.004011909370107163	-0.007884360562953833	-8.056139292096446e-05
2
202400
Ar	-0.00032390806184598594	-0.0001021243731647407	0.003187547532011593	-0.007182602892510731	0.023035886942342272	-1.4777808762737273e-05
Xe	4.9586627089356126e-05	-0.00011827524700081255	0.002787414081624476	-0.008327890555351844	-0.0032205903503741726	-9.391808200733559e-05
2
202600
Ar	-0.00031225280801221536	0.00013391334495112595	0.0031873839502437142	0.00941149422897106	0.022189808752622258	-3.183246599175567e-05
Xe	-3.884024702742605e-05	-0.00011955076721124532	0.002786602046012853	-0.008606500780771659	0.002988418324754568	-6.44579083572138e-05
2
202800
Ar	-0.0001509011264477864	0.0003054324350333093	0.003186981854911819	0.021513549771367494	0.010667054628165236	-4.4207394463158574e-05
Xe	-0.00010835035470937688	-6.348437916121934e-05	0.002786278047369238	-0.004730489058739014	0.007763287239690887	5.634942662217953e-06
2
203000
Ar	8.286431910362079e-05	0.0003299709074642936	0.0031866469403896295	0.023307894028872372	-0.005950510272435748	-1.1023548036174566e-05
Xe	-0.0001258534223812436	2.2788429733263676e-05	0.0027866471347773292	0.0013634388993387786	0.00878258242511178	5.451824373395575e-05
2
203200
Ar	0.0002771798677733676	0.00019608396523156864	0.003186459926543634	0.013941579107776037	-0.01970898763828911	-2.5902984548766926e-05
Xe	-8.2985966267527e-05	9.79306875912296e-05	0.002787266809361625	0.0068397535064646355	0.00562863059409735	8.036468501252819e-05
2
203400
Ar	0.00033889682074910273	-3.214082997189117e-05	0.0031863550079381997	-0.0021237401276168956	-0.02397711945657944	5.673602407272575e-06
Xe	2.200233309624513e-08	0.00012631969166030952	0.0027879688406221193	0.009065929643256936	-0.0001867265415428085	5.5646941836814196e-05
2
203600
Ar	0.00023805233776141234	-0.0002446230491501979	0.0031866137778400836	-0.01721541974520411	-0.016740207593172948	3.27685669819078e-05
Xe	8.351261343733056e-05	9.43208759392536e-05	0.002788668693176686	0.006908342463812242	-0.005958496542609621	8.691504748980442e-05
2
203800
Ar	2.282779952458055e-05	-0.00033982719452326665	0.0031869682074522057	-0.024026759767565645	-0.001529088218318915	4.7656381399150746e-05
Xe	0.000126997856598806	1.6995980363889633e-05	0.0027891871564355783	0.0014346987724326477	-0.008844796196636572	7.684346786866738e-06
2
204000
Ar	-0.00020353008802715262	-0.0002724575980037278	0.0031872596213034913	-0.019348831805901478	0.01443285385236758	2.2055550893652454e-05
Xe	0.00010971926571697353	-6.807017014329118e-05	0.0027887824425218933	-0.0047757899589347405	-0.007473330948254559	-7.518577003373161e-05
2
204200
Ar	-0.00033251456940124686	-7.448168725315168e-05	0.003187471952141102	-0.005393817708461057	0.023495425646942337	-3.830917015334292e-06
Xe	3.959460604924864e-05	-0.00012041710499463145	0.0027879843123913006	-0.008682659592406236	-0.002571007099510679	-7.524029476148037e-05
2
204400
Ar	-0.0003022298654576319	0.00015921097424114182	0.0031871705305176524	0.011195216560589015	0.021283039364556007	-4.075689154733224e-05
Xe	-4.988851928901206e-05	-0.00011536985421387338	0.002787307536961203	-0.008483968765401521	0.0035571663561907952	-7.044855968636136e-05
2
204600
Ar	-0.00012661176807167215	0.00031661033246089057	0.0031868833292560722	0.022424855567079908	0.008876553503239855	-7.612429718595352e-06
Xe	-0.00011569566591309943	-5.472398487436906e-05	0.002786818172769233	-0.004125649983682607	0.008047043899777178	-2.056352707105873e-05
2
204800
Ar	0.00010984964368042942	0.0003221283006156966	0.0031870398915577873	0.022884168955741392	-0.00782178845816511	1.852198536058331e-05
Xe	-0.00012602735784656956	3.244628747482396e-05	0.0027868570945319667	0.0021333198217575082	0.008661899856563784	2.549766493225551e-05
2
205000
Ar	0.0002937890446462861	0.00017295395300170814	0.0031869638835404683	0.012321430856947417	-0.020766435203215815	-2.766761947503336e-05
Xe	-7.585346037211332e-05	0.00010423294765035321	0.0027872883100257323	0.007479607512977796	0.005100399402447374	7.64253703784016e-05
2
205200
Ar	0.00033653016757474773	-5.928208408662531e-05	0.0031867737999771964	-0.0041287527216056176	-0.02372907873379981	-4.372255239808504e-05
Xe	1.0964753618690961e-05	0.00012612039238767286	0.0027884704770624836	0.009152513465293782	-0.0009045713244544755	0.0001113432601433352
2
205400
Ar	0.0002181996787129836	-0.00026294733235019156	0.0031864205144193727	-0.018572351262213287	-0.015338997632234843	-7.069554015258619e-06
Xe	9.240968903536893e-05	8.747874377982312e-05	0.002789423983723896	0.006456342876470083	-0.006503172916396281	7.857769055994353e-05
2
205600
Ar	-4.5774403251319915e-06	-0.0003410974246238329	0.0031865608840767608	-0.024120482297390146	0.00039080438338606527	3.0148012854246804e-05
Xe	0.00012957571282391927	6.869476573432986e-06	0.002789418103778209	0.000643099174443919	-0.00892990159496327	-6.650427883982662e-05
2
205800
Ar	-0.00022507746820030544	-0.0002557485714625029	0.003186626473059198	-0.01812684978279186	0.01597273715544758	3.6847341032865645e-05
Xe	0.00010424802537134941	-7.671234636827435e-05	0.0027882924293351013	-0.005477439723302941	-0.007085406456738573	-0.00013487920013575616
2
206000
Ar	-0.0003378698652161437	-4.7557959317540945e-05	0.003186926364644209	-0.003438363099724714	0.023904461749512242	2.874429323621838e-05
Xe	2.8926194369279817e-05	-0.00012359122040794332	0.0027870773909022106	-0.00896479670710726	-0.0018819727412804762	-0.00010575724330170312
2
206200
Ar	-0.0002881182914388171	0.00018357860090239235	0.00318704874559148	0.012981758605666036	0.020359009468634913	-1.9103389865501956e-05
Xe	-6.058417442304427e-05	-0.00011137220805723454	0.0027861927556558693	-0.008162076179822914	0.004221781987803971	-7.90355916850749e-05
2
206400
Ar	-9.968559708854623e-05	0.0003264893817691548	0.0031867150744705314	0.02313317343936798	0.007025939468160876	-4.4026551824051346e-05
Xe	-0.00012122057204698032	-4.601190583485108e-05	0.0027858146840838887	-0.003426612255868575	0.008305009523254046	-5.240585857527649e-06
2
206600
Ar	0.00013684669536826106	0.00031264887601294367	0.0031864140025781246	0.022190296737725036	-0.009671575187968748	-5.4424367864636186e-05
Xe	-0.00012355888753083532	4.15962178831877e-05	0.0027865737090882743	0.0030074474512723644	0.008496378079891224	0.00013599195118514456
2
206800
Ar	0.000307842895814205	0.00014907798396609012	0.003185919276629789	0.010554776775569387	-0.0216841674316069	-3.358851697480722e-05
Xe	-6.597764517709985e-05	0.0001097937026554214	0.002788285610485276	0.008016859180895348	0.004579222574161061	0.00017148478878914735
2
207000
Ar	0.00033091929569783795	-8.610036530627097e-05	0.0031858765863153594	-0.006106274745371528	-0.023357854087298575	1.7412682855001275e-05
Xe	2.335454918712087e-05	0.00012566437018996662	0.0027898229051731478	0.009089349934180273	-0.001535865083971383	0.0001189378766671884
2
207200
Ar	0.0001955574661309024	-0.0002801129776517203	0.003186481868712992	-0.0198313613075025	-0.013808960323490547	7.128617411060923e-05
Xe	0.00010090546652755165	8.155521151432654e-05	0.0027902649664412957	0.005780285227226709	-0.0069406056558552745	-1.4015012062309348e-05
2
207400
Ar	-3.33484732248154e-05	-0.0003398438490683082	0.0031871740595145652	-0.02404534543111334	0.0023927659194736012	4.52117598095055e-05
Xe	0.0001300602318840083	-1.5647518172526545e-06	0.0027895705262459512	-0.00020368330403911316	-0.008991025776846354	-0.0001247703895007321
2
207600
Ar	-0.0002464755220303622	-0.00023634532184996072	0.003187056766661495	-0.016787641792699953	0.017468670651158837	-4.210372181813281e-05
Xe	9.687468809624671e-05	-8.36109705352648e-05	0.0027884037810695698	-0.006155470849879929	-0.006737892892495871	-0.00012933363248458584
2
207800
Ar	-0.00034152797482082275	-1.9209182345238903e-05	0.00318668010300219	-0.0014216342247709375	0.024111710756931286	-4.54955485418079e-05
Xe	1.6964751791690498e-05	-0.0001254924594453694	0.0027873396947185425	-0.009149059548733544	-0.0012873600987232238	-9.051869547947599e-05
2
208000
Ar	-0.00027232678753936264	0.0002069003533191459	0.003186247491314658	0.014671595061026287	0.019202607429253785	-3.283331244245651e-05
Xe	-7.096801135556486e-05	-0.0001071803468498302	0.0027865858931951566	-0.007727359545573315	0.004795312561211403	-2.4278334164604e-05
2
208200
Ar	-7.223232604398284e-05	0.00033348850971093037	0.003185754911030957	0.023683664942048013	0.005062802506071698	-4.2624196201897784e-05
Xe	-0.00012500865916233704	-3.7169111857722056e-05	0.0027868670374115536	-0.002617245202735096	0.00861571779170327	5.392851092023099e-05
2
208400
Ar	0.00016249429373410847	0.0002999476966374194	0.0031854744965267114	0.021294588112539706	-0.011466094877500011	-5.086816909461985e-06
Xe	-0.00011927034441176387	5.075815400419239e-05	0.002788111815332748	0.003705095415988582	0.008239929537708704	0.0001427251395686241
2
208600
Ar	0.0003193778122458224	0.0001227513142291322	0.0031857592760886197	0.008752913298921968	-0.02245696343175509	7.487643828542829e-05
Xe	-5.683651048510157e-05	0.00011423230045886889	0.0027894578227757806	0.008258615840793439	0.00393605406857564	0.00013834708498440578
2
208800
Ar	0.0003233479147795708	-0.00011296364113675126	0.0031868376361086294	-0.008022985472318805	-0.022683809014226588	0.00014762102206611135
Xe	3.2904747628825245e-05	0.00012303584453349223	0.002790228900029323	0.008908003604208067	-0.0022295687103455614	4.019752214006406e-05
2
209000
Ar	0.00017189322864356415	-0.00029440118835690496	0.0031878657486706648	-0.02098723698080066	-0.012077198920644256	6.893927489041958e-05
Xe	0.00010687274038716437	7.29948254659743e-05	0.0027898347577809644	0.005258265051992144	-0.007335112937183576	-0.00011010376555919472
2
209200
Ar	-6.233609925506185e-05	-0.0003348081423894201	0.003188191680332884	-0.02388647566715378	0.004334543381523568	-1.3018400122383268e-05
Xe	0.00012961422095076263	-1.1808871163233883e-05	0.0027884138611793258	-0.0009010112128691943	-0.008929169608300758	-0.00017464921929459222
2
209400
Ar	-0.00026667188139050654	-0.00021447802899584797	0.003187270982455753	-0.015270755056937866	0.01872153266257837	-0.00017438805720381722
Xe	9.026027324250158e-05	-9.116460984986594e-05	0.002786979737271999	-0.006634841575501835	-0.006267868860527167	-8.837603966483736e-05
2
209600
Ar	-0.00034258598654158097	8.680822976818197e-06	0.0031852748234315405	0.0006827059907469574	0.024034972798651563	-0.00019133127829506938
Xe	7.507442947469996e-06	-0.00012689398801211471	0.002786788335776838	-0.00921143806575343	-0.0005891346230380369	4.998303920514895e-05
2
209800
Ar	-0.0002540773456816608	0.00022756382824554739	0.003183984589609586	0.01627465997736305	0.01791632681896784	-4.171984951987087e-05
Xe	-7.893449407012837e-05	-0.00010193695371826489	0.002787450806998708	-0.0073527278422130795	0.0053570018904339455	9.107333090144477e-05
2
210000
Ar	-4.364804056624712e-05	0.0003378928292764727	0.003184515155365434	0.024055144460861815	0.0031753970169709237	0.00013451631510892718
Xe	-0.00012739841320188355	-2.8493567257181233e-05	0.002788382220183062	-0.0019371109459031133	0.008730804571591786	0.00010681016452369061
2
210200
Ar	0.0001880572217028251	0.0002861119961562428	0.0031862387981879785	0.020324464254511638	-0.01310661402257064	0.00020134722682594504
Xe	-0.00011470859116319247	5.840669768462451e-05	0.002789268340209319	0.004364171844433902	0.007907183881971076	8.027218938022894e-05
2
210400
Ar	0.000329564344382952	9.728933446303639e-05	0.0031877928017077996	0.00678239647899898	-0.02305606860337088	0.00010057388534708789
Xe	-4.716873278053448e-05	0.0001170831303137602	0.002790066670847459	0.008562225479865347	0.0033287219119418673	7.672283895116244e-05
2
210600
Ar	0.00031280399986685815	-0.0001377635477923012	0.0031882092318021578	-0.00997029322219811	-0.021972623273704688	-3.0421772137216333e-05
Xe	4.271530191295757e-05	0.00011976064680537032	0.0027904173412443513	0.008651927656878293	-0.002837658267690836	-2.8377243018634655e-05
2
210800
Ar	0.00014638158550800163	-0.00030662493018888894	0.003187628965673342	-0.021952578713315303	-0.010353138855941756	-7.626100850356891e-05
Xe	0.0001120820295099244	6.492581268712279e-05	0.0027895473103390724	0.004643989694957795	-0.0076635339969288304	-0.0001296110306814329
2
211000
Ar	-9.038105780062083e-05	-0.0003282176083973261	0.003186903559147845	-0.023393230828170093	0.006250154214688843	-9.399499640210108e-05
Xe	0.00012789012827214426	-2.1325152481809453e-05	0.002788195638563802	-0.0016315287557038365	-0.008843505339298122	-0.00014140865334958178
2
211200
Ar	-0.0002835161395708384	-0.00019202709146531462	0.0031858689908393386	-0.013578746681492808	0.01985058371473914	-0.00011483746430788225
Xe	8.233098926776369e-05	-9.754272436812541e-05	0.0027869146017019046	-0.007129029461942584	-0.005786512103219582	-0.00010188700799031321
2
211400
Ar	-0.00034031398308094984	3.62985398469076e-05	0.0031849713061587142	0.0026887812400508376	0.023891255892215153	-4.570666491972175e-05
Xe	-3.161762753978423e-06	-0.00012731401966277722	0.0027863280042085274	-0.009226074916823849	7.535892341592763e-05	-9.411972051893578e-06
2
211600
Ar	-0.00023391550216288542	0.0002471578116455599	0.003185117375519704	0.01767874731355469	0.016499720299999358	7.124836309362294e-05
Xe	-8.709192244522074e-05	-9.612598692077285e-05	0.0027867489816163337	-0.0068537741862215165	0.005874683111045007	8.007748512956899e-05
2
211800
Ar	-1.527950975236354e-05	0.0003398618176299499	0.003186268117345876	0.024206452880720833	0.001252900470770879	0.000157239710172809
Xe	-0.000129069329712086	-1.9335564298912577e-05	0.002787892521666526	-0.0012016798614250695	0.008880155212906103	0.00014672012615917138
2
212000
Ar	0.00021091700136089707	0.0002699848076995207	0.003187672463566204	0.01913499965835948	-0.014657500499243081	9.438181055816521e-05
Xe	-0.00010900088576521484	6.687397073387284e-05	0.0027893625589210905	0.0050428544713567395	0.007644726272614073	0.00015089215970564727
2
212200
Ar	0.0003359289771254354	7.056388886014262e-05	0.0031877887246830783	0.004838172616668316	-0.023543419341458285	-8.085113841575053e-05
Xe	-3.654533252168083e-05	0.0001211105996309478	0.0027905482926371293	0.008822930756764671	0.00274355575367371	8.731663494555424e-05
2
212400
Ar	0.00029968631510842385	-0.00016255005268989202	0.003186815995793377	-0.01176343747521752	-0.021133878987325206	-0.00011531321961769066
Xe	5.301851232069128e-05	0.00011721995575131712	0.0027910387293704907	0.008327881713829727	-0.003473578851315126	1.8298975469560714e-05
2
212600
Ar	0.0001196246139254399	-0.0003182572584045143	0.0031859465408061384	-0.02272837160789547	-0.008671326705889416	-5.628504906395161e-05
Xe	0.00011642686657378575	5.731320313760593e-05	0.002790262808064646	0.00382530373581662	-0.008002440442139156	-0.00015172823314523834
2
212800
Ar	-0.0001178914187712874	-0.0003216752598817374	0.0031854332363256124	-0.022791963456462585	0.008026487327674324	-4.7109022605405855e-05
Xe	0.00012376579116045642	-3.0086861354675217e-05	0.0027883698862045405	-0.002426653103545782	-0.008742535390350532	-0.00021746992942160522
2
213000
Ar	-0.00029901187367244007	-0.00017079683091018568	0.003185526456407817	-0.011887890531163438	0.020871067881536604	3.332484697672753e-05
Xe	7.177262501571874e-05	-0.00010320960188889302	0.0027864926507571264	-0.007541721517824372	-0.005263890156983463	-0.00016685301857645177
2
213200
Ar	-0.0003365015400122914	6.174985073181664e-05	0.0031858451231049534	0.004696298328283704	0.02369595794456197	3.2171644848134906e-05
Xe	-1.4564414221110952e-05	-0.00012677712038523288	0.002785472242837315	-0.009014521204116123	0.0007700946140518825	-4.334337226125277e-05
2
213400
Ar	-0.00021258601616924177	0.0002645856996065426	0.003186586790045268	0.01900838091415774	0.015151090227200324	0.000120610521717218
Xe	-9.3824003952427e-05	-8.933548458948308e-05	0.002785320868504741	-0.006156424112635776	0.006381687744208197	2.9277241180131524e-05
2
213600
Ar	1.2995130745386512e-05	0.0003399877813325208	0.003187399209921003	0.024209712619241562	-0.0006902125340796051	3.3510093506711044e-05
Xe	-0.00012829352533787265	-9.070007582268366e-06	0.002786023119991058	-0.00040275020909452637	0.008998094817393353	0.00013319046621969934
2
213800
Ar	0.00023231547636677765	0.0002517993694507702	0.0031872386594529495	0.017810888448903047	-0.01619667442538982	-7.015189312133814e-05
Xe	-0.00010116492467585656	7.588786997920308e-05	0.002787951925994309	0.005607571314345196	0.007270268373854842	0.00022476576694415985
2
214000
Ar	0.0003401597344206466	4.269761352305448e-05	0.0031861781868131435	0.002856969596195872	-0.023863286325794514	-0.00011052090068403104
Xe	-2.520327462312484e-05	0.00012457857306643716	0.002789893987322755	0.008919160588095353	0.0020642424537146214	0.00017530667580964383
2
214200
Ar	0.00028507773847661987	-0.0001870696659439474	0.0031855563661975644	-0.013420898983077323	-0.020171280241388322	-1.7923750541677586e-05
Xe	6.262265885116313e-05	0.00011368997512987123	0.0027909866733602223	0.007898835025096737	-0.004130048329986498	5.107685217308985e-06
2
214400
Ar	9.368299439003347e-05	-0.00032785460422921715	0.003185738450916984	-0.023262023744428862	-0.006775036555279633	4.661756106693728e-05
Xe	0.00012033888996757522	4.868259195704639e-05	0.0027903560618339953	0.0031657476819396077	-0.008319346776901885	-0.0001121838034745566
2
214600
Ar	-0.00014235343906202045	-0.00031158724920627844	0.003186176008299853	-0.021962212864677352	0.009915159714441533	3.434438815308799e-05
Xe	0.00012061006373112076	-3.9131293131059914e-05	0.0027888734103388105	-0.0031238630444091918	-0.008506220605507	-0.00015660846181764213
2
214800
Ar	-0.00030977641486422847	-0.0001457532800265336	0.003186431895682298	-0.01013646844721903	0.02184976857195073	2.9578050915365057e-05
Xe	6.291714922350639e-05	-0.00010810133031940048	0.0027876840058740633	-0.007935130618535824	-0.004717623195636809	-8.3727348844757e-05
2
215000
Ar	-0.00032857980220728385	8.990578418646525e-05	0.003186874923187196	0.006539140391139253	0.023309900943135845	6.34843625254488e-05
Xe	-2.5108151219052695e-05	-0.00012570252603743214	0.002786924503745393	-0.008938575410371994	0.0013306041288271815	-6.020119852459472e-05
2
215200
Ar	-0.00018980233768096154	0.0002820922369243554	0.0031874350363827707	0.020049874270939398	0.01352783153258153	2.9826044102768836e-05
Xe	-0.00010121654189123153	-8.324603176647458e-05	0.0027867701578938486	-0.005637636214798733	0.006817112135680391	3.8195586745540794e-05
2
215400
Ar	3.987461121068874e-05	0.0003386388063674718	0.003187295718278844	0.02394451081128597	-0.002713653305643656	-6.604274952563051e-05
Xe	-0.00012862428972418668	-2.9385563525007833e-07	0.0027876907392119094	0.0004016304970608839	0.009074290317303987	0.0001385526089296541
2
215600
Ar	0.00025012749967100623	0.00023228924125492923	0.0031866242410024575	0.016361209687128325	-0.01763940897905737	-7.53264625685494e-05
Xe	-9.414503979662982e-05	8.303032086813852e-05	0.002789126692080063	0.006167438929290013	0.006894149290875488	0.00014578125137211436
2
215800
Ar	0.00034053707218455664	1.4619130504847011e-05	0.003186247814039861	0.000965577846372427	-0.02408953946659548	-1.6694893625859054e-06
Xe	-1.5024846043025508e-05	0.0001262627350048749	0.0027900902725645103	0.008960858155882398	0.0014050501718123733	3.8792193287146065e-05
2
216000
Ar	0.000267875593327625	-0.00021027298396787157	0.0031863725933328835	-0.01487192014713449	-0.018986041511437436	2.316410421205887e-05
Xe	7.088788340318074e-05	0.00010890493087871358	0.0027899339705896218	0.007494729668535627	-0.004739459410537208	-6.919548855882946e-05
2
216200
Ar	6.694338653717973e-05	-0.0003344442955502926	0.0031861851468073916	-0.023637601563342433	-0.004792352823667639	-5.850207969269629e-05
Xe	0.0001227682227171443	3.935243823484005e-05	0.002789384363488652	0.0024401347781873475	-0.008592848283124163	-6.533628353477552e-05
2
216400
Ar	-0.00016623795449848368	-0.0002983049718941126	0.003185603258699075	-0.021053715713953928	0.011710491594169486	-5.4633116476420384e-05
Xe	0.00011576963259608669	-4.9120571322268646e-05	0.0027886408429343627	-0.003770467136662899	-0.008348025074580169	-6.321866432095269e-05
2
216600
Ar	-0.00031983264205293245	-0.00011935030624015329	0.0031852334129988794	-0.008360414172115523	0.022594245502606105	9.452441825867571e-06
Xe	5.329655738884454e-05	-0.00011389752660526391	0.0027879614629363085	-0.008182353810219128	-0.004076894397094718	-8.373979646632313e-05
2
216800
Ar	-0.00032032961476724373	0.00011675598968687174	0.0031859703002931985	0.008272304906835764	0.022659898574184715	0.00010729109176664451
Xe	-3.452498307514253e-05	-0.00012396618469928005	0.0027870084790886473	-0.008652561482905012	0.002132093934027186	-7.66380560044756e-05
2
217000
Ar	-0.00016772239646152884	0.00029696119492353217	0.003187206377017775	0.02097538595274877	0.011852053634007487	0.0001247406472259583
Xe	-0.00010567235961029395	-7.451118775845378e-05	0.0027866432936460924	-0.00499941857232489	0.007350148678168249	3.18209662762865e-05
2
217200
Ar	6.498162293719562e-05	0.00033455568658087527	0.0031879845884023625	0.023610259338829112	-0.004632180400216607	6.163602091493749e-06
Xe	-0.00012624922689109043	1.0970481353143878e-05	0.002787330728176071	0.0010642206066223037	0.009018283780488611	0.00010057078315487197
2
217400
Ar	0.00026630109599959053	0.00021186468192213888	0.0031875722865183946	0.014948388286949927	-0.018876307499563316	-6.136585970061233e-05
Xe	-8.631467944861178e-05	9.137484817202549e-05	0.0027885736344036858	0.006615979520662041	0.006385235090180549	0.00013275722771459274
2
217600
Ar	0.00033992152557232777	-1.2190760588923207e-05	0.0031870428552970022	-0.0008391859455367376	-0.024088161963546746	-1.1916051877770828e-05
Xe	-4.6953974230258985e-06	0.00012815866710701773	0.002789402441842717	0.008995965806624625	0.000673814384101647	6.634696623642286e-06
2
217800
Ar	0.0002506916132785332	-0.00023060504128261032	0.0031868326112414825	-0.01625536047545253	-0.017746073544806576	-4.138849562162975e-05
Xe	7.884683092760948e-05	0.00010366445993017479	0.0027891743925989366	0.007037339439376325	-0.005351647600434701	-3.433666036227297e-05
2
218000
Ar	4.1397526179949116e-05	-0.00033830022964747897	0.0031861329931589136	-0.023840207869981807	-0.0029140652780766147	-6.839282784631471e-05
Xe	0.000124513089754559	2.9805761815032725e-05	0.002788714002250673	0.0017140499547329655	-0.008823328217878536	-3.7841197296525714e-05
2
218200
Ar	-0.00018757777306409911	-0.0002841730090869216	0.0031857255841344734	-0.0200315675722678	0.01328765407431247	1.7722573909923278e-05
Xe	0.00011061299345017007	-5.832774784949043e-05	0.0027883454569392857	-0.004383443091401405	-0.008071710701638118	-2.102622466802074e-05
2
218400
Ar	-0.0003267726286179266	-9.396437249452684e-05	0.0031863475299935377	-0.006629629075559489	0.023145275053652953	0.00011183115815909341
Xe	4.4103252636424e-05	-0.0001184464877841673	0.002788022165754908	-0.008376566482157288	-0.0034289030171662307	-5.00929901135507e-05
2
218600
Ar	-0.00030947021652986105	0.00014115447941737995	0.003187671901152805	0.009969814428513269	0.021914737944747766	0.00012731099704614527
Xe	-4.310628442986651e-05	-0.00012138071708808456	0.002787361042901993	-0.008361096019425843	0.0028694036649825564	-4.96824061179091e-05
2
218800
Ar	-0.00014323902398889394	0.000308718587374315	0.0031883784371810357	0.021833392625814064	0.010177294641331101	-4.304967113251952e-06
Xe	-0.00010966670548282804	-6.579620093643961e-05	0.0027871227514074215	-0.004360622773984181	0.007771914996945669	2.4233249412253776e-06
2
219000
Ar	9.160808403594199e-05	0.0003280525376018464	0.003187665052150136	0.023166699382563816	-0.0064629415794737405	-0.00011642368828340005
Xe	-0.0001234566237580912	2.1300312800762464e-05	0.0027875086241726734	0.0017215513795357802	0.008908473656873198	5.716448500285064e-05
2
219200
Ar	0.0002822363431233843	0.00018995551152950488	0.0031863814476000545	0.013355014499218566	-0.019982735936570767	-0.00012048882065906382
Xe	-7.803697240160829e-05	9.805294422309418e-05	0.0027881820213942975	0.006974708740997889	0.005789074520654486	7.284225746108815e-05
2
219400
Ar	0.00033735606705636364	-3.9400359563622944e-05	0.0031855400717498194	-0.002781018852653922	-0.023951954326339186	-1.968320404323067e-05
Xe	4.72454612941792e-06	0.0001278599165739534	0.002788675628509843	0.008873345448009162	-8.29725434372293e-05	9.750370266311162e-06
2
219600
Ar	0.00023086031318691653	-0.0002503105945444786	0.0031859536948140163	-0.01763496984931757	-0.01646558086808576	7.328002245420595e-05
Xe	8.489327506930589e-05	9.656758474922246e-05	0.002788182518517656	0.006508920607548365	-0.005932085719215103	-5.993595194095395e-05
2
219800
Ar	1.3505131207214908e-05	-0.0003416311283210562	0.0031867393196505596	-0.02400549916930332	-0.0010225168345578517	6.856938647622343e-05
Xe	0.00012442232742878895	1.8791620327555592e-05	0.0027879361122322963	0.001082666375455768	-0.008965838021853629	7.051404112731938e-06
2
220000
Ar	-0.00020999381874308237	-0.00026909966904608136	0.003187363124462917	-0.018840028034913022	0.01491571315734113	3.863288111174798e-05
Xe	0.00010482038922891905	-6.816829248733428e-05	0.0027882893028482575	-0.0048679714465936705	-0.0076999884653141054	3.32556689158504e-05
2
220200
Ar	-0.0003327377292052148	-6.7603568872623e-05	0.0031878557326207283	-0.004692296960214541	0.023712395295832207	5.515408419444424e-05
Xe	3.481616250925664e-05	-0.00012244961089588437	0.0027883910938674085	-0.00854123496245192	-0.0026931954990836514	-1.7081716527363363e-05
2
220400
Ar	-0.00029603779289329716	0.00016662401737107605	0.003188067204360889	0.01169668661846013	0.021135835949944146	-2.3992221930413293e-05
Xe	-5.190347774228377e-05	-0.00011777815297965197	0.0027882436399408734	-0.008071276458204716	0.0035893346585875396	-1.4575084378935247e-05
2
220600
Ar	-0.00011749271241280788	0.0003206958777005573	0.0031875438198436866	0.0224990728983628	0.008363015492504379	-8.032562204308302e-05
Xe	-0.00011353227860211831	-5.622638058052436e-05	0.002787935403521719	-0.003753497134134646	0.008194647193632715	-1.0256588577316098e-05
2
220800
Ar	0.0001172962293685493	0.00032063259583076293	0.003186456564467851	0.02246441193488656	-0.008378735614022576	-0.00014358685105209486
Xe	-0.00012059638151009621	3.2595617955769104e-05	0.0027879431189045383	0.0023953410902964284	0.00881416100170759	1.874770097334974e-05
2
221000
Ar	0.0002954909121027982	0.00016697903904703006	0.0031853201221349924	0.011697536630014608	-0.021076150238681174	-5.92499507293236e-05
Xe	-6.974602592710784e-05	0.00010595000570080893	0.002787861403051215	0.007338684859036737	0.005221150761195463	-8.251898772309594e-06
2
221200
Ar	0.0003322379339017121	-6.700032500285276e-05	0.0031855414771011312	-0.004655735164835985	-0.023750025544280445	0.00010181503912959442
Xe	1.4406830528149958e-05	0.00012832409765308036	0.002787437130062463	0.008806653073592019	-0.0009079904664943681	-6.67127964853324e-05
2
221400
Ar	0.00020949192178854024	-0.00026927303054515527	0.003186724582870408	-0.018847515695746685	-0.01498343984746913	8.794610535599423e-05
Xe	9.194635755898052e-05	8.923243616940947e-05	0.002786908225260922	0.006017983821760129	-0.006588330480560253	-3.1126022504458054e-05
2
221600
Ar	-1.3841350625498098e-05	-0.00034202807757042743	0.0031873725933305235	-0.02395230763681478	0.001046172138654542	2.8347852863701016e-05
Xe	0.0001253185931120575	7.195353938208641e-06	0.002787114232538575	0.00033658649517530743	-0.009146950464845432	7.626003047024017e-05
2
221800
Ar	-0.0002303675154116977	-0.0002506780917204158	0.0031875573971628978	-0.017551945548178363	0.01646807098710177	-6.792654451128541e-06
Xe	9.844078556287349e-05	-7.870900235828354e-05	0.002787745218736912	-0.005503061940595406	-0.007318399736253347	4.512414111701237e-05
2
222000
Ar	-0.00033650227680642996	-3.9004616542708076e-05	0.0031874756277247814	-0.002803298110968946	0.024068002592916634	-2.0694176438427557e-05
Xe	2.4093665595588168e-05	-0.00012706745468120831	0.002788004330576374	-0.008713226262312261	-0.0019598896137025456	5.287905201016547e-06
2
222200
Ar	-0.0002816814849781448	0.0001912948819273369	0.0031870985153750406	0.013318392373984345	0.020058248650167598	-6.73032256860708e-05
Xe	-6.172424977396135e-05	-0.0001145875015849784	0.0027878558977444106	-0.007720853625969875	0.004374710160983081	7.611022264068617e-06
2
222400
Ar	-9.144894120060245e-05	0.0003296258723998165	0.0031863004912807127	0.023126641359643107	0.00642941453164458	-8.562980548634759e-05
Xe	-0.0001178128187883594	-4.6996295294284165e-05	0.0027882960967219764	-0.0030293645896869404	0.008580317752611682	7.51368076529856e-05
2
222600
Ar	0.00014289230248571604	0.00030979607983950603	0.0031856403891529646	0.021762541342713625	-0.010220145434835246	-2.9203187680530298e-05
Xe	-0.00011747107339120857	4.318051796542405e-05	0.002789113603242993	0.0030642134401831053	0.0086743167582488	7.524730178723407e-05
2
222800
Ar	0.00030876544986517735	0.00014177313147803903	0.0031857890965046017	0.010040452894683423	-0.02198670215508748	5.043164078086493e-05
Xe	-6.169617527625277e-05	0.000112462181728067	0.0027894885701068026	0.007648184329905302	0.004604520999418689	-2.987233269711465e-06
2
223000
Ar	0.0003272457120928262	-9.430860945306937e-05	0.0031866740984382077	-0.006526898299091958	-0.02323743152350387	7.76936379593107e-05
Xe	2.304945225286485e-05	0.00012786451306020968	0.002789291116521564	0.008621971568711091	-0.0016629669383299908	-4.0330797970184005e-05
2
223200
Ar	0.00018870737720959993	-0.0002849607957323664	0.003187243477508528	-0.020000508131481215	-0.013317823333549144	3.354949519753892e-05
Xe	9.653831722643862e-05	8.201288951055156e-05	0.0027888820381672124	0.005479886133748353	-0.007138303282079272	-3.8898783894216126e-05
2
223400
Ar	-4.0378909444983546e-05	-0.0003388132651614716	0.0031871270059359086	-0.023887843056116395	0.0029811000349179153	-4.363925941178352e-05
Xe	0.0001237879945642838	-2.941951288762323e-06	0.0027886481174732008	-0.00026402506064053375	-0.009147707182495251	-2.6958439425656454e-05
2
223600
Ar	-0.0002500159064455008	-0.00023033243911282694	0.0031868471360156424	-0.016305098906967738	0.01780710262742969	-3.525662697983521e-05
Xe	9.182876206983732e-05	-8.62196604991263e-05	0.002788133799625732	-0.00587521213109776	-0.0067965373510565944	-6.394123498341913e-05
2
223800
Ar	-0.00034005652948526145	-1.1484202515105895e-05	0.003186539826329949	-0.0009344943493792715	0.024120155038820888	-4.401820402726894e-05
Xe	1.5923082650922117e-05	-0.00012799014089436592	0.0027876197996298344	-0.008676753282334563	-0.0011815610479488116	-3.576005173060851e-05
2
224000
Ar	-0.0002670003759181367	0.00021276238215438381	0.003186270777514765	0.01493808005830655	0.018833561033917777	-4.056556956480056e-05
Xe	-6.749099231810863e-05	-0.00010822129029914519	0.0027875675746362513	-0.007328037826911482	0.004982895634467554	2.9891420828731307e-05
2
224200
Ar	-6.575827416736819e-05	0.00033473403132426344	0.003185740953616484	0.02359798172814495	0.004528857330999613	-5.153032626569928e-05
Xe	-0.00011869725868599532	-3.640659842399993e-05	0.0027881778323541914	-0.0024903002563409315	0.008757864659553038	7.226049332259723e-05
2
224400
Ar	0.00016694688772436747	0.000296283495934509	0.003185810727823582	0.02097283510906862	-0.011878171810517407	4.7134655510635986e-05
Xe	-0.00011312583361067373	5.271287753479918e-05	0.002788741263136926	0.00352742779314631	0.008315171791573603	1.902659455718044e-05
2
224600
Ar	0.0003197801438669254	0.00011586767073409738	0.0031866363691781625	0.008282570115943381	-0.022677586520823703	0.00010998196220154209
Xe	-5.3856144130479945e-05	0.00011639653766710682	0.0027886651747676904	0.00786089089885524	0.0038938211341313467	-3.119481420015505e-05
2
224800
Ar	0.00031935518669716983	-0.00012006377033372032	0.003187560104982599	-0.008384343287459819	-0.022548200509723077	6.165288237587161e-05
Xe	3.135441603450778e-05	0.0001241246953435355	0.0027881929094890115	0.00846655708394121	-0.0023920534690366414	-5.014244006600368e-05
2
225000
Ar	0.00016568231418547484	-0.00029819698139057387	0.0031876337269844913	-0.02103502285584308	-0.01159115561756727	-3.648666057644268e-05
Xe	0.00010166201772925215	7.223248349653534e-05	0.002787704252247862	0.005002421950400148	-0.007563613965719355	-2.464498059719836e-05
2
225200
Ar	-6.714298669299539e-05	-0.0003330826350381502	0.0031867010054406806	-0.02357493365838062	0.0049100403740222655	-8.646752006906035e-05
Xe	0.0001234592373798258	-1.4392193484203252e-05	0.0027874830554513387	-0.0008492060169050774	-0.009035313230990733	-1.1260799550836853e-06
2
225400
Ar	-0.00026760047458269725	-0.0002081567105037013	0.0031861655926263086	-0.014834518734654406	0.019013015899851934	-1.535280595938788e-05
Xe	8.627178554383212e-05	-9.393988001395314e-05	0.0027875847492746823	-0.006259733488954974	-0.006181267582509753	1.879879078431115e-05
2
225600
Ar	-0.0003397889022324228	1.6427649032343454e-05	0.0031861611381238083	0.0010243386927109197	0.024023807098990786	-7.569051261826886e-07
Xe	8.15012690470571e-06	-0.00012829384083070373	0.0027877761343211966	-0.008735160523766014	-0.0003868716448953644	1.2659131225461331e-05
2
225800
Ar	-0.0002489839358551045	0.0002331621252060721	0.0031861275710343795	0.016366038430887152	0.017492759243662805	7.477365015238192e-06
Xe	-7.414338230476881e-05	-0.000101181865949314	0.002787833757215851	-0.007024163142921459	0.005577839402120888	1.1290886615614414e-05
2
226000
Ar	-3.90811068745856e-05	0.0003380424273536116	0.0031862780149382462	0.023852040202034894	0.0026115062837328007	2.1010948568263705e-05
Xe	-0.00012078510549888669	-2.587710626409938e-05	0.002788185444079809	-0.0019028179223998772	0.008817621086772325	4.7285925488676654e-05
2
226200
Ar	0.000189482604062903	0.0002813912539819647	0.003186840732914757	0.01993054039404774	-0.013481534667796786	9.043313341584427e-05
Xe	-0.0001093186896334023	6.118013344597139e-05	0.0027884073491364846	0.004101131756327161	0.007858292785633022	6.850196032597115e-06
2
226400
Ar	0.0003274191256585516	9.042280938877745e-05	0.003187625830016873	0.0064842642550949235	-0.02313923280188821	4.7517458071672776e-05
Xe	-4.5642346285487326e-05	0.000118666649064481	0.0027882427785141275	0.008108449402035565	0.003152082744188877	-3.457261129403287e-05
2
226600
Ar	0.0003085162278939631	-0.000143792615466455	0.0031880057609864005	-0.010101125177051765	-0.021723138304301674	-4.473514880404985e-06
Xe	3.984343226167679e-05	0.00011929423241594914	0.0027881159863368116	0.008267751782725949	-0.003064733579729826	-5.026937907192302e-06
2
226800
Ar	0.00014185837000297994	-0.0003087100186908737	0.0031876004314054605	-0.021835606915353436	-0.00989143321299401	-7.35823516550361e-05
Xe	0.0001061683109378129	6.23762114257362e-05	0.0027882419262091297	0.0044424585244251195	-0.007827660160143753	3.037974108292802e-05
2
227000
Ar	-9.296759743743989e-05	-0.0003255123770427128	0.003186716606788726	-0.0231538867624662	0.006655247982489314	-9.49144514353842e-05
Xe	0.00012125659108379394	-2.4342085375315096e-05	0.002788352610781537	-0.0015488916122261742	-0.008774581771137142	-1.103516340601082e-05
2
227200
Ar	-0.0002835758968530837	-0.00018652889414040282	0.003186068352538759	-0.013369276493097661	0.01997708411757385	-5.877572805836065e-05
Xe	7.799930182892821e-05	-9.904445101556716e-05	0.0027879612262642945	-0.006726635651715729	-0.0055514351781108555	-5.726796895984208e-05
2
227400
Ar	-0.00033844102774596826	4.173269031559368e-05	0.003185869739062344	0.0028645064804113467	0.023778475047270667	1.4411361685445909e-05
Xe	-2.6956388635027747e-06	-0.00012613117690076403	0.002787265140385973	-0.00875356969255622	0.0003527607127810618	-6.549164464787854e-05
2
227600
Ar	-0.00023108438199439448	0.0002500251535864764	0.0031864114908730554	0.01772009964088701	0.0161644452768021	9.047801717654141e-05
Xe	-8.272855200644374e-05	-9.25817760027367e-05	0.002786995296914166	-0.006578936245714611	0.0060677160277081395	9.198000777413035e-06
2
227800
Ar	-1.29902214681188e-05	0.0003386161092147	0.003187596764426923	0.02407361380537368	0.0007930250956099473	0.00013883839270343814
Xe	-0.00012336398062861158	-1.4531370791825888e-05	0.002787031821715732	-0.0012084398558981641	0.00886463097505965	-1.5767192271254846e-06
2
228000
Ar	0.00021126272992712255	0.0002646357313770086	0.0031889296891050322	0.018901487852102918	-0.014954536431793864	0.00011573370954995183
Xe	-0.00010459359285811542	7.024585101797521e-05	0.0027870714592651493	0.004787006006105792	0.007396196553584806	1.013079470667834e-05
2
228200
Ar	0.00033406429660864494	6.367967054026024e-05	0.0031893499606757813	0.004635244815755025	-0.023543198720268655	-3.9273937703959445e-05
Xe	-3.538712896257582e-05	0.00012153321173359533	0.0027871068666627495	0.008490719192573312	0.002437289020912203	1.4455265533901256e-05
2
228400
Ar	0.00029638634383182287	-0.0001676421149206966	0.0031878896269976905	-0.011834340930276459	-0.02078065055540655	-0.0002369783685392841
Xe	5.140752689286095e-05	0.00011470736421145235	0.0027876262508080203	0.008154822148126739	-0.003741312080041408	6.108454284425883e-05
2
228600
Ar	0.00011627950115224323	-0.0003184988169952797	0.0031852993124540613	-0.02264715316482778	-0.008134273300596443	-0.00022841026026243242
Xe	0.00011436849435375334	5.2752118056609626e-05	0.002788300566476863	0.003898218633706825	-0.008103728024490515	4.379227292280835e-05
2
228800
Ar	-0.00011964525633738731	-0.00031724611489252077	0.003184272377453853	-0.022556907401764466	0.0083855280991279	1.5119335691507224e-05
Xe	0.0001229616799630593	-3.41477668166465e-05	0.002788429208790412	-0.002269781812401002	-0.008552683615736677	-4.14622602320575e-06
2
229000
Ar	-0.00029821106762391227	-0.00016432591545004674	0.0031849386403952702	-0.011662884026838563	0.020903840258812742	0.00013403860006223371
Xe	7.258501465276575e-05	-0.00010455100872429003	0.0027883067818378943	-0.007358588069187374	-0.004928592781690391	-1.8527039269190714e-05
2
229200
Ar	-0.0003338667923905602	6.711225028093692e-05	0.0031866496710965856	0.0048244536704850636	0.02343908212989164	0.00019795161254896045
Xe	-1.2429359831613537e-05	-0.0001247985908004884	0.002788140351297269	-0.008930199790050192	0.00102677899479251	4.923966916615589e-06
2
229400
Ar	-0.00020965083146339155	0.00026645695015103813	0.003188599078057209	0.01897507772596175	0.014759235813396639	0.00017569212231308398
Xe	-9.139405695883308e-05	-8.566938787375157e-05	0.0027882281600987795	-0.0062069151839551145	0.0064850627364444165	-2.823240649071207e-06
2
229600
Ar	1.5180401778067688e-05	0.0003381252360154913	0.0031896619726717915	0.024092967285797927	-0.0010163690072836403	1.968873384911535e-05
Xe	-0.0001264069531822133	-5.096041667494293e-06	0.00278817713395682	-0.0005154973272573081	0.008939136397767363	-1.2850711800489118e-05
2
229800
Ar	0.00023282644997093822	0.00024774561900482717	0.0031887617192829097	0.017606488591366633	-0.016305047969576717	-0.00018678871373179417
Xe	-0.00010083029818087326	7.860330757551728e-05	0.0027879948076623634	0.0054435497452907725	0.007063964290136166	-2.2581600275454536e-05
2
230000
Ar	0.00033875197201119233	3.8437160951018394e-05	0.0031863712494229275	0.0026928921729849602	-0.02378205036899159	-0.0002685722258567979
Xe	-2.670374057444627e-05	0.00012466560638414506	0.0027879871511456906	0.0087916351920391	0.0017664017797679845	1.6480933295954176e-05
2
230200
Ar	0.00028213974831195005	-0.00018936689835514245	0.003184174182082678	-0.013531586643965879	-0.019864950202180123	-0.00014179216967518074
Xe	6.049501046754526e-05	0.0001111356767869789	0.002788110004586184	0.00789315286519401	-0.004362989601235056	2.2813811846491082e-05
2
230400
Ar	9.032310852043488e-05	-0.00032675421536770003	0.0031837199220595184	-0.023218668478043953	-0.006457441774623534	7.084970775540495e-05
Xe	0.00011813169456363447	4.4633512053450434e-05	0.0027879204182354074	0.003187036513120104	-0.008394941349901673	-2.5389937594539968e-05
2
230600
Ar	-0.00014466148728890633	-0.0003079611089474539	0.0031853350034806768	-0.02180395813650283	0.01007052592786695	0.0002471736045856148
Xe	0.00011916585182769295	-4.3179271271571505e-05	0.0027874441588601343	-0.002993944880443388	-0.008433261680279459	-7.366253740564837e-05
2
230800
Ar	-0.00031041477493980017	-0.00014123880723948865	0.0031877664809038726	-0.009935752326908208	0.021853918320086787	0.00021894338818604674
Xe	6.318804164837693e-05	-0.00011030421730687389	0.002786771651846591	-0.0077471748260031946	-0.004427320745467374	-2.8937079390888196e-05
2
231000
Ar	-0.00032719023489018135	9.323977558729582e-05	0.0031893426251690445	0.006719812794631274	0.02306926974997056	8.062073401740108e-05
Xe	-2.3266445392954195e-05	-0.0001244525569314119	0.002786692404533046	-0.008807942178847663	0.0017269420237210713	1.9357871886072815e-05
2
231200
Ar	-0.000186650944779142	0.00028279744462439616	0.0031892261584308807	0.020204496584231773	0.013259322926733347	-8.796702610964943e-05
Xe	-9.86763841245119e-05	-7.856826134705974e-05	0.002787071077642703	-0.0056186922127290494	0.007064385754002812	2.623820621412615e-05
2
231400
Ar	4.35070010498223e-05	0.00033688016667436665	0.003187726907748393	0.023891386076422175	-0.0029263904406168664	-0.00021288073866564399
Xe	-0.0001267248240775854	5.170705251044653e-06	0.0027874902416277414	0.00024577546167970835	0.008987275163347621	6.39740786501856e-05
2
231600
Ar	0.00025284084913197914	0.00022910248030908373	0.0031857546271500128	0.01621000760655599	-0.017719393675948682	-0.00017174119544279478
Xe	-9.413315265376998e-05	8.619307053195288e-05	0.002788059741782531	0.005989163605288646	0.006542049465163046	6.292258386564038e-05
2
231800
Ar	0.0003408456663951778	1.1430856284859588e-05	0.003184637963844521	0.0006762258242344444	-0.023967693091350044	-2.9653437587208427e-05
Xe	-1.6331257272279062e-05	0.00012554776145291832	0.0027886984586626127	0.008893526182112206	0.000991585166531899	5.24791031995772e-05
2
232000
Ar	0.0002651855208870331	-0.00021162276802257424	0.0031850927364840322	-0.01515218075968727	-0.018756321721883528	0.00013054034196769814
Xe	6.930103367157255e-05	0.00010481844423105949	0.002788833577061305	0.007507391368515878	-0.004966099276553748	-5.378537881534652e-05
2
232200
Ar	6.272953524185157e-05	-0.0003335474535157351	0.0031868734100573416	-0.023641608258872116	-0.00457897586479453	0.0002159911868188776
Xe	0.00012150790265003173	3.4301977609466506e-05	0.002787967170424417	0.002506471237461195	-0.008575214140138178	-0.00010182520582751014
2
232400
Ar	-0.00016971827633197468	-0.0002956396461242554	0.003188867293705076	-0.020876678744035156	0.01187994001429599	0.00015417156026616458
Xe	0.00011531418104745245	-5.280711296998258e-05	0.0027869011281503324	-0.003703015753578261	-0.008112942790774628	-0.00010873952126185446
2
232600
Ar	-0.00032040477861516376	-0.00011564990263737092	0.0031895982117383153	-0.007993197092395576	0.022600895589639045	-1.2634381482116063e-05
Xe	5.3340423301069734e-05	-0.00011486475455400275	0.0027862064049709936	-0.008175313812627904	-0.003756546528049409	-5.899458856696758e-05
2
232800
Ar	-0.00031671935213858134	0.00011958311408811328	0.0031888572797187605	0.008703877668547466	0.02247973183108557	-9.07723867010451e-05
Xe	-3.4976822028992475e-05	-0.00012193240401216908	0.002786095846954617	-0.008714681600902658	0.0024169174370857792	3.683861167339697e-05
2
233000
Ar	-0.000160806543618012	0.00029726667043533634	0.0031874496659580827	0.021180524574983515	0.01159047651376091	-0.0001627129857201266
Xe	-0.0001067390788777741	-7.051801833183464e-05	0.002786861278297723	-0.005037760076936457	0.007441172712102709	0.00010325435867591802
2
233200
Ar	7.229416932282022e-05	0.0003322444066645185	0.0031857689683237223	0.023473281414919594	-0.004894707371196948	-0.00014591684765797488
Xe	-0.00012755502514892066	1.4646516681966976e-05	0.002787963874657172	0.0010577709247119292	0.008883093331539953	0.00010499695388922436
2
233400
Ar	0.00027089274844998835	0.0002077676164607847	0.003184755058795254	0.014556430748722274	-0.01899247286927457	-3.7665294748515836e-05
Xe	-8.731581756678178e-05	9.274458745580176e-05	0.0027890965288516326	0.006652104308100529	0.00607739038149054	8.473439808575474e-05
2
233600
Ar	0.00033960300515121155	-1.6591003363288615e-05	0.0031849547982530893	-0.0013715469911514846	-0.023992126097952628	7.021259694757129e-05
Xe	-5.499057263788395e-06	0.00012641131814586032	0.0027897258255056216	0.008991029044023775	0.00037961877504611287	4.7049533573609364e-05
2
233800
Ar	0.00024601650355466693	-0.00023302866550466573	0.003186002488495974	-0.01658067289050839	-0.017500201025964036	0.0001403274865130285
Xe	7.811609937286498e-05	9.953960973467724e-05	0.002789679176185558	0.0070494433089415874	-0.005525728191657192	-7.390040213487785e-05
2
234000
Ar	3.471379370394436e-05	-0.0003379128466625256	0.0031876878374442947	-0.02389422717015005	-0.0025994936040228144	0.0001733230077517943
Xe	0.00012420267174635964	2.5115407401457346e-05	0.002788285780443747	0.0017759473518219968	-0.00872739140444889	-0.00019157337090675242
2
234200
Ar	-0.00019318064957355013	-0.00028082534572350127	0.003188812907333626	-0.019749982159376605	0.01355016091360295	3.4671522843549414e-05
Xe	0.00011084504921555416	-6.117690503482864e-05	0.002786553768679474	-0.004346719923431539	-0.007789550538230919	-0.0001434785301028937
2
234400
Ar	-0.0003280733988974412	-8.888267243435757e-05	0.003188566251228729	-0.006093818290376899	0.02321130990785508	-9.005769520900078e-05
Xe	4.399589094623982e-05	-0.00011831426400033123	0.0027854857913535707	-0.008446823273621874	-0.0031467636925353645	-4.494074447706126e-05
2
234600
Ar	-0.00030529101565414894	0.0001455503334820914	0.0031872995635739703	0.01047105975243911	0.021709360192261117	-0.00012842543099654777
Xe	-4.44185381360843e-05	-0.00011877064077827662	0.0027854603894032653	-0.008484604049091923	0.0030775737411265548	6.98055481653386e-05
2
234800
Ar	-0.00013579820124778627	0.00030991554087230464	0.0031861487514726378	0.021993711965451235	0.0098034660213532	-8.656468992761053e-05
Xe	-0.00011176943455100828	-6.187825126268487e-05	0.002786675921593062	-0.004426250144173796	0.007817873836417065	0.0001693388868419376
2
235000
Ar	9.887252809299418e-05	0.00032587124790707593	0.00318581874844524	0.022944170172535312	-0.006750266487333443	-5.494234830993781e-06
Xe	-0.00012580247199115823	2.4746147616364492e-05	0.002788634412218822	0.0017398894585373887	0.008782522766746459	0.00020612365503704387
2
235200
Ar	0.00028611319252753775	0.0001858507263445252	0.0031860086189736216	0.012925959591476079	-0.02008656005010006	3.6958777253276275e-05
Xe	-7.967328680457563e-05	9.937861672266752e-05	0.002790118001450485	0.007106518329700537	0.005506986440720836	8.59844608445934e-05
2
235400
Ar	0.00033646015472247264	-4.3616205062573954e-05	0.0031864117765939273	-0.0032803662895425786	-0.023842343686143425	5.3872617216992964e-05
Xe	4.646209797527572e-06	0.00012617331938262352	0.002790374496509491	0.009033254816591457	-0.0003700235453331581	-3.296799721711208e-05
2
235600
Ar	0.00022593331527212272	-0.00025242224731359216	0.003187191970897557	-0.017909590353926915	-0.016153443195097837	8.731091133518161e-05
Xe	8.624994139582306e-05	9.283049596284431e-05	0.002789424736237327	0.0066092380935939615	-0.006028932302856078	-0.0001491487096820625
2
235800
Ar	7.183993049885476e-06	-0.0003401981360081251	0.0031879529341676724	-0.02399024869746248	-0.0006610074380435525	6.929411395616946e-05
Xe	0.0001263803069734596	1.5224455357429662e-05	0.0027880394045865582	0.0010818735298051957	-0.008841901828120849	-0.00013177712475991916
2
236000
Ar	-0.0002148521892096549	-0.0002646603815707522	0.0031883054102666867	-0.01854031311111231	0.015128004406452917	-1.7047263856758797e-05
Xe	0.00010593450667884444	-6.954265768341263e-05	0.0027869334545240674	-0.0049943280680748905	-0.007426045598038201	-8.285725167006902e-05
2
236200
Ar	-0.0003336341619117857	-6.23239778495867e-05	0.0031876272920999343	-0.004252840499748956	0.023615087890765104	-8.683377392104138e-05
Xe	3.4352315993611817e-05	-0.0001213084840797806	0.0027866917890661423	-0.008709542253444271	-0.002501887413823467	4.1983020631129686e-05
2
236400
Ar	-0.00029283212344380176	0.00016941741033362368	0.0031868862664019082	0.012069853854537663	0.020783256139474952	-6.905112233831545e-05
Xe	-5.3810148741194615e-05	-0.00011506306451909423	0.0027872918995373087	-0.008177749252712493	0.0037116848598797002	6.500413584114229e-05
2
236600
Ar	-0.0001118266495984522	0.00031976204264050275	0.0031861558312618198	0.02260166296293725	0.008031150477794633	-6.014095752438338e-05
Xe	-0.00011625620524197736	-5.346761232689728e-05	0.0027879418390491417	-0.0037868767924560368	0.008100142372213343	3.902363172184871e-05
2
236800
Ar	0.00012274144619780556	0.0003168370458615556	0.0031862054798707674	0.022338513068750582	-0.008569101303880725	3.262410745109283e-05
Xe	-0.00012307810904609013	3.3878264463276104e-05	0.002788074438240447	0.002463866949265093	0.008631648143738764	4.054342425936267e-06
2
237000
Ar	0.0002985340777962168	0.00016216190134827612	0.0031866191939367195	0.01134990258198741	-0.021098869447276687	4.7027389232659215e-05
Xe	-7.102398291144768e-05	0.00010528890421191254	0.002788050271130364	0.007525591885196317	0.005045476925568053	7.184481058122378e-06
2
237200
Ar	0.000331342193325558	-7.06148520015843e-05	0.003186931201749455	-0.005059116208855188	-0.023476749688823687	2.9644561576589365e-05
Xe	1.509582292210091e-05	0.00012617382713994515	0.0027880745359926914	0.008976637581992632	-0.0010505852700740867	-1.3243098034432995e-05
2
237400
Ar	0.00020576326612729926	-0.00026956033324777097	0.003187332029123958	-0.01902184818090657	-0.014645452294288024	3.539656230377753e-05
Xe	9.38756334328574e-05	8.639129692537575e-05	0.002788006443317988	0.006120364644900424	-0.006574482296232789	4.262860047867523e-06
2
237600
Ar	-1.8230798218069272e-05	-0.00033938529084093564	0.003187570376149189	-0.02390417898619594	0.001285619242078511	9.371747175157319e-06
Xe	0.0001277680143781628	5.057224132675138e-06	0.0027882171767499224	0.00033751690978520735	-0.00900417949075049	3.682012377651549e-05
2
237800
Ar	-0.00023381682592824002	-0.00024622725146252014	0.0031873497460090513	-0.017384859624128595	0.016560161381808557	-5.848238998210195e-05
Xe	0.00010032014611716725	-7.894844510701512e-05	0.0027888815486451185	-0.0055808242804082035	-0.007078177569503781	6.075908656392443e-05
2
238000
Ar	-0.0003377723080092761	-3.509440171166172e-05	0.0031866460450498887	-0.0025179798600102237	0.023892273032163215	-4.9699621600827776e-05
Xe	2.51482639791303e-05	-0.00012511102741335144	0.002789167467021229	-0.008816094373442463	-0.0017556241515300935	-1.0996900979652486e-05
2
238200
Ar	-0.0002800057021842717	0.00019298929960173453	0.0031861861315851487	0.01356869149593953	0.01978810803192389	-3.9547797795071074e-05
Xe	-6.175471104958532e-05	-0.00011108159319067181	0.0027889526038008543	-0.007854347365474522	0.004422054085047751	-2.7094629002959627e-05
2
238400
Ar	-8.830208652842304e-05	0.0003287278142140736	0.0031861460052523063	0.02316921819513619	0.006230758986023004	1.2236958670638856e-05
Xe	-0.00011912091367598452	-4.410049299191674e-05	0.0027885631279462495	-0.0031398682250488746	0.008427576054144629	-7.03575405945405e-05
2
238600
Ar	0.0001455159077986987	0.000307566842392927	0.003186433654379569	0.021674916744737836	-0.010327014733290087	1.0019552337614089e-05
Xe	-0.00011926222728159243	4.409280897620219e-05	0.0027882210602589545	0.0031305011872797706	0.00845855486910701	-2.5309341255346905e-05
2
238800
Ar	0.00030998857073167115	0.00013885250331953041	0.003186659051084829	0.0098238092855412	-0.02199144404167318	1.912480471911877e-05
Xe	-6.178356581628791e-05	0.00011137760846466876	0.0027878022347456615	0.007896295562323876	0.004422257782921585	-6.569477818562107e-05
2
239000
Ar	0.00032576005228222534	-9.653059289422983e-05	0.0031870294331311612	-0.00680117755401942	-0.023081260406721406	4.01886776540559e-05
Xe	2.5606958669601756e-05	0.00012509027241017155	0.0027871863091199177	0.008839188195845922	-0.0017885744301618927	-5.545361546819153e-05
2
239200
Ar	0.00018512086539314963	-0.0002853540993476459	0.003187202440265472	-0.02014504914862131	-0.013093643736047609	5.248458740195254e-06
Xe	0.00010053939289199476	7.87071634802114e-05	0.002786690111150505	0.005527565933373346	-0.0071113308260667436	-4.3956316349797124e-05
2
239400
Ar	-4.434086199086306e-05	-0.00033710084607500656	0.003187385978661085	-0.023828189733106457	0.0031721371861412333	1.8518684896965335e-05
Xe	0.0001270962334986452	-5.508175767557032e-06	0.002786684494317112	-0.0004322793504304523	-0.00901754553856232	6.307699546608319e-05
2
239600
Ar	-0.00025262008656101547	-0.00022710243173308697	0.0031876529967262545	-0.01606599967947642	0.017908423275485898	1.0727282400209072e-05
Xe	9.267061690021553e-05	-8.710153146969417e-05	0.002787353576067482	-0.0061765266927173	-0.006636375460984159	7.443103957658496e-05
2
239800
Ar	-0.00033951278220542303	-8.064826039017033e-06	0.00318772050691614	-0.0005770087630710447	0.024046898077424245	-2.411414853634166e-05
Xe	1.3583461701994006e-05	-0.0001271956445743054	0.002788006338794635	-0.00897098264259121	-0.0010605826327653165	5.009106526123033e-05
2
240000
Ar	-0.0002634539283763837	0.0002147203457926675	0.0031872579305808643	0.015147226185653954	0.01864130844162495	-5.989798671947864e-05
Xe	-7.235942023847197e-05	-0.00010656831103393159	0.0027886289728232916	-0.007465966244787769	0.005017457232991651	7.553300227631309e-05
2
240200
Ar	-6.099361173739575e-05	0.0003343425681977349	0.003186493295150348	0.02363885179268688	0.004291786845572212	-9.395039166726287e-05
Xe	-0.00012373230219723947	-3.491766062612136e-05	0.0027891416508247424	-0.002373780342330939	0.008695350594903083	2.4992419099852367e-05
2
240400
Ar	0.00017114386955530917	0.00029380086827988336	0.0031856378081729373	0.020814239774687406	-0.012061326267310614	-7.865105985445015e-05
Xe	-0.00011587421409061585	5.331354450128297e-05	0.002789214818579331	0.0038819895210161952	0.008223583656849994	-2.6220963029026536e-05
2
240600
Ar	0.00032183821801929133	0.00011273986438291325	0.003185246667267648	0.008053466653154867	-0.02263419136686063	-3.1612170672764975e-06
Xe	-5.264624326448617e-05	0.00011603547837088199	0.0027887035852893756	0.008228013971298223	0.0038013916632984933	-6.9146142332758e-05
2
240800
Ar	0.0003187644493883203	-0.00012216559908400523	0.0031857865311957826	-0.008650505982904972	-0.022389882659026736	8.99346647221294e-05
Xe	3.542110248179811e-05	0.0001232797651688893	0.002787820749115379	0.008639986882445072	-0.0024412300716592414	-9.58105518100214e-05
2
241000
Ar	0.00016285260640920533	-0.0002986746296153546	0.003186802934050841	-0.021204150939940863	-0.011438876831075155	0.00010309045605117473
Xe	0.00010661935487375315	7.11108665797009e-05	0.0027871224308703953	0.004987231526799532	-0.007518310218052016	-3.69786272080958e-05
2
241200
Ar	-7.090533726335521e-05	-0.00033208831442331017	0.003187706283693719	-0.023576571074772557	0.005016484683869371	6.120390421564984e-05
Xe	0.00012715382587721543	-1.525995168383069e-05	0.0027869936890824697	-0.0010694087393985057	-0.009037718553924833	2.1413170603622846e-05
2
241400
Ar	-0.0002704501048549648	-0.00020629338764717122	0.0031876874314971473	-0.014650985843379483	0.01908653704750215	-5.4756335173689254e-05
Xe	8.693949986409749e-05	-9.491865396851262e-05	0.002787377152593819	-0.00664881012354334	-0.006203015677452878	8.436615827755604e-05
2
241600
Ar	-0.00034020095569010564	1.8859322548230096e-05	0.003186952500050961	0.001279006329323137	0.024026812459330003	-9.88487589389641e-05
Xe	5.066740515516636e-06	-0.00012934369986251776	0.0027884631214015695	-0.00904947577191326	-0.0003843436453478692	0.00012147938755082522
2
241800
Ar	-0.00024682808295868977	0.00023521273205421073	0.003186093464370093	0.016606140674235808	0.01741597213592785	-8.157749271439169e-05
Xe	-7.958046235019335e-05	-0.00010186859570151445	0.002789553902199018	-0.007145648651758189	0.005653911712504461	6.740981743679766e-05
2
242000
Ar	-3.502981790747217e-05	0.0003389667822940281	0.003185501103192602	0.02398153782695926	0.0024529167424189257	-4.567816340971254e-05
Xe	-0.00012602224063125266	-2.5628949396936233e-05	0.0027897541673338787	-0.0017598425736541788	0.008948240141482228	-4.831034439497165e-06
2
242200
Ar	0.0001940808590050352	0.0002802877240272617	0.003185567147022557	0.01989211581205607	-0.013704655884225618	6.49905175346622e-05
Xe	-0.00011208069512969806	6.287204878159864e-05	0.002789510790524015	0.004420552784541144	0.007984608844903752	-5.829692516322288e-05
2
242400
Ar	0.00033021920833389053	8.706665140314804e-05	0.0031866003457615383	0.006191728022071713	-0.02331402605020336	0.00012693065549047216
Xe	-4.472840128155856e-05	0.00012122997051133892	0.002788832331573452	0.008481899857772974	0.0031929676439329895	-4.501857830623756e-05
2
242600
Ar	0.000307747517877935	-0.00014800056386440161	0.0031876012927545536	-0.010501247925136037	-0.021703620671756997	5.128649583227321e-05
Xe	4.381801279161336e-05	0.00012155507555686355	0.0027883370535532483	0.008485303220231522	-0.003132357745303463	-1.9238375057265506e-05
2
242800
Ar	0.00013743514247887187	-0.0003119784458256157	0.0031876315327443302	-0.02213981279951782	-0.009712069354956117	-6.47916362038664e-05
Xe	0.00011132952737478069	6.334976940845629e-05	0.0027885409946121417	0.004441783858323188	-0.00801824769606391	3.6671339314838707e-05
2
243000
Ar	-9.907234558987429e-05	-0.0003262099464275103	0.0031868638490030504	-0.023156544411132223	0.00697725198659714	-9.926361797484027e-05
Xe	0.00012546358380530139	-2.5401319697548775e-05	0.002789066212899079	-0.0017304937138903278	-0.008995018715881634	6.790303626117743e-05
2
243200
Ar	-0.00028807468560987435	-0.0001838766822228404	0.0031858454813764553	-0.013049487867608936	0.020302229256789373	-8.501127059811597e-05
Xe	7.957493500655666e-05	-0.00010197243275863733	0.0027895256887692198	-0.007078250180305576	-0.005695466421258717	1.0847940550509983e-05
2
243400
Ar	-0.00033900540253625224	4.655758386356014e-05	0.0031851059453651617	0.0033038712909429094	0.023866304555365373	-6.10397664489968e-05
Xe	-4.589742614418041e-06	-0.00012986771358708619	0.0027893917237914604	-0.009055039735876175	0.0003589333610392549	-4.8923208933037327e-05
2
243600
Ar	-0.00022739307854620285	0.000254665268665809	0.0031847449854802896	0.018078783470002392	0.01598962463554532	8.099648986441928e-06
Xe	-8.661520750400959e-05	-9.556571787581374e-05	0.0027888341691835595	-0.0066687343778453305	0.006193393191119466	-6.889371985196377e-05
2
243800
Ar	-6.723042201123571e-06	0.0003405854366584907	0.0031853690432621174	0.02418039708423532	0.0004773127671487425	0.00011454186287181838
Xe	-0.00012704134886454862	-1.6017822603559193e-05	0.0027882939122545864	-0.0010749980059453837	0.009035032624927084	-4.3746381231063046e-05
2
244000
Ar	0.0002169589292604611	0.0002632067412221515	0.0031866610145965604	0.018667287811862353	-0.015295089588628623	0.0001321463710467042
Xe	-0.00010651460318000742	7.111856681382784e-05	0.0027881228033060377	0.005012389531936226	0.00764682776688048	-8.252036000151317e-06
2
244200
Ar	0.00033635968560331793	5.965518673675893e-05	0.0031879145985451596	0.0041869653205923	-0.02370684891836201	8.498131827168501e-05
Xe	-3.480433330149656e-05	0.00012440739816257693	0.0027881214718199353	0.008730155800618023	0.0025533242245037095	2.4498995931797123e-05
2
244400
Ar	0.000294009497687251	-0.00017243706295128113	0.0031879761287622256	-0.012303974233315128	-0.02074082602783537	-8.582279149705527e-05
Xe	5.385882739661031e-05	0.00011774789308081585	0.0027884911711965016	0.008253864765963315	-0.00379766786520256	4.793060290323693e-05
2
244600
Ar	0.00011041090487463889	-0.00032192271966212887	0.003186723161661808	-0.022878534047128866	-0.00790328240259871	-0.00014033926196051086
Xe	0.0001166508820343905	5.4677756138128454e-05	0.0027888349818856665	0.0037998744955914667	-0.008309718129173057	3.707065151468107e-05
2
244800
Ar	-0.00012640471609291374	-0.0003175157898168986	0.003185516287898232	-0.022477750426338587	0.0087558246151405	-0.000101851874854633
Xe	0.00012353192133437063	-3.448524266818328e-05	0.002789214188633174	-0.002479929002863852	-0.008791958697901198	3.08846681643629e-05
2
245000
Ar	-0.0003024917405014995	-0.0001606696981799126	0.003184852616945181	-0.011253982151089319	0.021273589433764974	-1.1775596634207024e-05
Xe	7.116629189462988e-05	-0.00010678535124765237	0.0027893055037608574	-0.007545828608120724	-0.005066024971810046	-2.2093758480199065e-05
2
245200
Ar	-0.00033357420620824075	7.333131025947162e-05	0.0031853089264375924	0.0052827701145753405	0.023561570584026977	0.00010599573750382615
Xe	-1.489530340406938e-05	-0.00012780762902575641	0.0027890212191719597	-0.008929392396673676	0.0010190148085925574	-4.379058640838284e-05
2
245400
Ar	-0.000205253793478785	0.00027205987685027366	0.0031864572932620207	0.019323803018909475	0.014507568438373102	0.00012539226186788406
Xe	-9.335787945963765e-05	-8.807098262021853e-05	0.0027884615142397284	-0.0061043831992779	0.006614206843675532	-7.385193376230316e-05
2
245600
Ar	2.1423630700923086e-05	0.00034012607494821767	0.0031875111677403213	0.02409649677916012	-0.0014701720472168219	6.286657259955164e-05
Xe	-0.0001270187609353677	-6.165182826154216e-06	0.0027879043951438667	-0.0003334423395128798	0.009107344614555368	-3.213558708201587e-05
2
245800
Ar	0.00023756109705018	0.00024510542777677913	0.003187682934092484	0.017323812890288757	-0.016752970699638714	-3.527517386364234e-05
Xe	-9.953431927900831e-05	7.89012394810922e-05	0.0027877710850554445	0.005615758984933427	0.007202678964778532	1.322382329576693e-06
2
246000
Ar	0.00033966404360201045	3.231253256295101e-05	0.003187116657576755	0.0022598438056705703	-0.024001890930515277	-8.316910767149359e-05
Xe	-2.414224708635116e-05	0.00012620702056603708	0.002787805894702988	0.008859908028327092	0.001849153904383197	4.736196566438443e-07
2
246200
Ar	0.0002787920762866862	-0.00019598748633606745	0.003186380694251809	-0.013928789262814262	-0.019737522293888865	-6.396482271010287e-05
Xe	6.292893335479215e-05	0.00011277273477040967	0.002787949313944947	0.0078232063778584	-0.004420200721318959	3.0749137946121107e-06
2
246400
Ar	8.394307778834794e-05	-0.0003302094081065358	0.003186027888163796	-0.023381146333966728	-0.0059725746598339345	-3.959872960517114e-05
Xe	0.00011983116854218772	4.5149207888407e-05	0.002788354027159448	0.0030749803389417	-0.00853607241568559	4.485975176219155e-05
2
246600
Ar	-0.00015107074375253425	-0.00030599342122310686	0.003185697064009775	-0.021654968582084943	0.010632977913455742	1.8973241662042618e-06
Xe	0.00011928573673549749	-4.401746276707482e-05	0.0027888120312886664	-0.00317495239082738	-0.008528291797525752	4.572648199085959e-05
2
246800
Ar	-0.0003138342230955505	-0.00013507671862309344	0.003185838024657089	-0.009536046848349841	0.0221065561717679	2.5001664966656855e-05
Xe	6.182801117686426e-05	-0.00011190407305548091	0.0027891055465689256	-0.007849267572774082	-0.004454594209398419	5.704166076396099e-06
2
247000
Ar	-0.000326280226527954	0.00010047277151433767	0.003186279275739225	0.007148332357766763	0.023022738483827614	3.197534437170109e-05
Xe	-2.5051457410583766e-05	-0.00012593180112561083	0.0027887777163146323	-0.008782503112857006	0.0017703628229498451	-3.7570264041992305e-05
2
247200
Ar	-0.00018232046910617933	0.00028768936293435904	0.0031863568858803665	0.02041605002992848	0.012857309975674863	-1.4268542353076498e-05
Xe	-9.974650210408013e-05	-7.964979694956527e-05	0.00278847059780939	-0.0055480672353039285	0.00711311072060899	-3.67222767707005e-05
2
247400
Ar	4.87414638220741e-05	0.00033674821514815336	0.0031862972283806888	0.023877198942583285	-0.003453758071008387	-1.2559888709736095e-06
Xe	-0.0001268233485042009	4.922249043952366e-06	0.002788009250400695	0.00036262575662998945	0.009078917593940394	-4.063602719652616e-05
2
247600
Ar	0.00025657022762814297	0.00022434330637467886	0.0031865658982392366	0.015926072361970602	-0.01809427406161768	4.3597486224414446e-05
Xe	-9.325035216245388e-05	8.731516851456217e-05	0.0027875751577146057	0.006086980629534209	0.006698959466204242	-5.350294253663251e-05
2
247800
Ar	0.0003415946062459415	4.421636619095433e-06	0.0031868491870919095	0.00034033441475566224	-0.024050430052445174	1.4497646502248792e-05
Xe	-1.4909414721281446e-05	0.0001280774264155493	0.002787300081046929	0.00893189696949915	0.0011005272085317123	-3.880033238134013e-06
2
248000
Ar	0.0002627892244451002	-0.00021778045017438043	0.0031866222480068725	-0.015425704937467193	-0.018506430563260578	-2.8564415473569397e-05
Xe	7.098204955828802e-05	0.00010730030067073635	0.002787725206530114	0.007514710512977158	-0.0050693244718585445	8.022617039952102e-05
2
248200
Ar	5.8104059532031267e-05	-0.00033580824821163565	0.003186419637332803	-0.02380559252252507	-0.00411813991165473	-1.3701216586662626e-05
Xe	0.00012288385350978011	3.492027967034086e-05	0.0027888771008342823	0.0024276688694935657	-0.008792843210468094	0.00011981210349305698
2
248400
Ar	-0.00017450309714815953	-0.0002929112217759776	0.0031864491628099483	-0.020778047288539523	0.01233777070928165	1.8935955526725503e-05
Xe	0.00011569642769741353	-5.391680027275105e-05	0.0027898259780030185	-0.003782958789424613	-0.008227690350071917	6.035566872056916e-05
2
248600
Ar	-0.0003235790606427012	-0.00010971749835316091	0.0031866284252366284	-0.007758911858470964	0.022769636057512425	1.9232091729232874e-05
Xe	5.3099555780251805e-05	-0.00011648437891188657	0.002789869824515573	-0.008215248627827462	-0.0037628470193977162	-5.770067659565371e-05
2
248800
Ar	-0.00031736957912932123	0.0001259858381297697	0.0031866897966617196	0.00895189042737123	0.022367722838607173	-7.913752458879548e-06
Xe	-3.5006800317156984e-05	-0.00012299885765636298	0.0027887598357443323	-0.00866687042357056	0.0025100622527930018	-0.00014634808505460372
2
249000
Ar	-0.00015900216854210559	0.0003008853084178214	0.0031865760110699947	0.02139652924542518	0.011159063697459955	-4.605906967603895e-05
Xe	-0.00010602958363091188	-7.062100686661067e-05	0.002787106418955802	-0.0049651964715922235	0.007534167119295048	-0.00014487785111819257
2
249200
Ar	7.555745776336101e-05	0.00033125509592432276	0.0031859410170281383	0.023551518810849353	-0.005354973261470723	-6.626417927948595e-05
Xe	-0.00012605532341370844	1.547310629661322e-05	0.0027861217612746513	0.001101310903913575	0.008965470012360189	-2.876138273298249e-05
2
249400
Ar	0.00027383807935656515	0.00020268287918437554	0.003185571929509178	0.01444961975987407	-0.019283543156906315	7.795854619111023e-06
Xe	-8.573335352995794e-05	9.411731204016483e-05	0.0027864080609450365	0.006634034465663525	0.0061058498667882375	0.00011615891123869349
2
249600
Ar	0.00034070670122736966	-2.3195381077648343e-05	0.0031857815904395423	-0.0016205434065247636	-0.023978809164924692	4.6678937573875724e-05
Xe	-4.433493595898931e-06	0.00012760661779291627	0.002787950526649354	0.008952753122368802	0.0002995873480478737	0.00018352724405771282
2
249800
Ar	0.0002442520275146169	-0.00023783609110696174	0.0031862447136566936	-0.016826888569047214	-0.017146399297652222	3.629885424897223e-05
Xe	7.880654066028002e-05	9.985825686169975e-05	0.0027898407975806595	0.007004254342560896	-0.005611862874619758	0.0001614317317267886
2
250000
Ar	3.097878955748029e-05	-0.00033857576577700895	0.0031867565145314385	-0.024028154526271373	-0.002148970265650782	4.443731479261953e-05
Xe	0.0001243143058664345	2.4527810172965148e-05	0.002790944284856714	0.0017187527741732596	-0.008802379956556255	7.232412992043557e-05
2
250200
Ar	-0.00019730681497659723	-0.000277276525312122	0.003187013924489689	-0.019721858563833048	0.013916283147185893	-2.0513943918974234e-06
Xe	0.00011041697137261931	-6.216570664735142e-05	0.0027906058064665266	-0.004393401173443449	-0.00778354182329536	-0.00011458191946490652
2
250400
Ar	-0.00033123102578250734	-8.288765810834185e-05	0.0031869331582831586	-0.005937190965847704	0.02334878374998254	-2.772050792761052e-05
Xe	4.370585310948309e-05	-0.00011870562151946943	0.0027890132877401884	-0.008416900677504887	-0.0030484355251412247	-0.00017787514119375797
2
250600
Ar	-0.00030627814953460036	0.00015120445236981766	0.003186607727233349	0.01073163664643618	0.021524414078764615	-4.79385375554851e-05
Xe	-4.42044064159062e-05	-0.00011788078572430129	0.0027872101657031656	-0.008435491296317727	0.0031916661770888905	-0.0001520069368860537
2
250800
Ar	-0.00013441729203505094	0.00031258704425863774	0.003186250623112141	0.02220051164466075	0.009404105807014966	-1.8974527374807857e-05
Xe	-0.00011116047011064781	-6.000395440092019e-05	0.0027859667255297187	-0.0043749120377015996	0.007902897904568596	-9.124273201296181e-05
2
251000
Ar	0.00010172617461413735	0.00032404250220923337	0.0031861718744072855	0.023043524973839994	-0.0072110910949701535	1.3825797381690679e-05
Xe	-0.00012465346354023066	2.721953378990265e-05	0.0027856678637245844	0.0018097648820038204	0.008812523090550627	4.149609258163859e-05
2
251200
Ar	0.00028884308091916975	0.0001799129190377315	0.003186440499391423	0.012823461916757869	-0.020413468931592887	4.257415576488373e-05
Xe	-7.793307919243264e-05	0.00010147842881500468	0.0027868164196769513	0.007140687040621688	0.005420985453938641	0.0001549849290572585
2
251400
Ar	0.0003375241224474546	-5.0776401340303564e-05	0.0031867910995199366	-0.003486257507785695	-0.023787936651432497	1.846585752744566e-05
Xe	6.286718682383894e-06	0.0001270620607655112	0.0027885626020949248	0.008993333868799963	-0.000529044948227241	0.00017318936968908362
2
251600
Ar	0.0002245188963511199	-0.00025724915237746576	0.003186870704423802	-0.01816164349581609	-0.015786703640253252	-1.1411195227565742e-05
Xe	8.758614718877305e-05	9.160595474817501e-05	0.002789906890467714	0.006567806410999829	-0.006226317259066555	7.136942356500859e-05
2
251800
Ar	3.8589196014639e-06	-0.00034086752785920883	0.0031864742543926215	-0.024129378774595794	-0.00023862692901381531	-3.67202772781391e-05
Xe	0.00012668179048057058	1.2623110286220415e-05	0.0027900083066505913	0.0009409477434459279	-0.008916299542900397	-4.583667313393369e-05
2
252000
Ar	-0.00021903488549529382	-0.00026143463030476227	0.003186316048338417	-0.01855641435086831	0.01546993290721296	1.1980839771198429e-05
Xe	0.0001047994828670255	-7.229760837240629e-05	0.002788938089119911	-0.005101154015189741	-0.007326918733143198	-0.00012814103256399465
2
252200
Ar	-0.00033700069995929496	-5.6674570692260925e-05	0.0031865427318139117	-0.004027000912937784	0.023744436940274047	2.7271626862576818e-05
Xe	3.275526717527635e-05	-0.00012247362332338746	0.0027875238545168775	-0.008718441279151437	-0.0022878519683405493	-0.00015363987161238392
2
252400
Ar	-0.0002932119224357163	0.0001749630738646092	0.0031868659993507485	0.012399414166841094	0.020615789385744807	2.512155933809314e-05
Xe	-5.522562040494619e-05	-0.00011397963451862528	0.002786382602451282	-0.008164260236672253	0.0039041333785334404	-6.385181976895471e-05
2
252600
Ar	-0.00010898217686960815	0.00032243529185392675	0.003187167046688053	0.022903318048045216	0.007656025593657687	2.472262934233692e-05
Xe	-0.00011704373914694823	-5.063865736916559e-05	0.0027863244213140737	-0.0036907783744278143	0.008232168472197064	3.375331863223722e-05
2
252800
Ar	0.0001275284358263178	0.0003153847290954966	0.003187091993928725	0.02241525328660045	-0.009005982948729913	-4.940970129832191e-05
Xe	-0.0001229069799637298	3.714690338858063e-05	0.0027873184055778196	0.002582739560267202	0.00858320551372161	0.00015445493672517583
2
253000
Ar	0.0003028038302495549	0.00015684306649640502	0.003186599168612756	0.01115749482242512	-0.021352824703839014	-3.064789440055065e-05
Xe	-6.961521655523248e-05	0.00010713422124547848	0.002788988457645562	0.007601061653181396	0.004824606975399603	0.00018749289962311804
2
253200
Ar	0.000332831462237178	-7.673580498270276e-05	0.003186243457734937	-0.005394168162520382	-0.023432052388123906	-2.0662286796253446e-05
Xe	1.6884560128066586e-05	0.0001258134838542643	0.0027908146058324467	0.008944733638333431	-0.0012188819814913572	0.00014468658566661196
2
253400
Ar	0.00020367176794608896	-0.0002736715407990156	0.003186309688857068	-0.019365674409833986	-0.014319114535461312	2.6739447226495897e-05
Xe	9.48079843727357e-05	8.47502798802002e-05	0.0027915639143822	0.005981184167917627	-0.006646764932388684	-1.9085830572123242e-05
2
253600
Ar	-2.30562095626568e-05	-0.0003395273665005601	0.003186762084861643	-0.024069007424014265	0.0016924236712473903	6.628537744116242e-05
Xe	0.00012716995888462063	3.476955301093899e-06	0.0027902188737067815	0.00021655305168622244	-0.008933148581273049	-0.0002227763739782969
2
253800
Ar	-0.00023891713033731484	-0.00024275946064668656	0.003187326225210507	-0.017259761642640082	0.016862942048486977	2.290167118821956e-05
Xe	9.881791977521377e-05	-7.955399003358154e-05	0.0027877504427808574	-0.0056712825238329195	-0.00697256242023774	-0.0002666167877566682
2
254000
Ar	-0.0003400052867653385	-2.9733284257845765e-05	0.00318703005186092	-0.0021393729526083516	0.023968249115819153	-6.799324677975842e-05
Xe	2.2961344439296698e-05	-0.00012408842997721207	0.0027855139798210176	-0.00885648435275919	-0.0015879672519315032	-0.00015375203172098082
2
254200
Ar	-0.0002780658312042304	0.00019736077216322932	0.0031861230411993745	0.01401871881380675	0.019549398227872584	-8.646080306299113e-05
Xe	-6.397507061788561e-05	-0.00010879846962187352	0.002784971051319117	-0.00780825276339476	0.004515527247109071	4.173372015248139e-05
2
254400
Ar	-8.263540566051643e-05	0.00032964788550791214	0.003185244652754834	0.023416142987784667	0.005777873280251724	-5.7714993150307595e-05
Xe	-0.00012034095408679212	-4.0981417735375926e-05	0.0027860727043635086	-0.003011826671444004	0.008488462714607984	0.00016355798546524968
2
254600
Ar	0.00015215487462751757	0.0003036607015050396	0.0031855108840939212	0.02159247433933258	-0.010755869759981397	7.439418373913336e-05
Xe	-0.00011923927190018966	4.672424459183895e-05	0.0027880286256325064	0.0032352948830439423	0.008308964324549617	0.00019821911419951307
2
254800
Ar	0.0003139838940130405	0.0001321790591208972	0.0031864667128166787	0.009411034372155111	-0.022095885692385523	0.00012277615689372767
Xe	-6.0914829162853706e-05	0.00011164666764207644	0.002789933182364411	0.007942115380267515	0.004150928467805175	0.00016834931332124065
2
255000
Ar	0.000325396448838062	-0.00010253588329207137	0.0031876162099313664	-0.007231105434659167	-0.022883071271590505	7.245621755017031e-05
Xe	2.6543398931616887e-05	0.00012296173868291208	0.002790883516633725	0.008790341862309179	-0.0019530070705932195	2.1083201931005145e-05
2
255200
Ar	0.00018097202457412458	-0.00028816386283909984	0.0031880506717069275	-0.020427350796341615	-0.012664302985109791	1.1103245602660537e-05
Xe	0.00010109253653772292	7.557405536830126e-05	0.0027902199238899325	0.005456593817739282	-0.007133209605600599	-0.00014506269313697805
2
255400
Ar	-5.008669436250406e-05	-0.00033541209298145597	0.003187885720786233	-0.023824804996116833	0.0036059792869642597	-6.911626193204278e-05
Xe	0.00012700181234268461	-7.901421009023514e-06	0.0027882609388690098	-0.0005036742244908351	-0.008873854629550381	-0.00024787370452455964
2
255600
Ar	-0.0002566475248820111	-0.00022187751120619957	0.0031869928189153488	-0.015760141759473045	0.018142755412248517	-9.110714636242682e-05
Xe	9.172648307003089e-05	-8.773537426926325e-05	0.0027859516551586964	-0.006222635006610543	-0.006424790210403293	-0.00019025446256828278
2
255800
Ar	-0.00033990651955025363	-2.0718038215551026e-06	0.0031860392609437595	-0.00015857177696230004	0.023964478251275137	-6.48658141196164e-05
Xe	1.2346564658670234e-05	-0.00012579570770259403	0.002784739517103443	-0.008991094259448527	-0.0008815674972688537	-5.1773037588727555e-05
2
256000
Ar	-0.0002596130630713016	0.0002185262782600923	0.003185580363786736	0.015508547080498288	0.018290089141852327	-2.2559136698062428e-05
Xe	-7.342745308950701e-05	-0.00010368869387970786	0.0027853155150890075	-0.007438204448182086	0.005134929451835906	0.00010350157875764788
2
256200
Ar	-5.44661849079699e-05	0.0003342897286485525	0.0031855181077929504	0.02375010414551354	0.003878934098536981	1.9258288476740323e-05
Xe	-0.00012422029902588397	-3.1617269378188144e-05	0.002786671204180334	-0.00227511459778678	0.008652153697506418	0.00014714651732587603
2
256400
Ar	0.0001768225224460063	0.000289554832283081	0.0031862396452177525	0.020564003198435193	-0.012447632964973157	0.00010618503718866664
Xe	-0.0001153038418094695	5.540182087468003e-05	0.0027882700398489816	0.003970899043269658	0.008027923410968864	0.0001684986141649652
2
256600
Ar	0.0003233156045383817	0.00010573677872221806	0.003187451741634204	0.007492202968783442	-0.02274443709164306	8.414684374026836e-05
Xe	-5.1367920481275e-05	0.00011597966543118929	0.002789655848621537	0.008301873718152893	0.0035857285289540766	9.989501817285708e-05
2
256800
Ar	0.00031458775905094993	-0.00012838035382619888	0.00318795010405284	-0.009164860522441478	-0.022124818614667575	7.44647884539798e-06
Xe	3.730312976640277e-05	0.0001210044209721755	0.0027903893323393087	0.008653133208419327	-0.002618380482697644	1.0698196001924182e-06
2
257000
Ar	0.00015520673098137587	-0.0003009628592210985	0.0031878419520013092	-0.02140251091644412	-0.010935936899910181	-3.869200631113509e-05
Xe	0.00010781745600079064	6.786205593709222e-05	0.0027893440488148615	0.0048669101123489785	-0.007554591656121957	-0.00019630554802772625
2
257200
Ar	-7.87254295341305e-05	-0.00032929813453456844	0.0031873956804008424	-0.023433507417088398	0.005505487305516483	-8.001924286457437e-05
Xe	0.00012676984092396197	-1.7797307810426174e-05	0.002787098287551106	-0.0012506188455762108	-0.008852943575676385	-0.00022418848649956617
2
257400
Ar	-0.0002751815621310881	-0.00019987048892812164	0.0031864269147098504	-0.01419824394855461	0.019312262198236983	-0.00010441948683424687
Xe	8.469916104465288e-05	-9.48924955621234e-05	0.0027852948357251326	-0.006819687189719966	-0.005932429191640981	-0.000121647118112957
2
257600
Ar	-0.00033968064094661927	2.565274718460321e-05	0.003185802094469904	0.0018369037466013916	0.023873083672204275	-1.9409601823576193e-05
Xe	1.851219186199677e-06	-0.00012651495617983557	0.0027849254398460894	-0.009065783599554964	-0.00012860459485351832	7.196762086810783e-05
2
257800
Ar	-0.00024127187623227073	0.00023889578542745998	0.0031858396338099834	0.017007446244620826	0.017006927275676646	4.5688628725450595e-05
Xe	-8.203718987121288e-05	-9.740033193243593e-05	0.0027862725847924764	-0.006994925216949216	0.005718274652047829	0.00015889366372196328
2
258000
Ar	-2.6737713733658267e-05	0.0003380276792444154	0.003186603243845443	0.024074934195281526	0.0019808172224867623	9.858821263242723e-05
Xe	-0.0001265701860511994	-2.1584691350769807e-05	0.002788036919954444	-0.0015265488518064834	0.008791193076538455	0.00016319550819865784
2
258200
Ar	0.00020082871410566773	0.000275152410029667	0.003187526009252843	0.019519274337866335	-0.01403690453955638	6.493471285329339e-05
Xe	-0.00011043541015741184	6.450399938287146e-05	0.002789723494842197	0.004646023345276416	0.007688159255525912	0.0001561638239815155
2
258400
Ar	0.00033209052503243913	8.026962873989217e-05	0.003187805321539761	0.005640221944587667	-0.02329657509690797	-2.302179827684007e-05
Xe	-4.127682773141333e-05	0.00011958119742230801	0.002790774156376953	0.008580307899579975	0.0028801838181846916	3.4695579936120914e-05
2
258600
Ar	0.00030406812024614367	-0.0001530657289315741	0.003187114949916135	-0.01099891956969792	-0.021398866792113818	-9.047960078860024e-05
Xe	4.7570463985580676e-05	0.00011749354422331799	0.002790174583155317	0.008436232081052708	-0.0032755183555625324	-0.00015278114811107516
2
258800
Ar	0.00013019305211545086	-0.00031304496688076697	0.0031863317551173854	-0.022326962465605227	-0.009256024401820861	-4.8966416181153096e-05
Xe	0.00011356296723135287	5.94785906303533e-05	0.002788283206070274	0.004213269802338625	-0.00783759081157311	-0.00020315532107655505
2
259000
Ar	-0.00010601993940343029	-0.00032302966302019567	0.00318585921658414	-0.022920769022947735	0.007337895905040996	-3.8706147833876934e-05
Xe	0.0001250498620043295	-2.6934940714489087e-05	0.002786313759394672	-0.0020166607211138453	-0.008711701342700945	-0.0001636362823917352
2
259200
Ar	-0.00029096843423613046	-0.00017803403419183964	0.0031855931197578152	-0.01252507743647968	0.020448853011157578	5.91363105228365e-07
Xe	7.636070406466914e-05	-0.00010046983140930146	0.0027856564421603423	-0.007311706550478858	-0.0053876295889999015	4.303707154988502e-05
2
259400
Ar	-0.00033629555930172605	5.2737454739943665e-05	0.003185929869670639	0.00382504621243449	0.02374815480018637	8.877162072931296e-05
Xe	-9.278754633673562e-06	-0.0001256999477240757	0.0027867055853390004	-0.00906481405328873	0.0005505025276328405	0.0001533908096121251
2
259600
Ar	-0.00022065906525194987	0.0002581182890823992	0.00318716716874408	0.018336648266433355	0.015614337844145074	0.0001410338165487415
Xe	-9.051145328823602e-05	-9.078059829094837e-05	0.0027882758793957548	-0.006497779843822884	0.006150209671342571	0.0001461482652535896
2
259800
Ar	4.958036636146256e-07	0.00033979891787855234	0.003188390994115866	0.02405014041854226	2.8453855513160145e-05	8.417111354842811e-05
Xe	-0.00012862842515055757	-1.2571879166564475e-05	0.002789341217481911	-0.0007877263654264206	0.00882293698680099	6.582654997353232e-05
2
260000
Ar	0.00022139930279868928	0.00025851862942672326	0.0031884245548581274	0.018245142138707093	-0.015597632942206579	-6.878301781739366e-05
Xe	-0.00010492584118272181	7.173155986048114e-05	0.0027894752628370247	0.005319371630570919	0.007305705318642597	-3.237864473483358e-05
2
260200
Ar	0.000336035389206835	5.31550922817638e-05	0.003187068476955778	0.00372275133344346	-0.02373513619218761	-0.0001544097900928756
Xe	-3.113689027210487e-05	0.00012146881029454462	0.0027888014382793386	0.008815071353287664	0.002221876181030003	-0.00010776991181065544
2
260400
Ar	0.0002896370483436343	-0.0001777279524905257	0.003185817565230831	-0.012597239098269973	-0.020516223467020967	-9.128797865764145e-05
Xe	5.709948156735857e-05	0.00011279136678874317	0.0027878074258051973	0.008103012728346208	-0.003898416999382927	-9.740340039605571e-05
2
260600
Ar	0.00010461314269728045	-0.00032348820574008277	0.003185474570147119	-0.022852647135255706	-0.007434530297612675	2.187651707825119e-05
Xe	0.00011801137351080886	5.0181991579018865e-05	0.0027869464319024376	0.0035515163438967845	-0.008127427602522353	-4.685724245747211e-05
2
260800
Ar	-0.00013033544139105948	-0.0003142048555687638	0.0031860635144076834	-0.022174270907885357	0.00920960417697096	9.662509529686269e-05
Xe	0.0001222905280184411	-3.646131874621738e-05	0.002787244318619423	-0.0027154949672559834	-0.00846368658422847	9.18032903118017e-05
2
261000
Ar	-0.00030270201913205365	-0.00015410086705781813	0.0031871243176266914	-0.010842630943018574	0.021458876152345003	7.40671990433759e-05
Xe	6.807517550968938e-05	-0.000105408684991434	0.002788232930074814	-0.0076749712653603	-0.004735700651756913	9.192924443914973e-05
2
261200
Ar	-0.0003298134552645703	8.008651471109394e-05	0.0031876931781988165	0.005656007160029363	0.023405662492403324	4.3329490751305504e-05
Xe	-1.8744517657720853e-05	-0.0001235892151393226	0.0027888984523085805	-0.008945445280843161	0.0012259308880065716	4.2523405279668724e-05
2
261400
Ar	-0.00019880137080449062	0.0002759193588848932	0.003188040998096546	0.01944166119657869	0.014129736963915238	1.7012218704393414e-05
Xe	-9.662550460168074e-05	-8.277758650678544e-05	0.0027889539829410452	-0.005945886328590349	0.00661115646744524	-2.0979276001134128e-05
2
261600
Ar	2.7363319117937437e-05	0.0003395451938707326	0.0031877966155409157	0.02389638323535773	-0.0019543503593252797	-8.773879906164089e-05
Xe	-0.00012815241030102908	-2.2456091756418944e-06	0.0027883620946658567	-9.141931132615407e-05	0.008815571827365143	-6.55745921949794e-05
2
261800
Ar	0.00024027806270952992	0.00024011103805825443	0.0031867948939274505	0.016877427105190728	-0.017096323803027277	-0.00011296408304425832
Xe	-9.830053884080821e-05	7.95374407849196e-05	0.002787700061203456	0.005812557989684009	0.0068383562964882145	-5.77731278629976e-05
2
262000
Ar	0.00033830935386940634	2.5786727348163358e-05	0.0031856742620958185	0.0018678433674046762	-0.023981994058809034	-8.904839047574132e-05
Xe	-2.1442279438270804e-05	0.00012326429932999725	0.002787235815569352	0.00889029701000975	0.001517630686394458	-4.120573192144546e-05
2
262200
Ar	0.0002743420511241161	-0.00020064518380407008	0.0031852150589313137	-0.014118271922248704	-0.0193926684832413	2.776101682829007e-05
Xe	6.542496990962145e-05	0.0001077457624806963	0.0027869696963727674	0.007754973230629358	-0.004494508850953579	-3.477602385326914e-05
2
262400
Ar	7.903586954742554e-05	-0.00033090103347654335	0.00318590982798943	-0.023311396173770076	-0.0055636201978430475	0.00010229509040073466
Xe	0.00012085571985813162	4.0883541933959956e-05	0.0027867146053652766	0.0028786660738152627	-0.008348505182134898	4.838955506615796e-07
2
262600
Ar	-0.00015396521736845138	-0.0003027955491305138	0.003187006072843584	-0.02131304222140131	0.01095621103289144	0.00012110622077611103
Xe	0.0001182575724629882	-4.567142395489566e-05	0.0027871431491758424	-0.0033865428331660754	-0.008232915183541351	9.335937630088249e-05
2
262800
Ar	-0.0003129584561403704	-0.00012965026067099754	0.0031882407687067074	-0.009146256491510775	0.022201905228656362	0.00011684069584595995
Xe	5.879122786917479e-05	-0.0001104635677090287	0.0027881588361970814	-0.00798780672246002	-0.004176068945902234	9.687402693033141e-05
2
263000
Ar	-0.00032206311354900135	0.00010526086077937147	0.003188847102741509	0.0073831297578750175	0.022816375564758785	-1.6955137548686206e-05
Xe	-2.887386860392332e-05	-0.00012243909775961454	0.0027887459815638246	-0.008792450381906488	0.0018843952282429736	2.155516007539308e-05
2
263200
Ar	-0.00017702086140904285	0.0002897114927794159	0.0031881007906190487	0.02040235899661998	0.012533768055020775	-0.0001171021892573043
Xe	-0.00010272894733084106	-7.585388752148748e-05	0.0027888076885783384	-0.0053652120986408015	0.007055533132238149	-3.665738242451003e-05
2
263400
Ar	5.3078687747762775e-05	0.0003354966412186699	0.0031865426237980537	0.02368918938478366	-0.0037549375071238567	-0.00015955363997728516
Xe	-0.00012742086309693355	7.0377422366009486e-06	0.0027882318813240415	0.0006356232545096991	0.008839263838307895	-6.619317998139373e-05
2
263600
Ar	0.0002583338466505681	0.00022064782020543442	0.003185280893782147	0.015633999756668824	-0.01826583631705685	-7.577824979802667e-05
Xe	-9.087403538569744e-05	8.641509663787146e-05	0.0027874356795160584	0.006372363129468489	0.006376083477321416	-6.516754859100198e-05
2
263800
Ar	0.0003401272097671364	-1.7875859889099358e-07	0.003185176352995077	3.565681718987207e-05	-0.023995817363540527	5.769673379499085e-05
Xe	-1.0762500854530751e-05	0.00012442744483544073	0.0027868653231617082	0.009004566454171997	0.0009091769226309705	-4.4872757806374584e-05
2
264000
Ar	0.00025897836987472193	-0.0002205330144822503	0.003186227673093897	-0.015597537581740468	-0.01823611871826555	0.0001050301859449714
Xe	7.448826645368863e-05	0.00010295292065744522	0.0027868944122798962	0.00735980064051054	-0.005035118898515892	5.343412148037145e-05
2
264200
Ar	5.365419294188896e-05	-0.0003353009405644095	0.003187416548444416	-0.02376174040018881	-0.0037424568371971483	0.0001179124087316118
Xe	0.00012425722310829417	3.206923456513902e-05	0.002787647522590788	0.0021614368072329602	-0.008562706388261308	0.00010900905337907269
2
264400
Ar	-0.00017735552732555068	-0.0002891982072905691	0.0031882230081120176	-0.020511744708594487	0.012559342992913239	1.0794158409427344e-05
Xe	0.00011415500099893593	-5.425019391393795e-05	0.0027887099622554462	-0.00409220154242682	-0.00800754913142615	8.650220698155777e-05
2
264600
Ar	-0.000323206364848726	-0.00010470981143680513	0.0031878805542349064	-0.007444347937132455	0.022797188540771215	-7.611021979290576e-05
Xe	4.9063333052878145e-05	-0.00011472419959773581	0.002789345752742967	-0.008361958364360643	-0.0035691142674815924	4.123071271801374e-05
2
264800
Ar	-0.00031417485228105646	0.00012990870120298384	0.0031869496774629908	0.009161039051739471	0.02213846708043733	-8.532293415229673e-05
Xe	-3.9051268604173256e-05	-0.00011989374659169718	0.002789248329827488	-0.008525841887668228	0.0025768797561743417	-6.802772391763033e-05
2
265000
Ar	-0.00015491194727294165	0.0003020849023952051	0.0031864756187737833	0.021360639657732997	0.010871190887399051	-1.4447845594364422e-05
Xe	-0.00010816367805662048	-6.739502409504763e-05	0.0027882115574914324	-0.004712690257189403	0.007488092370177833	-0.000138846558786246
2
265200
Ar	7.834828337869745e-05	0.00032959440388441306	0.0031864925799793458	0.023337494349207157	-0.005587420962355454	3.151834490695858e-05
Xe	-0.00012568704362810518	1.7502327599067092e-05	0.002786817457868616	0.0013639894883569134	0.008766945489333057	-0.0001374709737968943
2
265400
Ar	0.0002738788495504132	0.00019950467517767872	0.003186673961996324	0.014120211463650912	-0.019346482926671578	2.6973540043403e-05
Xe	-8.308230556295928e-05	9.380676424499605e-05	0.0027858468352818994	0.006798935825656747	0.005863742686604865	-5.057687334155985e-05
2
265600
Ar	0.0003377955987097734	-2.6195837768613934e-05	0.003187072722109238	-0.00187113116366944	-0.02389529454068277	2.606070393558495e-05
Xe	-7.260759703594848e-07	0.00012502221991296864	0.0027858308078326753	0.008955983445975578	0.00012050003221372447	8.405770595292284e-05
2
265800
Ar	0.00023940601169908216	-0.0002393149431391203	0.003187181008802498	-0.01694044101130569	-0.01694992937721904	-4.031713258423633e-06
Xe	8.183663973777551e-05	9.617900044844937e-05	0.0027871923063060434	0.006846346201602632	-0.00564653902441052	0.00017197279444956397
2
266000
Ar	2.6524827975420873e-05	-0.000337584875869225	0.003186959889733887	-0.02386679659760971	-0.0018825545342542424	-2.0446214116066772e-05
Xe	0.00012513998467820475	2.1079198494909897e-05	0.0027886841429511705	0.0014400652156295994	-0.008739963047690723	0.0001411373518073967
2
266200
Ar	-0.0001993581685724196	-0.000274065626274407	0.003186887211237734	-0.019413434860351537	0.014055643921864902	1.643075848116822e-06
Xe	0.00010866917846893436	-6.41293809172385e-05	0.002789772010996035	-0.004607813840900373	-0.007578529714839207	5.995179786894265e-05
2
266400
Ar	-0.00032986473614035605	-7.91778412206739e-05	0.0031871467560011545	-0.005586038005586878	0.023285095807230705	9.193039808611392e-06
Xe	4.0352186768624e-05	-0.0001182323391899397	0.002789828104105322	-0.008472301533182274	-0.0027898476224795243	-6.332208594333257e-05
2
266600
Ar	-0.00030246348633526285	0.00015388556384984478	0.0031873457828119653	0.01084057666669919	0.021347808466209095	4.4042660102459506e-05
Xe	-4.69902415248514e-05	-0.00011545686317492188	0.002788868493348707	-0.008278656038321149	0.003313957322855202	-0.00013589127225359127
2
266800
Ar	-0.0001303873658154923	0.00031300044272951214	0.003187791928887331	0.02213919948329933	0.009141551252846741	2.2060178680094435e-05
Xe	-0.00011170445646341294	-5.76671916039122e-05	0.0027872450748164376	-0.004136458289525273	0.007770654702213185	-0.0002050189601909527
2
267000
Ar	0.00010404408325591083	0.0003220449103835959	0.003187739790238283	0.022772702884904936	-0.007433209267446115	-2.342303508029416e-05
Xe	-0.00012294773723963524	2.756200247197678e-05	0.0027854822973576387	0.002008774035110641	0.008550965448557806	-0.00015131111570249351
2
267200
Ar	0.00028820173796769344	0.0001765629205688133	0.003187347524890435	0.012499065744718027	-0.02044784844339529	-4.564873848491207e-05
Xe	-7.490893094952654e-05	9.985424295380933e-05	0.002784772323549389	0.007202590999477193	0.005278178640753831	-6.377148072777406e-06
2
267400
Ar	0.00033382416608018013	-5.356654704009196e-05	0.0031867954233687603	-0.003729104391117211	-0.023626022366568036	-5.738803695213024e-05
Xe	9.321307009571404e-06	0.00012439077218000106	0.0027852894118330774	0.008937352543254782	-0.0005682906139528334	0.00010780450495317748
2
267600
Ar	0.00021945158372513277	-0.0002575468858769177	0.0031862429812215274	-0.018181209817567916	-0.015475489937340372	-6.139999076330628e-05
Xe	8.921841129393173e-05	8.926993894520875e-05	0.0027864757842371818	0.006373471313484873	-0.006147685099999737	0.00012951874966094952
2
267800
Ar	-3.5666978912942145e-07	-0.00033799744993470726	0.0031859064863814573	-0.023923322554653893	5.174484208453605e-05	3.4472188848294056e-05
Xe	0.00012637981146516975	1.1321800577346231e-05	0.0027879312972855356	0.0007519497737351182	-0.008786561021459572	0.00016532639602087027
2
268000
Ar	-0.00021994514034265583	-0.0002566418784175958	0.0031866330761129024	-0.018151167326274024	0.01554215794142297	9.242475093144736e-05
Xe	0.0001030743320647435	-7.210411444724212e-05	0.0027895217671945146	-0.005217895062218316	-0.007201606828434898	0.00014122371320946309
2
268200
Ar	-0.0003344125479354717	-5.249551404924243e-05	0.0031875486429546146	-0.0037694255119307437	0.023572941395322254	7.357040710261796e-05
Xe	3.060835758790273e-05	-0.00012093971897921444	0.0027902436383331723	-0.008670203517965581	-0.002172788544599858	2.1669381471670833e-05
2
268400
Ar	-0.0002890861524311479	0.00017664021601819432	0.003187910465727767	0.012455115287378074	0.020329216284751386	4.5693938335924556e-05
Xe	-5.606502585964436e-05	-0.0001119940647448463	0.0027897192652779016	-0.007960867303529075	0.003882033658101502	-0.00011808989479781428
2
268600
Ar	-0.0001053016415905766	0.00032111969094261446	0.0031883406322375045	0.022736540789292863	0.007328583799910773	2.217458293826161e-05
Xe	-0.00011609018030345918	-4.9593806790822874e-05	0.0027878905580495227	-0.0035148742043685987	0.008087673018732375	-0.00019798794206847854
2
268800
Ar	0.00012894015106214212	0.00031150275436560575	0.003188247215654791	0.022126173465551114	-0.009183988339861738	-4.786758530773709e-05
Xe	-0.00012067841519091448	3.677311571778863e-05	0.0027861618496056104	0.00264184479271215	0.00846960666449111	-0.00015075076197696352
2
269000
Ar	0.00030108662511310516	0.00015252621623231186	0.003187132598346486	0.010832304543950087	-0.02128293186111469	-0.0001545795001071714
Xe	-6.740025268702435e-05	0.00010575779389262071	0.002785006524932075	0.00758282290842861	0.004746547520162515	-6.0566176204196845e-05
2
269200
Ar	0.0003285047550214957	-7.954710964026345e-05	0.0031857002619008674	-0.005588364845031242	-0.02316676100685589	-0.00012806397689892366
Xe	1.8699886428370933e-05	0.00012423062556891684	0.002785174517549755	0.008918166651776208	-0.0012441589358092348	0.0001153048044361012
2
269400
Ar	0.00019839021003403856	-0.0002733063705000836	0.0031849777969036866	-0.01932212357746903	-0.013971958076958797	3.262415268979884e-05
Xe	9.603465398267609e-05	8.297300196013563e-05	0.002787118632562876	0.005877949135476461	-0.006667395190860417	0.00021525254390270963
2
269600
Ar	-2.6798021328611244e-05	-0.00033664555262258116	0.003185955451368223	-0.023821678800265596	0.0018713071432167115	0.00015003513587454238
Xe	0.00012716345346724839	2.010438175700518e-06	0.0027890034914336546	8.174776526174572e-05	-0.008845973060863203	0.00014167292571450716
2
269800
Ar	-0.000239210700669554	-0.00023893229903446524	0.0031876199811918353	-0.016860374865244505	0.01686332474553021	0.00015896550372836266
Xe	9.745952375922828e-05	-7.967503706756244e-05	0.0027898261328685183	-0.005787127739809248	-0.006803877312806889	4.226042215104157e-05
2
270000
Ar	-0.0003369796832310547	-2.6952573960670108e-05	0.0031888289469207912	-0.0018740170768497824	0.02378123202643274	6.574328880786385e-05
Xe	2.0998088128376932e-05	-0.00012290858573769654	0.0027895728589820566	-0.008875228946016544	-0.0015020607970260451	-9.377030208365465e-05
2
270200
Ar	-0.00027362978030649455	0.0001979101922415631	0.0031888160618232094	0.014017855850411652	0.019318565836426597	-8.519725848132044e-05
Xe	-6.537475737009565e-05	-0.00010711372460939532	0.0027878860975130548	-0.007672873872286147	0.004525237085075745	-0.00022162492272549664
2
270400
Ar	-7.938565527516528e-05	0.00032801876686781335	0.0031875029707567953	0.02321856404162011	0.005632371301089052	-0.0001539111731187473
Xe	-0.00012021891586827984	-3.9865406687414795e-05	0.0027855837475131927	-0.0028398384034929633	0.008386070719092462	-0.00020895506357393576
2
270600
Ar	0.00015314534775061095	0.000300831362050559	0.0031860101502608853	0.02132327489255992	-0.010830288636079004	-0.00014670709204423504
Xe	-0.00011747031419039684	4.655016961914945e-05	0.0027841872225107317	0.0033830287350070515	0.008198923936143293	-4.508028402414385e-05
2
270800
Ar	0.000312324144833195	0.0001291666704732115	0.0031852110026785074	0.009187772566475166	-0.022078334856655592	9.606079505060724e-06
Xe	-5.8111282334451465e-05	0.0001105908552512407	0.002784828914687511	0.007967327845539371	0.004085517004204246	0.00015686892777432937
2
271000
Ar	0.000322035206478588	-0.00010485545420848419	0.003185946304937854	-0.007327448867168665	-0.022721933030975503	0.0001405844079968533
Xe	2.9028019901326413e-05	0.00012171252709207252	0.0027868517148024277	0.008716760651836731	-0.001953905674957711	0.00021591919673562604
2
271200
Ar	0.00017783177631127358	-0.00028856266448617265	0.0031876035589156397	-0.02034957033550477	-0.012494578607289294	0.00017170662900798913
Xe	0.00010202505660336018	7.46290763107004e-05	0.0027891755245397117	0.005274838655336977	-0.007050450070471056	0.00020835050148275175
2
271400
Ar	-5.198750788483485e-05	-0.00033427225354302776	0.003189038324838513	-0.02369206471776963	0.003729435956909498	0.0001116412298125129
Xe	0.00012603897698237055	-8.352340585896319e-06	0.0027904886381377248	-0.0006673621503500438	-0.008827474349798576	3.460736376253215e-05
2
271600
Ar	-0.00025727349400392097	-0.00022000694259613168	0.003189302831678981	-0.01563249458295513	0.018169543511486145	-4.0649518695534905e-05
Xe	8.984606770449738e-05	-8.735534914617738e-05	0.002789769464406631	-0.0062569755967131924	-0.006305193201489843	-0.0001617134564552415
2
271800
Ar	-0.0003395059114654501	-4.315209020551745e-07	0.003188214120953748	-0.00011018895050562155	0.023889482734239503	-0.0001873557595603734
Xe	1.0846426588007087e-05	-0.00012435042479441098	0.002787793050773954	-0.008875185497459843	-0.0008022619504533403	-0.00020613653752859392
2
272000
Ar	-0.0002590918156985375	0.00021916444602567895	0.0031862507097563525	0.015503170102974565	0.018170033523431932	-0.00019331870709153227
Xe	-7.332188333070289e-05	-0.00010197814353043606	0.002785876130597786	-0.007245587875574682	0.005090227892528781	-0.00018571460282620054
2
272200
Ar	-5.468248866467541e-05	0.00033378587299325415	0.003184781260868397	0.023674600405439523	0.003782741015865663	-7.29836764431063e-05
Xe	-0.000122357724307867	-3.073876569716638e-05	0.002784769445521785	-0.002139878518158017	0.008541485499752807	-5.0658455470966256e-05
2
272400
Ar	0.00017578910453169903	0.0002886784055082646	0.003184754062628384	0.02049261353294351	-0.012424938200837319	7.968347389407484e-05
Xe	-0.00011282617289934956	5.506908832532342e-05	0.002785201974190521	0.00395985257210828	0.007903627599132705	0.00012134508938842369
2
272600
Ar	0.0003219403236926328	0.00010523951916872183	0.0031863160221750316	0.007500248747440976	-0.02270615415224774	0.00021697472661031528
Xe	-4.9488633859137796e-05	0.00011447590931187518	0.002787059393795869	0.008159303609157044	0.0034720674454369153	0.00021673204417173306
2
272800
Ar	0.0003139586253532233	-0.00012823911659703706	0.003188401110829442	-0.009038741694929528	-0.022057737577203626	0.00019750319383921976
Xe	3.7385566004171e-05	0.00011888803133007569	0.002789269129173143	0.008463166996915279	-0.002615035058843256	0.0001764490564067387
2
273000
Ar	0.00015610448242286298	-0.0003002309479824623	0.0031900952174557253	-0.021216691258700408	-0.010901982490629928	9.592221432615282e-05
Xe	0.0001063809200354173	6.6411774970937e-05	0.002790411742611848	0.004757921630464535	-0.0074633399586011276	5.3865567151272086e-05
2
273200
Ar	-7.650649379990701e-05	-0.00032854657763761985	0.003190182177797515	-0.023334431343733364	0.005473537071192087	-6.533093255862944e-05
Xe	0.0001245586169665505	-1.830966077219684e-05	0.0027901145187815006	-0.0013033712775896607	-0.008777095534586457	-0.00010996916218220399
2
273400
Ar	-0.00027276450793627935	-0.0001996450301887695	0.0031887378258428855	-0.014253994464316485	0.019266289353467494	-0.00021731667910386462
Xe	8.270414087369827e-05	-9.450014528129916e-05	0.002788170369794275	-0.006704078121860111	-0.005846316294210877	-0.0002439122889545801
2
273600
Ar	-0.0003383357786798033	2.4993490581004052e-05	0.0031863538669006115	0.0017000574368094515	0.023794627978877287	-0.00025626562063943675
Xe	1.2917355573593283e-06	-0.00012557481473728942	0.0027858326475382164	-0.008918237991471602	-0.00010647816683963241	-0.00019267846974240724
2
273800
Ar	-0.00024160861022349154	0.00023734006381427288	0.0031843523502727705	0.01681759420232628	0.016914783564934067	-0.00010439742551377832
Xe	-8.097491561665983e-05	-9.655887430104182e-05	0.002784425707540522	-0.006838222175050227	0.0056647959297497245	-8.539795048306741e-05
2
274000
Ar	-2.933449274215681e-05	0.00033601805786477747	0.0031842240092830273	0.02384550333975122	0.001962061019353868	9.30918070362128e-05
Xe	-0.00012449111781707192	-2.138460635080346e-05	0.0027843493832024977	-0.0015028660038565599	0.008757068900136033	6.397760502832701e-05
2
274200
Ar	0.00019675968507729396	0.00027379730068549104	0.003185919578942897	0.019478739953249412	-0.013898185415664009	0.00023353639590203366
Xe	-0.00010837183741479396	6.411395155271401e-05	0.002785488868843849	0.004585456943011219	0.007640671782665207	0.000175741040247429
2
274400
Ar	0.0003288182912915249	8.056815155410856e-05	0.0031881623105631564	0.0057995862929332755	-0.023116796434823533	0.00020878814276397976
Xe	-4.0177814093271946e-05	0.0001190966382135537	0.002787804009130428	0.008472835192657464	0.0028942566459913845	0.0002661877285796948
2
274600
Ar	0.00030319285812369307	-0.00015102303868504304	0.0031897028725797762	-0.0106937961086726	-0.02126577681334423	9.657640241346452e-05
Xe	4.750397247360132e-05	0.00011712573321756732	0.0027900965164677546	0.008316931549540756	-0.0032693832893985614	0.00017362591217757258
2
274800
Ar	0.00013218460219541756	-0.000310427114427264	0.003189861919623024	-0.022074358889029703	-0.009295757089229644	-6.974564889433108e-05
Xe	0.00011266349610329065	5.932523382110188e-05	0.0027910688336089985	0.004153232189016758	-0.007832797989857256	-2.89997792750174e-07
2
275000
Ar	-0.0001025940367159227	-0.0003214457804792246	0.0031882762352959276	-0.022894204695531366	0.007179530942181763	-0.00021112432335113426
Xe	0.00012380183704708306	-2.6728901004219942e-05	0.0027900300015355145	-0.00200172840134299	-0.008665968057193111	-0.0001689241566929393
2
275200
Ar	-0.0002886258307772578	-0.00017857834079449184	0.00318620899649898	-0.012741109566759827	0.02019013140596742	-0.00017661771636640842
Xe	7.559818605652533e-05	-9.981113117402189e-05	0.002787880846322903	-0.007233212324991557	-0.005351349902622943	-0.00023871663689353854
2
275400
Ar	-0.00033653323302853746	4.97416283929317e-05	0.0031849048803781277	0.0035802172272757287	0.02358017398368785	-6.0477852726347924e-05
Xe	-8.87544191923694e-06	-0.00012533338345024168	0.002785565457243949	-0.00895958781621259	0.00048108929326864654	-0.00019956910129993396
2
275600
Ar	-0.00022313850050268352	0.00025467048854469854	0.0031851170702058076	0.018160477324451942	0.01567952381639501	0.00012059969593892415
Xe	-8.904749508908387e-05	-9.0745995362833e-05	0.0027841952667327875	-0.006419406653402878	0.006153269060285321	-7.531425614324074e-05
2
275800
Ar	-2.6416358775946483e-06	0.00033765337466947084	0.003186615077746472	0.024080376687734932	0.0001967857950300754	0.0001759469968441695
Xe	-0.00012687208761338545	-1.2322713599719786e-05	0.0027842653952853103	-0.0008068558229559297	0.008861233316925076	7.523563269781918e-05
2
276000
Ar	0.00021912122205433484	0.00025854482100259104	0.003188468160559212	0.018419567471154828	-0.015380736659180248	0.00015549246402998143
Xe	-0.00010391336287509345	7.207655335288769e-05	0.0027858994818346413	0.005219362020056015	0.007310252180152821	0.00024655860694352253
2
276200
Ar	0.00033576612064462004	5.5123672638027925e-05	0.0031892612613637758	0.0039318437210861396	-0.023596332670332534	2.0550606901453834e-06
Xe	-3.097332714019328e-05	0.00012187400654119528	0.0027886984986073846	0.008743433329506372	0.0022443553023539626	0.00027485444601231583
2
276400
Ar	0.000291458499125571	-0.00017500964352381142	0.0031885246345852267	-0.01240444326259379	-0.02050242617940076	-0.00012741554937905183
Xe	5.669794149189902e-05	0.00011358970030386538	0.0027908972894488656	0.008054019540279619	-0.003835846984327453	0.00014821650000550434
2
276600
Ar	0.00010752246185170044	-0.00032138352097360145	0.003187133258619185	-0.022833743685612376	-0.007564096421981351	-0.00013366973301057617
Xe	0.00011726088304975284	5.122146006131516e-05	0.002791519330906166	0.0035240032827434744	-0.00809003162663444	-3.467943438950196e-05
2
276800
Ar	-0.00012832139228402387	-0.0003140424462717783	0.003186129771725814	-0.022357046891643955	0.008993460439481427	-7.162933220289304e-05
Xe	0.0001216973945714998	-3.532828061299656e-05	0.00279032027454619	-0.0026697535232600485	-0.008500104072959527	-0.00019818635602032874
2
277000
Ar	-0.00030316325390153344	-0.0001563159931715361	0.003185835422574071	-0.01115300596170285	0.021231784419060637	2.872905663298148e-05
Xe	6.821076172674812e-05	-0.00010489868629855692	0.002788007758176722	-0.007583406782716531	-0.00483667891488711	-0.00024234287777085835
2
277200
Ar	-0.0003329814885907645	7.631560362348796e-05	0.0031862512157900783	0.005457655671204432	0.023335246446844246	6.666344347290858e-05
Xe	-1.7631603478434563e-05	-0.0001241450336182661	0.0027857292532627418	-0.008880537640946685	0.0011374142138367435	-0.00021459249932901476
2
277400
Ar	-0.0002030288022546767	0.0002722086071472943	0.003187080736886401	0.019439178879453692	0.014211879678030719	9.00090286703839e-05
Xe	-9.506794148852022e-05	-8.393999313215308e-05	0.00278434114460039	-0.005963717143488219	0.006554973855532443	-6.518371605724799e-05
2
277600
Ar	2.4396723732460455e-05	0.000337454848530237	0.0031876284943674945	0.024122995476991798	-0.0016996702105590042	3.8127608155997176e-05
Xe	-0.00012719088825865454	-3.2672328349783414e-06	0.0027843599467476917	-0.0001916569212781849	0.008881707299872777	8.760733776874092e-05
2
277800
Ar	0.00024010926405526744	0.00024089349905432906	0.003187626954731373	0.0171984135648957	-0.016804271049119166	-5.8192364402502674e-05
Xe	-9.806059404149573e-05	7.90533417202207e-05	0.002786213321053936	0.005764422932076067	0.006899478153389317	0.000265491609382353
2
278000
Ar	0.00034048951977781787	2.873758442766318e-05	0.003186697935725355	0.0020384998091701892	-0.02382133771387983	-9.010123183796058e-05
Xe	-2.159685952489845e-05	0.00012358967292803728	0.0027891869918115295	0.00888351652809936	0.001607295797888128	0.00030270192773286503
2
278200
Ar	0.0002778103818158335	-0.00019725519563893013	0.0031859967527963174	-0.014054249956854921	-0.01946509627565764	-1.9080715595139114e-05
Xe	6.514721703825795e-05	0.00010877302726096609	0.0027915909424675437	0.007723360755856652	-0.004431395193271278	0.00015653583378528178
2
278400
Ar	8.21828671313202e-05	-0.00032891843791967615	0.003186337359465245	-0.02344365847145285	-0.005759415937918099	6.463525122552005e-05
Xe	0.00012033333708693238	4.2084306160341036e-05	0.0027917693483676662	0.0028532068079226364	-0.008340328281870792	-0.00013441722775001517
2
278600
Ar	-0.00015313240479868057	-0.0003033505048124084	0.0031871764440113003	-0.021618198559690608	0.0106886361563766	9.444566335499723e-05
Xe	0.0001177426631120285	-4.448169824791291e-05	0.0027895149670653483	-0.0033475989622308647	-0.008273761785243793	-0.00028109445136068176
2
278800
Ar	-0.00031489913022273835	-0.00013230783875920144	0.0031879228213709857	-0.009369049419691768	0.02207008748197869	4.238260415294913e-05
Xe	5.8753693126213744e-05	-0.00011003533045991913	0.0027868709666496417	-0.007981272580450918	-0.004276176170971397	-0.00022958851828124013
2
279000
Ar	-0.0003253678608016426	0.00010222898553061333	0.003188015348911709	0.007369449990202101	0.02285084783162056	-3.211382423916767e-05
Xe	-2.8887568096980736e-05	-0.00012285884615156393	0.002784949513192748	-0.008805414162116906	0.001823291908385432	-0.00013886446993198744
2
279200
Ar	-0.00017958475699831228	0.0002873465243179314	0.0031873617950223805	0.020566146518692627	0.012634441413545841	-8.340504094342692e-05
Xe	-0.0001029261576302836	-7.638033446885173e-05	0.002784483358098741	-0.005371875532129277	0.007056961333872508	6.211650753468423e-05
2
279400
Ar	5.254935419890911e-05	0.0003343513870656619	0.0031863308691785206	0.02390217727504545	-0.0036536463341523976	-0.00011674799291437497
Xe	-0.00012757814469028465	7.118334428408543e-06	0.002786003850877252	0.0006663402522547763	0.008932632799679246	0.00021566773829215745
2
279600
Ar	0.00025952953505451826	0.00022058323997906461	0.003185376189119113	0.01574803192334445	-0.0181619316899734	-6.0057502892799856e-05
Xe	-9.10087628600201e-05	8.753531513774287e-05	0.002788478724119078	0.006351506720968609	0.006464966447769311	0.0002667679392072803
2
279800
Ar	0.00034231821363121546	1.042018023625184e-06	0.0031855281181797195	0.00010406437516920245	-0.023904296337183602	0.00010259561845277486
Xe	-1.120725515724599e-05	0.00012565553055498313	0.002790844346010871	0.008949877597409605	0.0008529258156402771	0.000168276434131219
2
280000
Ar	0.000261420008043186	-0.0002187678015958516	0.0031869809166356973	-0.015612908725491188	-0.01822463680899854	0.00018477572081009527
Xe	7.335162539723629e-05	0.00010354940526381392	0.0027917898099098486	0.007269506668326039	-0.005078529083075668	2.4895325125918763e-05
2
280200
Ar	5.553317303479178e-05	-0.00033378537529339447	0.003188909353735041	-0.02381600647026838	-0.0038330602920813705	0.0001537585107319036
Xe	0.00012232648913424918	3.1952096775278195e-05	0.0027911630355368327	0.0021222543742476763	-0.008639716685102895	-0.00016656370813358364
2
280400
Ar	-0.0001762930242245195	-0.00028909117073993787	0.0031898373411525286	-0.020628325471488802	0.012402547000522126	2.4322791699628034e-05
Xe	0.00011258394832299771	-5.512878271037984e-05	0.00278883761070191	-0.003998659751409334	-0.008023361024886084	-0.00027935132082278647
2
280600
Ar	-0.00032352640014106826	-0.00010575165208701298	0.0031891568297473943	-0.007567931283999283	0.02271053477421401	-0.00015355368441302851
Xe	4.870933522069053e-05	-0.00011583718354313098	0.0027861967357548467	-0.008248887014010275	-0.0035957379763808957	-0.00023138930315516897
2
280800
Ar	-0.00031538844714907373	0.00012820951973974956	0.003186981831840378	0.009131967249842148	0.0221058885661884	-0.0002543816010113809
Xe	-3.87509606057889e-05	-0.00012096523577809722	0.0027842055632190383	-0.008543576910101462	0.002593116830799358	-0.00011892739659305505
2
281000
Ar	-0.00015576783044756815	0.0003007147235337815	0.0031847873271699297	0.021450835806106554	0.010941392319874687	-0.00017538975852023452
Xe	-0.0001081870216198566	-6.821237528930526e-05	0.0027838322415390995	-0.004764714082026215	0.007532530517776428	4.932453781572828e-05
2
281200
Ar	7.843185492567952e-05	0.00032917321568942995	0.00318384815690429	0.0234363116357552	-0.00548684433146242	-3.561102313233875e-06
Xe	-0.00012595262363104291	1.7507644999289866e-05	0.0027851372697459127	0.0013666801748017082	0.008877758714452434	0.00021788629951548986
2
281400
Ar	0.00027522536116258176	0.00019992818623925241	0.003184815960667486	0.014248082370699076	-0.01929858871462687	0.00018665914676347213
Xe	-8.324030710236786e-05	9.49657344711257e-05	0.0027877316409755486	0.006824591746459378	0.005959256401874766	0.0002801674092385903
2
281600
Ar	0.00034018306132866245	-2.5183578954668108e-05	0.003187200562338696	-0.001811465888456287	-0.023819676956317412	0.00026910898165347747
Xe	-6.39969754046821e-07	0.0001271305888221766	0.0027902010865199695	0.00898079491008688	0.00021108152543143467	0.00021100769062599311
2
281800
Ar	0.00024177603496831893	-0.00023787618933871472	0.0031895133173428783	-0.017054837437978546	-0.01694503184768527	0.0001666040443917529
Xe	8.187634827699425e-05	9.856021889412664e-05	0.002791366809809998	0.00683159175726574	-0.0056585466151826405	-1.3353910918901206e-06
2
282000
Ar	2.712263995135068e-05	-0.0003368787515572244	0.0031899659204568435	-0.02407445204314272	-0.002025743368459378	-7.821240048274808e-05
Xe	0.0001253297513573466	2.312214692438276e-05	0.002790217896650521	0.0015015508240303838	-0.008828199610622943	-0.00017223996354368175
2
282200
Ar	-0.00020057920433169899	-0.0002747677504465212	0.0031883754348444844	-0.019562945410664098	0.013923198248253253	-0.0002535854256449111
Xe	0.00010904396016109105	-6.375791717301763e-05	0.0027883058685339397	-0.0046291161594727865	-0.00779809139476698	-0.0001984377923194342
2
282400
Ar	-0.0003322811143421854	-8.085865779621735e-05	0.0031854438623077053	-0.005688678141994206	0.02321272036402327	-0.00030500358464389523
Xe	4.023147599111321e-05	-0.0001203557668258814	0.0027863191536371392	-0.008555261972403775	-0.003042174031416152	-0.00014809990739493516
2
282600
Ar	-0.00030488317692645123	0.00015204537136499525	0.0031830163961902988	0.010935660020270872	0.021411914989060456	-0.0001608811414096973
Xe	-4.7930990484889416e-05	-0.00011931242836117959	0.002785270700917421	-0.008352226627343577	0.003221086079224388	-6.542482371137855e-05
2
282800
Ar	-0.0001313958511717486	0.0003124935817988385	0.0031827779640192125	0.022304846900399432	0.009331780930613884	8.433480327479363e-05
Xe	-0.0001130506800341437	-6.111391535498859e-05	0.002785573200400585	-0.00412344870721329	0.007919486061898342	0.00010473716808045154
2
283000
Ar	0.0001048945778911318	0.0003234666666078748	0.0031848135812807925	0.02296521356985359	-0.007251129306662878	0.0002959992696361716
Xe	-0.000123791360815486	2.6477067106206853e-05	0.002787362823010838	0.0020665370574853787	0.008867474229561452	0.0002405500479936301
2
283200
Ar	0.00029082410400525576	0.0001791572279964129	0.003187824238206262	0.012624091908968505	-0.020392084418662946	0.0002860835217346396
Xe	-7.525291912859792e-05	0.00010157490864960257	0.002789706476320595	0.007236677099419345	0.005539511498360447	0.0002176839601097781
2
283400
Ar	0.0003370136239384337	-5.1036799815875094e-05	0.0031901136246898377	-0.0037652409969005317	-0.02372687883581531	0.00014751408559733373
Xe	9.06691403602168e-06	0.00012816965052716496	0.002791230778157857	0.00893223304658776	-0.0004598347579747489	7.434221272023853e-05
2
283600
Ar	0.00022160944440850208	-0.0002571707342172276	0.0031904181058049715	-0.018334196619879745	-0.015719918780005736	-9.488587389098252e-05
Xe	8.89922265042897e-05	9.317004877938341e-05	0.0027909997265628864	0.006383038631062114	-0.006238077968342404	-0.0001189771006785183
2
283800
Ar	8.825347462786155e-08	-0.00034002232237814755	0.003188181940387171	-0.02411405168032959	-0.00013774359748928728	-0.00034769155450065255
Xe	0.0001263792301909367	1.3359688898352413e-05	0.00278922177606705	0.0007918193203970902	-0.009059612636470956	-0.00022417918540534678
2
284000
Ar	-0.00022128766897002504	-0.00025990149510723146	0.003184437996168212	-0.018289000774890457	0.015469454501275784	-0.000362022644317508
Xe	0.0001031191360935372	-7.32330475108928e-05	0.0027871370411524598	-0.0052406794765058095	-0.0075335563142669764	-0.00020519055671827617
2
284200
Ar	-0.0003363886322086046	-5.557507436784171e-05	0.0031820827045179615	-0.0037650344214658557	0.023689893318774167	-7.069018577930046e-05
Xe	3.0308538288235517e-05	-0.00012442991747764313	0.0027853408385159154	-0.008710187414893003	-0.0022930134083483027	-0.00014748345874685448
2
284400
Ar	-0.0002903171500487496	0.0001754938561693703	0.0031828711713108413	0.012575218752322181	0.020582389368630435	0.00020536164300632433
Xe	-5.6660170801577115e-05	-0.00011557093395679254	0.0027844146537457414	-0.007993183401778438	0.003965736718475673	-3.199450745792093e-05
2
284600
Ar	-0.00010487720143158683	0.0003225112313593924	0.003185718982182178	0.022927243227647758	0.007590438981315652	0.0003448208755834307
Xe	-0.00011657183896470435	-5.133120949317666e-05	0.0027851092467619056	-0.0034601212208732975	0.008325232368981783	0.000168170542561924
2
284800
Ar	0.00013082168688214403	0.0003148470316323445	0.003188929842165892	0.022212315358916566	-0.009073517192902163	0.0002738167542007813
Xe	-0.00012058110331861121	3.761990947779629e-05	0.0027874277079450037	0.0027020045979840607	0.008729450573793237	0.0002703249643758968
2
285000
Ar	0.00030331258639337334	0.00015587415654688414	0.0031906993871692138	0.010862795796188492	-0.02137166574682905	5.9389515567789826e-05
Xe	-6.681789991307987e-05	0.00010883245194305692	0.0027897398288884954	0.0076149691720803865	0.004918986830870966	0.0002008180001778396
2
285200
Ar	0.00033023962633436287	-7.795606001210601e-05	0.003189994209025549	-0.0056913716777781355	-0.023432028443289833	-0.00022105891054637037
Xe	1.925282433302931e-05	0.00012806795415242706	0.002791106792977478	0.00885362505559211	-0.0012422933535476738	4.146646280284015e-05
2
285400
Ar	0.0001987122890176484	-0.000274745742209074	0.0031871406886079274	-0.019522289418052573	-0.014251632821488948	-0.00031640166009701883
Xe	9.591311862450229e-05	8.600666208838188e-05	0.0027907541783622944	0.005851064067286478	-0.006811326744707798	-0.00011141788814103825
2
285600
Ar	-2.8222460385385883e-05	-0.0003398292319428594	0.0031842757663619343	-0.02397438111845464	0.0017712225616825982	-0.00023151595550683073
Xe	0.0001266373721600716	2.90347565422758e-06	0.002789120201662902	7.421046811900705e-05	-0.00906937943410111	-0.0001963113665555009
2
285800
Ar	-0.00024173106590406445	-0.00024208239644343853	0.0031830026406086584	-0.016930787472875092	0.01695664336301321	6.610879053748169e-06
Xe	9.722343480846842e-05	-8.096950003530242e-05	0.0027869847268307646	-0.005706989814239287	-0.0070203040511060385	-0.0002142171635657691
2
286000
Ar	-0.0003397304845715714	-2.8405650477541537e-05	0.0031838405549141965	-0.001830558980613625	0.02398371887499102	0.00016895322102862648
Xe	2.1484140910770746e-05	-0.00012608147101918777	0.0027852922412693183	-0.008798076747879044	-0.0016356435555602692	-0.00010092752758820834
2
286200
Ar	-0.00027531725910881683	0.00019861936583085617	0.0031860999159958117	0.014176590059585659	0.019513918341458034	0.0002505614826169871
Xe	-6.424046112751129e-05	-0.00011076162359785467	0.002785160875103075	-0.007657415116704659	0.004564216408878608	7.702438525734789e-05
2
286400
Ar	-7.920248308615926e-05	0.00033010068743474097	0.0031883069520211287	0.023413140505777585	0.005699180729737092	0.0001496247929197815
Xe	-0.00011924376300263405	-4.2131426338998604e-05	0.002786583443899884	-0.002895188451803233	0.008588801783343855	0.00018469221282899355
2
286600
Ar	0.00015463637028117588	0.0003032061099376126	0.0031890693391239877	0.021391245840193713	-0.010868140861370414	8.792526448191321e-06
Xe	-0.00011714159802707156	4.684424378588405e-05	0.0027886366282816864	0.0032992788641809908	0.008463466973008671	0.0001848553760293959
2
286800
Ar	0.000313917296101239	0.00013075121957842057	0.0031886923826589973	0.009125215318308112	-0.022193023953708636	-8.984821032718131e-05
Xe	-5.874260115854246e-05	0.00011339275965248045	0.002790127803671941	0.007894848352434324	0.004280344346093112	0.00010737677563106213
2
287000
Ar	0.0003224597813490946	-0.00010446966412973854	0.003187409985825178	-0.007485488647688276	-0.02286746667626643	-0.00012584424484916908
Xe	2.762404376229378e-05	0.00012542765061639163	0.002790616719988593	0.008679950183888301	-0.0019382947764596742	-1.2015036043834732e-05
2
287200
Ar	0.00017679261733248897	-0.0002896136834873388	0.003186246299707122	-0.02046168617681041	-0.01260277091845658	-0.0001243860920823403
Xe	0.0001006143866021056	7.736988358415927e-05	0.0027898291217085106	0.005302027965917896	-0.007252960230178322	-0.00015893584806314333
2
287400
Ar	-5.3267479464522505e-05	-0.00033628857840504274	0.0031853902424743667	-0.023617251926419648	0.0036761716127352937	-3.391630586262349e-05
Xe	0.0001251344587092847	-7.613959491847536e-06	0.002787834159524427	-0.0006143551204568759	-0.009039108425038331	-0.0002228458644995772
2
287600
Ar	-0.00025778783397988644	-0.00022192916266833797	0.0031855468289537776	-0.015543996414070714	0.018221824280212646	4.902913755788261e-05
Xe	8.957168812780826e-05	-8.871253514124916e-05	0.0027856165683527723	-0.006197487182959549	-0.006538353948993608	-0.00018181562914201663
2
287800
Ar	-0.000338443806891346	-1.3450841546376351e-06	0.003186374980187026	6.468836574901395e-05	0.024030572132023566	0.0001068883052232594
Xe	1.1176988997201128e-05	-0.00012753173614149982	0.002784567579586641	-0.008841691080325745	-0.000909965625333604	-3.50821675643983e-05
2
288000
Ar	-0.00025656873508746826	0.00021971270986847815	0.003187551344301521	0.015605708917132158	0.018338111781328634	0.00010575525981018229
Xe	-7.282010004326608e-05	-0.0001048964291026558	0.002785150300181917	-0.007254464100115374	0.0052488246563828205	0.00014473562201394637
2
288200
Ar	-5.164512194529821e-05	0.0003355615251563231	0.0031882376504194124	0.023667429684872766	0.003859182962464324	2.7683574793267727e-05
Xe	-0.00012224971095488473	-3.154911894631547e-05	0.0027870675157112843	-0.0022115665148442435	0.008834029586156878	0.00021012918498866215
2
288400
Ar	0.00017796921486250113	0.0002905972793190493	0.0031880274821021555	0.020344510518369746	-0.012472273746270978	-5.5293350243247376e-05
Xe	-0.00011330436067221482	5.731917750214083e-05	0.002789208037198754	0.003920237571165975	0.008162000654895352	0.00019303745179709303
2
288600
Ar	0.00032236041853897865	0.00010651503669291201	0.0031874398139533702	0.007323946931458563	-0.02279042226059677	-4.9994205634566174e-05
Xe	-5.026353989465856e-05	0.00011841219435247584	0.0027904870232302276	0.008153000242101461	0.003547303089404436	4.3162141334897024e-05
2
288800
Ar	0.00031268571307070745	-0.00012852362016888686	0.003186728920539209	-0.009190332675019827	-0.022231707407223668	-6.670788867803644e-05
Xe	3.623063551939477e-05	0.00012263032745699407	0.0027904426258929423	0.008444127666939758	-0.0027436236230806888	-5.215631431663298e-05
2
289000
Ar	0.0001533133299882901	-0.0003021633453469176	0.0031866182791600063	-0.02132058652241354	-0.011050014388817813	4.53670852853361e-05
Xe	0.00010505442525388488	6.829748035229151e-05	0.002789461906689748	0.004771938260341776	-0.007682629871386136	-0.00014517291040897604
2
289200
Ar	-7.954939160362974e-05	-0.00033134753900130416	0.003187147185617474	-0.023284801596931595	0.005472728839726698	5.57551419981785e-05
Xe	0.0001238147255921013	-1.8635428256009716e-05	0.0027879173282636463	-0.001215129301980884	-0.008965415029947039	-0.00014957007175560774
2
289400
Ar	-0.0002742251274101395	-0.00020153672685151535	0.0031875294251598194	-0.014050357734046604	0.019395232704383515	2.1507902533763472e-06
Xe	8.294901004807585e-05	-9.654754189234729e-05	0.0027864097038856842	-0.0066326423467676175	-0.005960419484121546	-0.00015375494884449593
2
289600
Ar	-0.00033758198987538337	2.4972916393540662e-05	0.0031874583279839636	0.0018977729803929826	0.02400885007243129	-1.7137044151578405e-05
Xe	1.8486652311214897e-06	-0.00012816570906450133	0.0027854011814993727	-0.008898813065126646	-9.265813362185516e-05	-2.2034762408597347e-05
2
289800
Ar	-0.0002390876733310817	0.00023972733968407283	0.003186928107363656	0.01696406390427561	0.017128485349422	-8.762003590285045e-05
Xe	-8.016311805285483e-05	-9.802094801091436e-05	0.0027857514319680476	-0.006842563102200444	0.005848603464246043	7.801453632800157e-05
2
290000
Ar	-2.5819339489672354e-05	0.0003395720003415418	0.0031859756530279427	0.02390810684251021	0.001978305628741118	-7.235407636363158e-05
Xe	-0.0001241218515613958	-2.0658025578238632e-05	0.0027868975421939343	-0.0015689880697768478	0.008956420851652708	0.00016153667318680466
2
290200
Ar	0.00019996835098245338	0.0002764071396198487	0.003185637761000074	0.019380931341973613	-0.014090852097849185	-4.561706421769736e-06
Xe	-0.00010863378213476634	6.651223147220396e-05	0.002788609243476897	0.004510534885280546	0.00774747764934158	0.00015809061861275024
2
290400
Ar	0.00033026593010096234	8.094177672620135e-05	0.0031860806276527483	0.0056130479898803985	-0.02337777328570598	0.00010347999123086254
Xe	-4.110754816699409e-05	0.00012175006394479773	0.002790026659002185	0.008428779370952466	0.0028452395306413536	0.00012976128706436793
2
290600
Ar	0.0003029930512059478	-0.00015334307575593984	0.003187008583806471	-0.010851279253296216	-0.021505526588188537	8.859155405838753e-05
Xe	4.60783877658549e-05	0.0001190453672266921	0.0027908207047818764	0.008285086772501475	-0.0033941169191119666	1.2807778576993676e-05
2
290800
Ar	0.00013079672349217714	-0.00031400369294605246	0.003187938250158108	-0.022131179723152514	-0.009272139913268381	7.931344668348434e-05
Xe	0.00011086084003699887	5.951463753388998e-05	0.0027903009112125025	0.004134396034500537	-0.008005173724585238	-0.0001198572576106616
2
291000
Ar	-0.000103856694633579	-0.00032396874707687963	0.0031881941301625484	-0.022825389652706585	0.0073441748463423575	-2.7223023252519085e-05
Xe	0.0001222244505494447	-2.8081977077113595e-05	0.0027886601386049024	-0.001973005066675922	-0.008784930987982565	-0.00017415932393316077
2
291200
Ar	-0.0002888262868504853	-0.00017867862752164496	0.003187515462475292	-0.012600159426895364	0.020487472682496708	-0.00010794373332438928
Xe	7.48154598595968e-05	-0.00010229410910237247	0.0027867918122089622	-0.007132999353180228	-0.0054249446308421035	-0.00016632434801308057
2
291400
Ar	-0.0003354198824462105	5.24743967954256e-05	0.0031865483079781083	0.0036798045314824462	0.02379280976038075	-8.445378576628739e-05
Xe	-8.8706000172336e-06	-0.0001274499728333288	0.0027856192477082125	-0.008905140105341417	0.0006027324232662798	-6.57325117040983e-05
2
291600
Ar	-0.00022101904836914303	0.0002585556553902088	0.0031858210633053216	0.018222603240689476	0.01566975686489065	-4.483887206809111e-05
Xe	-8.871858576699731e-05	-9.162798722599893e-05	0.0027856877658621413	-0.00637253458944848	0.006280771841058907	7.330289409464192e-05
2
291800
Ar	-7.59048858084232e-07	0.0003403494755540112	0.003185479114266833	0.023996899238656482	1.4430018552722762e-06	3.700066610294998e-08
Xe	-0.00012586417472698264	-1.2158487634151e-05	0.0027869126059490565	-0.0007729344196727608	0.008966667824349446	0.00015153969270911467
2
292000
Ar	0.00022004405696778755	0.00025859485390023303	0.0031858569113007557	0.01832571961542824	-0.01565042626294515	8.813808665609849e-05
Xe	-0.00010303981178735	7.28544985286582e-05	0.0027888498865984174	0.005154766214310182	0.007338822227102567	0.00018766028855360655
2
292200
Ar	0.0003357757009253672	5.278971497084316e-05	0.003186853358843874	0.0038541738906759967	-0.023773487675742833	0.00010306608576579913
Xe	-3.117427410664486e-05	0.00012281610394075833	0.002790309090154163	0.00862423911946404	0.0022671026853325936	0.00011534455198256221
2
292400
Ar	0.00029065811761053487	-0.0001783154055827874	0.003187665059147099	-0.012511459555558104	-0.02049637354213497	4.379209315372254e-05
Xe	5.514463667577141e-05	0.00011422506236409585	0.002790851602852703	0.007928583667230281	-0.0038949050975402326	7.841681444995877e-06
2
292600
Ar	0.0001062724377763122	-0.000323819056522218	0.003187675222718336	-0.022842150922455614	-0.007389735288816725	-5.871135372636776e-05
Xe	0.00011468052896370753	5.085819086042133e-05	0.0027903347491760743	0.0034799396910148673	-0.00821118407298107	-0.0001164939335102363
2
292800
Ar	-0.00012892931697742818	-0.00031427092953677206	0.003186938227460043	-0.022239820188967387	0.00922071450725211	-0.00011357141095568211
Xe	0.00011933203619794044	-3.6887696397256126e-05	0.0027885492482421274	-0.0025929478872763925	-0.008586062434844504	-0.00021310105084033234
2
293000
Ar	-0.0003022270207975153	-0.00015419185714454978	0.003186049653394452	-0.010968778886508358	0.021450613800085075	-4.586850052360712e-05
Xe	6.656930676869929e-05	-0.00010698510608551944	0.002786257560223002	-0.007502983049061094	-0.0048282025788647905	-0.00022358965807470573
2
293200
Ar	-0.0003304646395948745	7.972477909691942e-05	0.0031861430034342956	0.005546090740994973	0.023361063503709655	2.3450041703930474e-05
Xe	-1.8326343234415547e-05	-0.0001258667663203387	0.0027849218827394194	-0.00875226401290344	0.0011954051374933007	-4.0042754447772546e-05
2
293400
Ar	-0.00020026506923448548	0.00027510258230283377	0.0031865164798814288	0.01940322902644112	0.014081735467072741	4.488448190064981e-05
Xe	-9.442451365014193e-05	-8.454856227516762e-05	0.0027852713080931996	-0.005824434632838188	0.006723870599146169	0.00011216814016465164
2
293600
Ar	2.5904752434867987e-05	0.0003383654327368286	0.003186571210846721	0.023930794499071185	-0.0019548571350474597	-1.4971780768331858e-05
Xe	-0.0001252402483665269	-2.3203306768373416e-06	0.0027868174108158328	-8.25106101116771e-05	0.009024282795848772	0.0001972322461614905
2
293800
Ar	0.00023950951797591279	0.0002393401967434976	0.0031864021729161515	0.017016507155217634	-0.017002646145087053	-2.162408771649311e-05
Xe	-9.592826004475959e-05	8.097930654646645e-05	0.002788617216284214	0.005699033397884199	0.006944792735660905	0.00014489040556557624
2
294000
Ar	0.0003386696743761295	2.5654857514552803e-05	0.0031864652962457643	0.0019743438404040523	-0.02395547228760541	5.3328062450604165e-05
Xe	-2.0646811696798275e-05	0.0001252920730292053	0.0027897512432061415	0.008719883428932856	0.0015605909845849244	8.929634483830741e-05
2
294200
Ar	0.00027566354206297344	-0.00020083801067065195	0.0031871473581324204	-0.014042799910181042	-0.0194441864274242	5.608409956513679e-05
Xe	6.433607696912027e-05	0.00010947302958661496	0.0027900648088589495	0.0075782775263610385	-0.004585262927724853	-2.0919712643092708e-05
2
294400
Ar	8.084151709399065e-05	-0.00033157628309100147	0.0031873156845690634	-0.023283758963692548	-0.005582131862455526	-3.1990683686146065e-05
Xe	0.00011847397900515837	4.1283280369250234e-05	0.002789440692266914	0.002792939576003281	-0.008469946827322331	-9.092668244137293e-05
2
294600
Ar	-0.0001524663998449162	-0.0003034365143014796	0.003187002559330099	-0.02141762024838399	0.010993816070616001	-6.10420896569242e-05
Xe	0.00011593016460793852	-4.613354188320926e-05	0.0027879002791039572	-0.003281659700571909	-0.00830865893695971	-0.00019808343650699696
2
294800
Ar	-0.00031272924435583817	-0.00012981793281988452	0.003186341789697514	-0.00929179952290064	0.022284319573311177	-3.9026819088855676e-05
Xe	5.7986211773556174e-05	-0.00011146959175557816	0.002785904098508268	-0.00782492178927917	-0.004185154098751785	-0.000190530503774643
2
295000
Ar	-0.00032321928955725976	0.00010610312281761138	0.0031862094775322643	0.007296557429796444	0.022914340719726946	1.4606283175514903e-05
Xe	-2.802726401692035e-05	-0.00012307541624806656	0.0027845480964829306	-0.0086426566251961	0.0019540234249118375	-5.9529933084271604e-05
2
295200
Ar	-0.00017837744298216215	0.0002907639468278777	0.003186506299251804	0.020456482989826576	0.012494014659193454	4.2511166760204346e-05
Xe	-0.00010076463934700287	-7.544135266174604e-05	0.0027850829041785766	-0.005314117845195731	0.007177896477991296	0.00016455424844036458
2
295400
Ar	5.218505363728752e-05	0.0003356324983096976	0.0031870608681951506	0.0237294877191859	-0.0038962341852342877	4.876096482971512e-05
Xe	-0.00012517708825294483	8.726476714968135e-06	0.00278718186950601	0.0006145330671204854	0.00894837606907532	0.0002364487823065062
2
295600
Ar	0.00025758052188218464	0.00021940453764972677	0.003187646261709677	0.015639146324096756	-0.01836513198102696	7.278452787824848e-05
Xe	-8.952049408596833e-05	8.895745566692468e-05	0.0027893245422936108	0.006210980378297178	0.006417243245772725	0.0001938954181010397
2
295800
Ar	0.0003397696699949288	-1.8135128696183426e-06	0.003188311992184715	8.941237052447425e-05	-0.02403716491209406	4.005556233337435e-05
Xe	-1.0854801825523598e-05	0.00012644729976217333	0.002790422270720298	0.008833534594577563	0.0007699891954472128	2.494650527290892e-06
2
296000
Ar	0.00025934133840546333	-0.0002221275575777033	0.0031884371070489727	-0.01549885156053879	-0.018170973907755485	-1.616883058291812e-05
Xe	7.286151121535264e-05	0.0001030014762129801	0.002789704627896502	0.007228513278916302	-0.005274167833837038	-0.0001242418173246222
2
296200
Ar	5.476327263448535e-05	-0.00033602867873863365	0.003187756211632486	-0.023700357809592627	-0.003639744206689594	-0.00010661554004043289
Xe	0.00012194186990565901	3.0022486650143497e-05	0.002788490513362342	0.0021752681317567177	-0.008728782388776694	-0.00011775270066356365
2
296400
Ar	-0.00017595420482920105	-0.00028900952246465206	0.0031866880982081795	-0.020515552847375006	0.01265854779755272	-8.953732354561713e-05
Xe	0.00011276042410597814	-5.728413960622145e-05	0.0027870749272776436	-0.003936319774527842	-0.007989289088755305	-0.00013107136038694126
2
296600
Ar	-0.00032227869298185794	-0.00010330115249271621	0.0031861355696677037	-0.007510772731586325	0.02290077122396418	-3.096011135588812e-05
Xe	4.938070227500903e-05	-0.00011694544192117477	0.002786023397548019	-0.008202199881370859	-0.003427704165103376	-7.68669996576943e-05
2
296800
Ar	-0.0003142064406446024	0.00013198003200262003	0.0031863879075151856	0.009091466526258038	0.022160877571233716	4.8583409747264586e-05
Xe	-3.773451566301839e-05	-0.00012035328466119349	0.002785571346442351	-0.00848395950069787	0.002768043868923803	-1.2171348792642854e-05
2
297000
Ar	-0.00015513549754963548	0.00030365274204746597	0.0031869048856975157	0.02137674515164139	0.010744609471094575	4.3927009986011924e-05
Xe	-0.00010694813501894059	-6.60615720575233e-05	0.002786032873837692	-0.004774047348241277	0.0076508840602604435	9.477114044917013e-05
2
297200
Ar	7.838604823756123e-05	0.00032979908837714526	0.00318730746688588	0.023369400157349982	-0.00572577437382023	4.1347029446713e-05
Xe	-0.00012538020887828977	2.0189805355472597e-05	0.0027872686384082914	0.0012309381107349182	0.008865119485375958	0.0001310845129273577
2
297400
Ar	0.0002743328512272648	0.00019810349280915767	0.0031878862574441806	0.014181865173006814	-0.019509259924895814	4.528598052289455e-05
Xe	-8.389205784015133e-05	9.688045204772374e-05	0.0027885813853612243	0.006695884638403243	0.005821031347765093	0.00010523706052464329
2
297600
Ar	0.0003390615110648719	-2.848158777346262e-05	0.0031879463597581574	-0.0017803720413656619	-0.023932432867738766	-2.279422578479566e-05
Xe	-2.1309442243585267e-06	0.00012721193108946078	0.0027892874334088597	0.00897510886024149	9.281378019772692e-08	5.178789983174934e-05
2
297800
Ar	0.00024147499581841182	-0.00024143758270177976	0.003187136653995023	-0.016904466383904155	-0.0168919496970812	-0.00013973182065822232
Xe	8.0849282438459e-05	9.680330505658405e-05	0.00278950130826916	0.006920711242809125	-0.0058532639719410156	-1.4752876180407561e-06
2
298000
Ar	2.8528096338934973e-05	-0.00033861894675828863	0.003185902839929273	-0.02391424872197511	-0.0017358651767182991	-7.050820419997344e-05
Xe	0.0001251687642199295	1.9672869688949665e-05	0.002789054462596638	0.0015868062737406524	-0.008895625595691755	-9.5630043829462e-05
2
298200
Ar	-0.00019814115932966284	-0.00027348030291301617	0.003185913544631459	-0.019511404801712984	0.014205499715558735	6.474917966841068e-05
Xe	0.00010977052533164284	-6.645520968943265e-05	0.002787793138635765	-0.004530916727007441	-0.007603775200392912	-0.0001208484723017598
2
298400
Ar	-0.00032995114272810243	-7.737688845438443e-05	0.0031868066152166198	-0.005722773583441485	0.02336897799852269	0.00010825416136923657
Xe	4.1933877927529306e-05	-0.00012039683695296752	0.0027867071258416776	-0.00850333674627495	-0.0027385513443347956	-9.031306948392041e-05
2
298600
Ar	-0.00030351351988242936	0.0001560444395701049	0.003187759244916326	0.010771288711742592	0.02132367615379334	5.487125649311871e-05
Xe	-4.629550072894506e-05	-0.0001166229820193949	0.0027863959376546103	-0.008411307585322474	0.0034614583306120028	2.5952605558922395e-05
2
298800
Ar	-0.0001317502356259701	0.0003143345324600935	0.00318791348087589	0.022115694840514566	0.00902223504590749	-2.113884975982418e-06
Xe	-0.00011247897754979114	-5.670827481602806e-05	0.0027870320223814323	-0.004264169380180549	0.007997873905581612	9.121014671979667e-05
2
299000
Ar	0.00010304642994455788	0.000321799257870936	0.0031875560160505474	0.022887904349215477	-0.007598070175366346	-6.715063317608477e-05
Xe	-0.00012462533142088342	3.0576863426855316e-05	0.0027878824548262814	0.0019365116834718077	0.008712686193754584	7.060474725178133e-05
2
299200
Ar	0.00028861860100066805	0.0001750629297783741	0.003186970008939731	0.012674218501401576	-0.020535386961813687	-4.251591791989141e-05
Xe	-7.716337150626274e-05	0.00010330518539900794	0.0027884918621993104	0.0071571722917532655	0.005218556925849068	4.5503213538516006e-05
2
299400
Ar	0.00033597430925172574	-5.565527725453574e-05	0.003186496404419299	-0.003616568253431231	-0.023661035565818677	-6.636321293310434e-05
Xe	7.0887396886900705e-06	0.00012630372646395393	0.002789001804406542	0.00900125864937377	-0.0007931904457680127	4.470534614124109e-05
2
299600
Ar	0.00022236812411082573	-0.0002597269828537164	0.0031860235507568608	-0.018158136019234147	-0.015452302519902506	-4.064605214609464e-05
Xe	8.795233679890004e-05	8.871824568574826e-05	0.0027892438185085117	0.006471498427941479	-0.00641588497980079	1.2044093420741192e-05
2
299800
Ar	2.2540522883555708e-06	-0.00033984781709808413	0.003186208135438999	-0.023996890432742713	0.00011163580820727834	6.573428339808509e-05
Xe	0.00012624444876211787	8.868620386662026e-06	0.0027888386911983625	0.0008879349232297534	-0.00890433910912092	-8.748353648612153e-05
