2
0
Ar	-1.0544617415846616e-06	2.818040544522128e-06	0.003224905225701607	-0.0002065426713236452	-0.0004498336567220494	-0.0002458340772632613
Xe	8.29387239604676e-07	1.5660903648547152e-06	0.0027435220862447097	-7.51498209068455e-05	-1.1040349698879066e-05	3.363354813723562e-05
2
200
Ar	-2.6668257217928314e-06	-1.9234775215364687e-06	0.0032228351797911	-0.0001187857731389118	-0.0004650869812301236	-0.00012633832381638984
Xe	1.8039290776387968e-08	1.0048977076789329e-06	0.002743643271533381	-7.634624824147897e-05	-7.8570673052569e-05	-4.966131924143464e-05
2
400
Ar	-3.170954261514782e-06	-5.833648820450264e-06	0.0032225683519780633	3.217261159031212e-05	-0.0002797257501490928	6.626657381301615e-05
Xe	-5.851895993999178e-07	9.482169204897859e-08	0.0027423731097718103	-4.727355216876416e-05	-0.00010338966192215067	-0.00017431472762763673
2
600
Ar	-2.1047141032286294e-06	-7.257800295783175e-06	0.0032240959991774883	0.00016754984009307095	1.3818973186118843e-05	0.00018706291639387538
Xe	-7.099911289716113e-07	-7.12205313648444e-07	0.002740693483867169	1.5810118312202818e-05	-3.084025519463122e-05	-0.00013612885391243694
2
800
Ar	-6.42719610477851e-08	-5.336637332596762e-06	0.0032257065585834135	0.00021890490542236451	0.00033871751816077594	0.00010758400459893617
Xe	-3.7589790586632073e-07	-6.810839689858497e-07	0.0027401720864113264	4.3158682721600386e-05	3.4404397300106406e-05	4.0110354221460676e-05
2
1000
Ar	2.047418091104328e-06	-9.903426502538947e-07	0.0032258942816510467	0.0001994379047505168	0.0005015068915156702	-2.9017614770922886e-05
Xe	3.194321951561173e-07	5.3676676454018534e-08	0.0027415471814206884	5.458795849876323e-05	9.846192925662188e-05	0.00020978737316791388
2
1200
Ar	3.1642456020454808e-06	4.038973894480224e-06	0.0032252561995061244	4.494875942235533e-05	0.00044821806508306026	-8.081326049082855e-05
Xe	6.736926796887804e-07	8.933332330257298e-07	0.00274394804970821	3.476992175493613e-05	7.627456698335242e-05	0.00023807628286469037
2
1400
Ar	2.8913364895638045e-06	7.020480220788809e-06	0.0032244195166927616	-8.355478903853849e-05	0.00013560864412239527	-5.337470029647384e-05
Xe	8.217988100758155e-07	1.3171247591592631e-06	0.002745725877007493	-2.517115564288318e-06	9.701940503048675e-06	9.797715925374348e-05
2
1600
Ar	1.4888624382666292e-06	6.592453826924178e-06	0.0032244364849115963	-0.00019477132198121211	-0.0002002990153602599	3.9957410347589496e-05
Xe	4.857655497162647e-07	1.270152439545974e-06	0.002745398884012571	-5.1536393626878734e-05	-4.118714279043235e-05	-0.00014435740090674114
2
1800
Ar	-5.808695264316853e-07	3.267229985526849e-06	0.003225134524854948	-0.00019725329388811373	-0.0004591151501070131	5.61564556075926e-05
Xe	-4.27947624122923e-08	5.001712237526789e-07	0.002743244358139662	-3.1432690002520235e-05	-9.484967962088793e-05	-0.0002571674898365249
2
2000
Ar	-2.2718184135186855e-06	-1.6481044354185239e-06	0.0032255920792781186	-0.00012671041139900477	-0.00046274930944485763	2.126732744095646e-05
Xe	-1.404166718355323e-07	-5.958561706767475e-07	0.0027409918389883717	1.462320309034121e-06	-9.577583107050878e-05	-0.00015248100095932257
2
2200
Ar	-2.8506141032096393e-06	-5.645175855471087e-06	0.003225134265839424	1.0547138327471863e-05	-0.0002821479751946278	-0.00010441418041963162
Xe	1.4768607662685597e-07	-1.3807575649615315e-06	0.0027402394103268634	6.836244925742855e-05	-6.619037979032488e-05	1.3261219207540854e-05
2
2400
Ar	-2.2216798245642247e-06	-6.826878302821903e-06	0.003223817001169355	0.00010956050716091399	4.270688184940603e-05	-0.0001408021456595839
Xe	6.892256505466838e-07	-1.3716180598863953e-06	0.0027411944551029065	2.871468655156554e-05	4.140066250193913e-05	0.0001749827921930682
2
2600
Ar	-9.787264825433587e-07	-4.539768763786806e-06	0.003222898548007627	0.00013117287596118687	0.0003610358078901012	-1.4993740226371239e-05
Xe	8.098724701806691e-07	-7.429739452838317e-07	0.002743032900004111	-7.872477183255399e-06	7.176058099554355e-05	0.00016777162044806477
2
2800
Ar	6.33718864618535e-07	-1.3712884041054582e-07	0.00322372569905317	0.0001520491066350185	0.000470434932697621	0.00015438402541363943
Xe	5.008301026849626e-07	-5.232061995167283e-08	0.0027443831995321495	-5.7423126322055784e-05	6.529727510924435e-05	9.387335431749665e-05
2
3000
Ar	1.7749628766136925e-06	4.1114999237747465e-06	0.003225670895373835	7.565322091249724e-05	0.0003579954350918397	0.00020706319216683378
Xe	-1.3216552238032296e-07	5.50828860310883e-07	0.0027443347103461206	-6.286132846240922e-05	7.85068360580113e-05	-7.94598948957808e-05
2
3200
Ar	1.984767739690418e-06	6.657912246034453e-06	0.0032272107087889983	-1.3356058797577134e-05	0.00013392478904513763	7.860887296960322e-05
Xe	-6.277406463090607e-07	1.100180910333739e-06	0.0027434506756242837	-5.376407457047444e-05	2.8239555757504512e-05	-0.00011659553135406894
2
3400
Ar	1.4242277750712875e-06	6.336681811573783e-06	0.0032270511915518216	-6.140094589476195e-05	-0.00019227316030891612	-0.00011867898271488445
Xe	-9.483131703438639e-07	1.1183149325731746e-06	0.002742295009909775	-2.039248580182305e-05	-2.8435479076661206e-05	-8.049744409608171e-05
2
3600
Ar	6.535726947867657e-07	3.2545469498976253e-06	0.0032248316762173083	-9.846508196519853e-05	-0.00039572707485984983	-0.00029581402265686053
Xe	-9.161549099474542e-07	4.3132818696447943e-07	0.0027419986882579444	-7.648047456199663e-07	-9.210322188321221e-05	6.82367511767072e-07
2
3800
Ar	-2.5153903584413036e-07	-8.996147096135516e-07	0.0032224638742419905	-7.792053049256622e-05	-0.0004185192342266471	-0.00015726224167618997
Xe	-6.024726132933052e-07	-4.6892340297744066e-07	0.002742320031802113	4.9955452918020585e-05	-6.640206062087307e-05	3.944802517537328e-05
2
4000
Ar	-1.0234284932690163e-06	-4.301401507723073e-06	0.0032221313032539988	-4.9844777396871864e-05	-0.00023603805752807645	0.0001057571639001167
Xe	-1.410184684916742e-08	-9.949647797590673e-07	0.0027427885071480244	6.790383398885393e-05	-3.6173500131217474e-05	3.540674349008215e-05
2
4200
Ar	-1.3280695915426135e-06	-5.4716932377970194e-06	0.003224280672215297	-1.2313380518632609e-05	-1.4476896342993687e-05	0.0002992807138445005
Xe	6.369661382648403e-07	-9.884976638115326e-07	0.0027428240252868876	5.5516400242825273e-05	2.803291979279969e-05	-1.850538093401155e-05
2
4400
Ar	-1.2558838226593672e-06	-4.479936542438342e-06	0.003226991962674968	3.023390014957758e-05	0.00022200162457446579	0.00019770738920665693
Xe	1.015934895279159e-06	-3.4119715664286467e-07	0.002742693074043749	2.3832959835007107e-05	7.907303419208488e-05	-3.001079353918717e-06
2
4600
Ar	-6.136560249122648e-07	-1.4120202508117589e-06	0.003227663840282321	7.069619858503988e-05	0.0003676634028143879	-5.721024544857681e-05
Xe	1.1434479497549536e-06	4.105021158719868e-07	0.0027426848268027482	8.018308058464253e-06	5.358958110766441e-05	1.3465778361581711e-05
2
4800
Ar	2.2386537636468984e-07	2.1011345998427316e-06	0.0032259926548084787	9.725546642391645e-05	0.00030639455222099504	-0.0002461528585534976
Xe	8.948310774826107e-07	8.564168459684399e-07	0.002742967301174166	-4.2618038971259804e-05	3.842304341223414e-05	4.522006361316975e-05
2
5000
Ar	8.280559170061665e-07	4.401981932900957e-06	0.003223562327409956	5.0945192094146167e-05	0.0001262861373723197	-0.00022330407402703113
Xe	4.898502079305398e-07	1.0027600904572938e-06	0.0027432824473810273	-5.217255248344424e-05	-1.4130676761320912e-05	1.038765034692673e-05
2
5200
Ar	8.678443570460039e-07	4.310669878646081e-06	0.0032221835692066232	-3.9006001406640875e-05	-0.0001314874989861758	-3.715688027055152e-05
Xe	1.1659086105533186e-07	6.511713361729049e-07	0.0027430766094413135	-2.908657815761288e-05	-3.0319910699807808e-05	-5.724549743580178e-05
2
5400
Ar	3.431828585698754e-07	2.237135291839947e-06	0.0032228744146019276	-6.094377850291325e-05	-0.00026338219950742154	0.0001688630720082676
Xe	-8.928702277757992e-08	1.8910275802127005e-07	0.002742418723114144	-3.250915630912053e-05	-6.623142588549231e-05	-5.420279728489945e-05
2
5600
Ar	-9.567612891012866e-08	-8.383412153435035e-07	0.003224985838071708	-3.8756406267911144e-05	-0.0003242369703065565	0.00023082121377319747
Xe	-4.353189185081258e-07	-5.183056691207701e-07	0.0027420971661034532	-1.971303703731609e-06	-7.050532316621674e-05	-2.2808323503509817e-06
2
5800
Ar	-2.4245289682659703e-07	-3.6644813056597816e-06	0.0032265703804015477	9.101094514939476e-06	-0.00020986246372141826	6.626427021753052e-05
Xe	-3.1321177732960627e-07	-1.0446432158637626e-06	0.002742521652249812	2.629749710227506e-05	-3.72569072541442e-05	7.199494515091539e-05
2
6000
Ar	-1.6011418820259238e-07	-4.636127086643247e-06	0.0032264459043741455	-5.864087513687848e-07	3.776009215173684e-05	-9.52935112048776e-05
Xe	-3.153231237218054e-08	-1.3282765890411228e-06	0.0027432141546557794	3.609307490516623e-05	-3.2192816718003895e-05	8.054167831214457e-05
2
6200
Ar	-2.1287332722943446e-07	-3.1813198553636686e-06	0.003225028132995234	-3.451906538164904e-06	0.0002342835236242924	-0.0001668838595086409
Xe	1.6063683493322193e-07	-1.3652702093498976e-06	0.0027438728698058273	3.3154766925687834e-05	-7.46544387578478e-06	1.0159268246837492e-05
2
6400
Ar	-1.6542451913942842e-07	-5.336405934594511e-07	0.003223707249483199	1.979041637601282e-05	0.0002843934235066416	-0.00010862246656675451
Xe	6.504468904305493e-07	-1.0697637660209528e-06	0.002743246687163049	5.5420977471570917e-05	7.385845561356785e-05	-0.00011791857400509644
2
6600
Ar	2.521592152699345e-07	2.1519028595907724e-06	0.00322353551562892	5.9912652563011065e-05	0.00021253663395981735	4.5851361632011377e-05
Xe	8.026924392929568e-07	-3.6625915345521805e-07	0.002741822635014673	-1.3717213685139003e-05	6.772854783637179e-05	-0.0001516665002316871
2
6800
Ar	7.837848829334513e-07	3.790380935140228e-06	0.0032243618038760974	9.75028725770148e-06	0.00010570598909968846	0.00010910989691663303
Xe	4.3607579873700615e-07	2.4537757649544417e-07	0.002740668986137817	-4.254643504111964e-05	4.788209588135594e-05	-4.5401304167448134e-05
2
7000
Ar	6.862440075601516e-07	3.936650667764264e-06	0.003225101152014319	-7.259647822228403e-06	-6.69653353230888e-05	3.5964094859101744e-05
Xe	-1.1050182677912815e-07	5.187743697705543e-07	0.002740914914430589	-6.180087731937164e-05	6.590325417309826e-06	8.253685867370284e-05
2
7200
Ar	4.914696486787421e-07	2.5287736318079754e-06	0.0032249419137640235	-3.487359799438721e-05	-0.00021104569677241338	-5.339358955680361e-05
Xe	-8.150189021709248e-07	5.157202347864265e-07	0.0027424407546730476	-5.52414306577233e-05	-3.620716322844366e-05	0.00018244974572455099
2
7400
Ar	1.702858136980556e-08	-1.339423137446562e-07	0.0032244760747530375	-5.012205126915144e-05	-0.00028340514067868927	-1.9463420613407588e-05
Xe	-1.3380383689826344e-06	5.2788363971970905e-08	0.0027437867546526596	-2.3388040119293216e-05	-5.119244413325693e-05	8.73382168686032e-05
2
7600
Ar	-3.616363244012811e-07	-2.464103859437265e-06	0.0032244638493107193	-1.131785337073906e-05	-0.00014151491114623187	2.9933425115712703e-06
Xe	-1.4882245843797365e-06	-4.150821129987598e-07	0.002744232027602828	-2.328169884627358e-06	-5.465555965009872e-05	-9.442966134197705e-06
2
7800
Ar	-1.8793347243680307e-07	-3.2292056621573312e-06	0.003224714943794216	4.0855004774941714e-05	9.830465507914316e-06	4.647445788561223e-05
Xe	-1.1251214595367767e-06	-6.627176992662246e-07	0.0027433706784640065	8.982092414642225e-05	2.5071279898045822e-05	-0.00012018302653548683
2
8000
Ar	1.1299351954670203e-07	-2.252030768811463e-06	0.003225144525395313	2.7124121537608167e-05	0.00016189292350129593	3.037171842185793e-05
Xe	7.726979064161772e-09	-2.8564130979434737e-08	0.0027421787598637176	9.84518491699032e-05	0.00010293992024918177	-9.897909367287268e-05
2
8200
Ar	3.550530935120472e-07	-3.799757675887925e-07	0.00322520756763442	2.507625354147281e-05	0.00019499723241583685	-2.0422848996143985e-05
Xe	9.706384245472133e-07	1.0723188634709586e-06	0.0027412819488920382	8.84597713162574e-05	9.170774660694152e-05	-6.345047530552393e-05
2
8400
Ar	5.71023174930793e-07	1.3909506639298429e-06	0.003224823113012244	6.833769493115345e-06	0.00014189924836277207	-2.8385390590089365e-05
Xe	1.5194763250769237e-06	1.5888452649314718e-06	0.002741200873085943	1.76829147050174e-05	2.0669945025617536e-05	5.452267907984648e-05
2
8600
Ar	5.623629120736256e-07	2.255389552080158e-06	0.003224563619103292	-1.5125417340533448e-05	3.1986776679098065e-05	-1.9256487831127578e-05
Xe	1.2951723964430219e-06	1.4863276842101621e-06	0.0027421690181006547	-5.760682409558828e-05	-3.4541609601395154e-05	0.00012010652002866997
2
8800
Ar	1.8108869738271376e-07	1.765120424596829e-06	0.003224301008370199	-5.332535647592628e-05	-0.00010892625436372703	-4.92666839202322e-06
Xe	4.857570227407863e-07	6.848702164527024e-07	0.0027434323837047907	-9.84958758219556e-05	-0.00011702038317728259	0.0001174274411288418
2
9000
Ar	-2.3205243663665652e-07	6.673165552280225e-07	0.0032245467821290226	-3.434298431194778e-05	-0.000112577563201841	4.632432006796056e-05
Xe	-5.642243658975501e-07	-4.4320099767546093e-07	0.0027440597638115514	-0.00010235751491235702	-0.00011035544739722635	1.6900421343883397e-06
2
9200
Ar	-3.7337712661739964e-07	-3.397851053114338e-07	0.0032251390908979243	1.6887046609792072e-05	-9.388190305281561e-05	5.681835710115667e-05
Xe	-1.507100862804236e-06	-1.7026722195832535e-06	0.0027439654230144786	-6.495532439244656e-05	-0.00012048268065563261	-3.007442224660283e-05
2
9400
Ar	-9.548314017399601e-08	-1.0081376773155002e-06	0.003225542596763965	4.545456690028356e-05	-1.8097358861688907e-05	2.3379625598396337e-05
Xe	-1.7703053966710048e-06	-2.3178522363452454e-06	0.002743459971258852	-7.698932816901532e-06	-7.190975865365789e-06	-6.177374840888984e-05
2
9600
Ar	6.54809909051692e-07	-9.396522312713065e-07	0.003225444050113337	9.655861640613548e-05	5.785017299407214e-05	-4.381499755910807e-05
Xe	-1.4683798001654624e-06	-1.926363381503967e-06	0.002742726105051931	6.689068410208458e-05	8.534678356871377e-05	-9.776075174782759e-05
2
9800
Ar	1.4859334368773298e-06	-1.103713989400935e-07	0.0032245512250917274	6.331731920590443e-05	8.443470036391987e-05	-0.00011932309603935494
Xe	-6.580850135330463e-07	-8.229083358063741e-07	0.002742070391157899	8.84846227786145e-05	0.0001353108135071419	-3.846446139570316e-05
2
10000
Ar	1.8410290602062377e-06	5.727186549846227e-07	0.003223552578989336	5.74286243171133e-06	6.206783107391105e-05	-6.298616054610032e-05
Xe	2.691418647248146e-07	5.959597059917881e-07	0.0027419265183285177	0.00010929936115338417	0.00012235021984320142	-5.868697421942563e-06
2
10200
Ar	1.517832167802845e-06	8.388347407389673e-07	0.0032233803505139482	-5.3454855979273356e-05	-1.703203274739022e-05	4.738232715245524e-05
Xe	9.927415194361421e-07	1.6668637998388628e-06	0.0027419478434191854	3.446007071800079e-05	8.106288976790081e-05	1.09608154349325e-05
2
10400
Ar	7.307811555787066e-07	3.55184953551215e-07	0.0032241807971145975	-0.00011477431365991249	-7.188805649706951e-05	8.785096444260233e-05
Xe	9.385363207883924e-07	1.9725986707020976e-06	0.00274206712851701	-4.050519485777822e-05	-3.1384856552201695e-05	4.545215023791791e-06
2
10600
Ar	-5.491805057624424e-07	-4.456942496045297e-07	0.003224926131731042	-0.00011708425293842927	-9.334619437362063e-05	5.452520819438813e-05
Xe	3.83076705046992e-07	1.2061103079870888e-06	0.002742081179686207	-7.141981775159009e-05	-0.00010723003284530552	2.764236528990497e-05
2
10800
Ar	-1.7038824529892836e-06	-1.1657143472121089e-06	0.003225193727420498	-8.870355982870606e-05	-3.357294680589491e-05	-7.58786465775054e-07
Xe	-1.7965582622853739e-07	-1.6487494373866488e-07	0.0027424878672093283	-4.159343869553467e-05	-0.0001356961146051532	6.400995489141269e-05
2
11000
Ar	-2.3512014370304966e-06	-1.0726092228239093e-06	0.00322524827250132	-2.050989944235724e-05	6.445744472798068e-05	2.9710106682761205e-05
Xe	-4.7252965336071536e-07	-1.1823729180013831e-06	0.0027433516547887447	-2.2610527528294538e-05	-5.899850299723809e-05	0.00010023589602094949
2
11200
Ar	-2.096424332215976e-06	-1.535295030327447e-07	0.0032253629475046566	7.989597219643029e-05	0.00012842513291119455	-3.298221744346552e-06
Xe	-6.330953506873869e-07	-1.1806088323686832e-06	0.002744041934059416	-3.247640190591649e-07	5.341290515338715e-05	3.597749520231379e-05
2
11400
Ar	-9.076576390080334e-07	1.1415615961162996e-06	0.0032253001642678454	0.00014328393622074906	0.00010919398045250118	-5.3334504764051725e-06
Xe	-5.494181256490638e-07	-3.984441137960916e-07	0.0027438420532114004	-3.223744955939223e-06	8.660706111585961e-05	-6.466305196344802e-05
2
11600
Ar	7.114005442485619e-07	1.792126935898615e-06	0.0032251582736988454	0.00015976289128287927	2.6667761519062033e-06	-2.0247623667353e-05
Xe	-4.5713821773102905e-07	5.390024974933376e-07	0.0027430190715140527	1.2126858619127937e-05	8.339959225394985e-05	-9.283979506067136e-05
2
11800
Ar	2.0379581793561005e-06	1.5450180023175193e-06	0.00322485046127205	0.0001148735387083207	-3.949497460299147e-05	-5.009611105738516e-05
Xe	-2.5170436414746485e-07	1.3018899537530467e-06	0.002742177700222573	3.818112024780738e-05	4.456309544267721e-05	-4.767410448343162e-05
2
12000
Ar	2.3483194376740025e-06	7.975896701350164e-07	0.0032243588736860724	-4.583684170972205e-05	-0.0001423728283810411	-5.109389741678492e-05
Xe	1.016848199249989e-07	1.4716724800066161e-06	0.002741774547528123	2.8001535382187e-05	-8.145348894390579e-06	-3.89305994038822e-05
2
12200
Ar	1.393283437745475e-06	-9.098379224697224e-07	0.0032240415439234653	-0.0001607429806214633	-0.00019291276292413934	6.1067246307735665e-06
Xe	2.0168674445264593e-07	1.0298852822297325e-06	0.0027418720561367496	5.957786950615786e-06	-8.975147546769637e-05	3.69389333787122e-05
2
12400
Ar	-1.1545805536237421e-07	-2.4117779032385875e-06	0.00322422906099553	-0.00013759004157823463	-9.279925923368297e-05	1.7091139067799505e-05
Xe	1.9831725785466405e-07	-2.5899887034531066e-08	0.0027425892369380136	-1.6362254587865804e-05	-0.00012678210770516882	0.00011232430439803335
2
12600
Ar	-1.4496835708107437e-06	-2.518000568094146e-06	0.0032247909493073944	-0.00012145486354479827	6.733478386974552e-05	9.502915633563191e-05
Xe	-1.697011767875737e-07	-7.188621065075344e-07	0.002743727451708777	-6.75706738157763e-05	-3.416124013105232e-05	0.00010173658548435082
2
12800
Ar	-2.3388783654032355e-06	-1.3531296935374757e-06	0.0032257733642059084	-5.399175566239709e-05	0.00014625027697136807	8.302315384591257e-05
Xe	-6.43292740456056e-07	-1.0874478319368997e-06	0.0027444553916348225	-5.010054603292579e-05	-2.2484897731021784e-05	4.419627774621226e-05
2
13000
Ar	-2.436541329648658e-06	1.734777984389887e-07	0.003226012626238038	4.7676317626692284e-05	0.00015341822423937989	-3.329713469198522e-05
Xe	-8.920495052479011e-07	-1.2413300962764053e-06	0.002744293140628181	8.19682858952119e-06	2.389916142729825e-06	-5.414362768387563e-05
2
13200
Ar	-1.4003129556872097e-06	1.6804863358582878e-06	0.0032254768282696726	0.00016343023243487386	0.00012413751113048187	-5.5105029315300596e-05
Xe	-7.755797703471556e-07	-8.716427739014221e-07	0.002743604247054731	1.4627910697784509e-05	4.043269708448544e-05	-8.400334345930183e-05
2
13400
Ar	3.6014678360041675e-07	2.4234914564304745e-06	0.0032246814341541246	0.0001477991892055541	-1.7312112324737154e-05	-9.338849435932825e-05
Xe	-4.185178723407948e-07	-3.2681935110712747e-07	0.002742694469674971	6.5175596530277e-05	4.499233507692625e-05	-7.85807424773996e-05
2
13600
Ar	1.5162141636909542e-06	1.622973657765226e-06	0.0032238810359400934	8.541842831116883e-05	-0.0001410419987402972	-6.289638994508016e-05
Xe	1.3156426855382113e-07	1.4774040360589982e-07	0.002741869816203008	6.353849516843038e-05	1.907011717633274e-05	-8.045987662734196e-05
2
13800
Ar	1.8797949564706364e-06	-3.007111364838076e-07	0.0032237132133083046	-2.8062211737616976e-05	-0.000193927879700968	3.799183737883747e-05
Xe	5.215209528016653e-07	1.400437992858317e-07	0.0027412638827098287	2.5322420385322807e-05	7.71905950120817e-06	-1.8170390529068397e-05
2
14000
Ar	9.380114160062609e-07	-1.8834729169088992e-06	0.0032244998913869634	-0.00016107415911054381	-0.00010746975866579162	9.967348605800512e-05
Xe	5.024419871048889e-07	3.4106175128974764e-07	0.0027415470175492277	-2.1979164316379938e-05	-4.2024935690307573e-07	5.6800373023796915e-05
2
14200
Ar	-7.552274894831368e-07	-2.2543006662403857e-06	0.0032253861693567376	-0.00014722012994779706	2.560959311886395e-05	5.0296623325756354e-05
Xe	3.6949140420047927e-07	5.337213685292352e-07	0.002742370602656162	3.3678531165150754e-07	2.765374868659308e-05	0.0001149328021702766
2
14400
Ar	-1.920299140239302e-06	-1.3479912718601309e-06	0.003225672506524687	-6.402283502645147e-05	0.0001380381893635719	7.968283530832085e-06
Xe	5.134402330669528e-07	6.272057188169146e-07	0.0027433931529532015	3.4669389741754125e-05	-7.89323181954046e-06	9.827899544971739e-05
2
14600
Ar	-2.3347457800407985e-06	1.4119694807314777e-09	0.00322547892678377	-3.004511203035805e-05	0.00012913478330489695	-4.660340719074901e-05
Xe	8.978841245394369e-07	5.625060051688986e-07	0.0027440591622949284	1.9884406741836936e-05	1.5777602044146617e-05	4.979529246724036e-05
2
14800
Ar	-2.2209167280795918e-06	1.2412756296568201e-06	0.0032249879770675604	7.106434995147987e-05	8.84608635809883e-05	-3.791357835232358e-05
Xe	8.540161371850969e-07	7.74712678645425e-07	0.00274393356055336	-3.8049117964594454e-05	-2.0273858513758047e-06	-7.14144349376469e-05
2
15000
Ar	-1.1146388667099613e-06	2.0091531144037655e-06	0.0032246506612085258	0.00014769476614597175	4.22079484061343e-05	-1.3021256501912165e-05
Xe	1.0165045097526506e-07	3.991859498922015e-07	0.0027428078813239954	-0.00010437388544875465	-6.064361922716534e-05	-0.00013980667921318585
2
15200
Ar	5.124772175718469e-07	2.0187532876999013e-06	0.0032243916060186255	0.00016070539409802846	-5.118089260694565e-05	-2.7211514169586333e-05
Xe	-8.272682553177225e-07	-9.08604149700099e-08	0.0027415496446056833	-6.838597067172604e-05	-4.75914600640285e-05	-8.873547898311425e-05
2
15400
Ar	2.1218384707562676e-06	1.3816066994437155e-06	0.0032239929828533367	0.00011617232784939471	-8.326322509757139e-05	-2.9889912221227438e-05
Xe	-1.290488150316271e-06	-5.00305198788884e-07	0.0027409530491845015	-3.860955422402973e-05	-1.5935540123938945e-05	-1.8685783360703116e-05
2
15600
Ar	2.4585373999953104e-06	2.7643183217133224e-07	0.003224023045478813	-4.7360165570865314e-05	-0.00015129761339503135	4.637578755489517e-05
Xe	-1.4045238001368005e-06	-5.784662779664735e-07	0.002741667216381316	2.0184884686300988e-05	8.17780192077528e-06	0.0001430021028902756
2
15800
Ar	1.5637628966551385e-06	-1.0665400755300655e-06	0.0032245014340952986	-0.00010961199339428799	-0.00011345314025961566	7.259513836725397e-05
Xe	-8.634474648257713e-07	-3.260114106683874e-07	0.0027429444210454465	9.834846727559306e-05	5.604610625718145e-05	9.027526438625127e-05
2
16000
Ar	1.5119006318338966e-07	-1.8863707278838645e-06	0.0032252490816976776	-0.00016764888575235919	-3.179777965108768e-05	7.907107535229433e-05
Xe	3.7481503918266257e-07	3.0415434575853523e-07	0.002743699700810911	0.00015403236739911752	7.015213067949883e-05	7.651850119819398e-05
2
16200
Ar	-1.6401283873520846e-06	-1.7060674399132447e-06	0.0032259194261711095	-0.00014624752975609347	5.332766222099668e-05	8.9857079915771e-06
Xe	1.9535839532105537e-06	7.49876703732305e-07	0.0027441521420689813	0.00014073922446610016	1.0481846832010473e-05	-1.4076424750669265e-06
2
16400
Ar	-2.775479371693317e-06	-8.337753634659516e-07	0.0032256473830967873	-4.849244376025784e-05	0.0001121417654736621	-4.950745080051371e-05
Xe	2.890609854773498e-06	7.675371309884554e-07	0.0027439512340065725	2.2547618330893153e-05	-1.1712458578284687e-05	-3.515646340033752e-05
2
16600
Ar	-2.6214931359825582e-06	6.216731360126984e-07	0.0032251018499323864	6.19161978787344e-05	0.00017541067620082426	-5.1823398989433094e-05
Xe	2.493382671921532e-06	4.970705238690545e-07	0.0027432716995842562	-8.729401139433591e-05	-1.7012899567275453e-05	-6.970991077620016e-05
2
16800
Ar	-1.5341426860163557e-06	2.0022618997717608e-06	0.003224780687909238	0.00015778386740446864	0.00010932861952904755	-2.2980174060074063e-05
Xe	1.0858671669649037e-06	1.7493165941325393e-07	0.002742547816518667	-0.00020571526392662717	-5.48498493895356e-05	-7.980072841698641e-05
2
17000
Ar	2.668527739771213e-07	2.3498885982532384e-06	0.003224487084086531	0.00016885925542996835	-2.7362647624865363e-05	-1.959088697223852e-05
Xe	-1.0398003013808899e-06	-4.1087188746969823e-07	0.0027419383320327084	-0.0001911145467541082	-5.0001874617944974e-05	-2.6173880558912538e-05
2
17200
Ar	1.933052232212918e-06	1.5122658623455443e-06	0.0032244052484899297	0.00012968529750610364	-0.00013301342101478263	3.4258579333792055e-07
Xe	-2.439940969424924e-06	-1.1269999696643334e-06	0.0027416648155145764	-8.040381409024816e-05	-6.122304320495718e-05	-1.3095146167848376e-05
2
17400
Ar	2.7197361685727365e-06	8.394332289900047e-08	0.003224274473780737	3.498663766219427e-05	-0.00016037814777910558	-1.2909730403598585e-05
Xe	-2.5613723356660015e-06	-1.302365120408017e-06	0.0027416837317743676	5.6662750030092444e-05	2.3140873858555763e-05	3.0223236573281857e-05
2
17600
Ar	2.8199957558756665e-06	-1.4210574723297162e-06	0.003224375288752283	-2.9050529506104556e-05	-0.00012011149724687897	2.0409691770339112e-05
Xe	-1.502529093011705e-06	-7.756007793865504e-07	0.002742382816805345	0.00014999347115553555	7.38473477477137e-05	9.55960970030461e-05
2
17800
Ar	2.0021943697427847e-06	-2.25812652597887e-06	0.003224900793922755	-0.00014340003943323458	-5.960420070213468e-05	6.700237402268612e-05
Xe	1.7988781353630517e-07	1.3406851101717733e-07	0.0027433914702045398	0.00018898192463842915	9.602651355167508e-05	0.00010190227956264391
2
18000
Ar	4.182956962443017e-07	-2.420877550837991e-06	0.0032255024656760553	-0.0001630417347464389	1.4188389698480625e-05	5.897861591071981e-05
Xe	1.928167055082526e-06	1.1179275947287876e-06	0.0027442440074589613	0.0001678005931852174	7.342165891918647e-05	4.521851233607567e-05
2
18200
Ar	-1.2586650222360313e-06	-1.6775432290686002e-06	0.0032260664104728945	-0.00015869892956494602	0.00013163501874662901	2.7213489205927173e-05
Xe	3.1995216982641067e-06	1.3520573238333805e-06	0.002744194629259478	6.080505562771833e-05	-2.8021870223903244e-05	-6.113565405882224e-05
2
18400
Ar	-2.7067821665969443e-06	-7.358493350932819e-08	0.0032260280842996225	-0.00011366036564544053	0.0001426555158661676	-7.863051699809875e-05
Xe	2.926198495394814e-06	8.122224656364334e-07	0.0027432400422385305	-0.00011038576049454233	-8.967295813608664e-05	-9.563220842006636e-05
2
18600
Ar	-3.0420130123383257e-06	1.1806260458874744e-06	0.003224935328931655	2.6635504922834834e-05	0.00011524846458178943	-0.0001028386177392516
Xe	1.1660094646596826e-06	9.506275056217318e-09	0.002742363896311273	-0.0002083010613674308	-7.040339946982732e-05	-7.825172072648818e-05
2
18800
Ar	-2.0415084502481915e-06	1.74789155967621e-06	0.0032240406873583166	0.00016205116978285867	-3.6648665083995144e-06	-5.566117563484797e-05
Xe	-8.992565029612696e-07	-9.410100508445277e-07	0.0027418320738343974	-0.0001961835923532143	-0.0001117669182341029	-2.682506757624685e-05
2
19000
Ar	-2.580095466790364e-07	1.6293639421113601e-06	0.003223756721388236	0.0001720123829252116	-2.9734987368011347e-05	1.8350860041385628e-05
Xe	-2.5517617326050254e-06	-1.7525922925762574e-06	0.002741934421625476	-0.0001007795956648176	-4.4449513043018754e-05	2.9532067806649413e-05
2
19200
Ar	1.8318573701526662e-06	7.974751534785585e-07	0.003224442781632062	0.00022281736195387648	-0.00011469494375661575	8.721878247521455e-05
Xe	-2.931131119578794e-06	-1.4447723665066625e-06	0.0027424628164772163	2.8711597789285995e-05	8.513731199624337e-05	6.393479325145527e-05
2
19400
Ar	3.7557082218028817e-06	-1.7645283057622526e-07	0.0032253814636530103	0.00015564069284134798	-8.887105733788071e-05	0.00010377957785732358
Xe	-1.8070545742678356e-06	-3.6369478264016096e-07	0.0027431973589262275	0.00014802599225026368	0.0001139923235585433	6.865575882643231e-05
2
19600
Ar	4.346087185246207e-06	-8.588046311005311e-07	0.0032261051759788968	-5.432563657165026e-05	-7.02518768418038e-05	2.684524802000459e-05
Xe	5.990858902213134e-08	9.019984752315659e-07	0.0027437439254015465	0.0001950356740847241	0.00012866076974550836	5.472585400017364e-05
2
19800
Ar	2.768991743795371e-06	-1.551477931509159e-06	0.0032258221321666415	-0.0002813641938890285	-5.414919698534785e-05	-6.534640117203624e-05
Xe	1.9068197208953522e-06	2.0081428066331092e-06	0.002744033186262811	0.0001572642888773264	7.347758423548458e-05	-1.1544379116684104e-05
2
20000
Ar	-5.367235249056237e-07	-1.7682154760258003e-06	0.0032249304297838114	-0.00033428745834145876	1.5347876116233456e-05	-0.00010726638414711009
Xe	2.8312743259521546e-06	2.309264268588677e-06	0.002743400019918155	3.0144664135389642e-05	1.0780677295462892e-05	-9.020476134246862e-05
2
20200
Ar	-3.6423623506785666e-06	-1.4463386303673412e-06	0.0032241021054533053	-0.00027485230406424136	5.200999331924262e-05	-7.72874928189853e-05
Xe	2.7382060845644496e-06	2.100782013234078e-06	0.002742424194998552	-3.5483249028785744e-05	-5.9201710796180396e-05	-9.709412780733034e-05
2
20400
Ar	-5.234002211165565e-06	-9.576501925467006e-07	0.0032234871582965067	-3.809712047793256e-05	6.443160407484935e-05	-1.8324941043510937e-05
Xe	1.6524032191627404e-06	1.2010278263643596e-06	0.002741615920254685	-0.00014378573316396656	-0.0001247131055409853	-5.107692743032131e-05
2
20600
Ar	-4.454776140753256e-06	-1.5429530595858739e-07	0.0032238625355717836	0.00018904526008159056	9.007930379278833e-05	9.572718002193443e-05
Xe	1.6810227058346565e-07	-3.5701278784778807e-07	0.0027412885006468167	-0.0001503749160412236	-0.00016340075909413948	-8.722588507907939e-08
2
20800
Ar	-1.7803003569744402e-06	7.968420163247971e-07	0.0032248489873255696	0.00034804336059747633	0.00011862796484385515	8.680204228683659e-05
Xe	-1.206468415528307e-06	-1.710257561341091e-06	0.0027416642431389265	-0.00011793278016180213	-0.00011713204267728398	8.647472998898728e-05
2
21000
Ar	1.9178850393866607e-06	1.8373623421722399e-06	0.0032257782829576355	0.000332742461707181	9.20725244826818e-05	7.025294717183444e-05
Xe	-1.94730984872938e-06	-2.496877559494779e-06	0.002743027869784605	-3.3444857583139254e-05	-3.0906090536590315e-05	0.000156760363593842
2
21200
Ar	4.520369453422592e-06	2.460192704854158e-06	0.0032260496858252745	0.00017674250557245464	2.8127765169161512e-05	-2.037554060300394e-05
Xe	-1.7970058018805457e-06	-2.2419027949249094e-06	0.002744580380370751	3.746620326375227e-05	8.343745910395787e-05	0.00012266535508171847
2
21400
Ar	5.062829059883324e-06	2.190145965310453e-06	0.0032254002527172024	-5.507851459644944e-05	-7.154443446668343e-05	-7.529560042191803e-05
Xe	-1.3415008079758665e-06	-6.857972219485949e-07	0.00274519409112856	6.450500068471228e-05	0.00018911065704505336	-3.316514774012025e-05
2
21600
Ar	3.4131689522377903e-06	1.1516110611735716e-06	0.0032246837653709037	-0.0002693838444858944	-0.00013338420734476173	-6.5585394021984e-05
Xe	-4.458068231356638e-07	1.0877801115234515e-06	0.002744098851011906	0.000113500643526729	0.00015460572390017018	-0.0001750458577579666
2
21800
Ar	2.9235171241981645e-08	-2.3289403014156573e-07	0.00322413916280766	-0.00036891159493598603	-0.00014000515527388052	-4.326087139221843e-05
Xe	8.54523552761319e-07	2.192667675642983e-06	0.0027420195345643082	0.00011880404097990435	4.509228872136003e-05	-0.00020302769191838838
2
22000
Ar	-3.4432133305158657e-06	-1.6917235246823734e-06	0.0032236988968906044	-0.00030758175969069704	-0.00015692085618869731	-2.2692195419651112e-05
Xe	1.7376440027588122e-06	2.0248156792900113e-06	0.0027404573010637165	5.115923263964967e-05	-8.691150236713688e-05	-0.00010814255129160425
2
22200
Ar	-5.720302540492003e-06	-2.760763232663732e-06	0.0032235981621068035	-0.00012997076349735885	-5.790931237357742e-05	3.548700614288371e-05
Xe	2.05646891178735e-06	9.266041166561827e-07	0.0027401194469171084	-9.197339652333003e-06	-0.0001537742682084715	4.269822606763913e-05
2
22400
Ar	-5.845280315339109e-06	-2.65917359102086e-06	0.0032241918669885933	0.00010815784378056675	8.304045475027504e-05	7.960523978600684e-05
Xe	1.4324261205365015e-06	-7.595385751645615e-07	0.002741120346482602	-9.009397995855078e-05	-0.00016159981543942078	0.00016321214960458434
2
22600
Ar	-3.774125346568598e-06	-1.1915090639574853e-06	0.0032249152745991395	0.00026320351637946593	0.00018443048074119785	7.473096765193796e-05
Xe	1.3257793388743555e-07	-1.8365878970055169e-06	0.0027428061309188833	-0.00015616821709519966	-2.9197735097569006e-05	0.00015141632039487635
2
22800
Ar	-5.351868338711701e-07	6.351010481173614e-07	0.003225492945250865	0.0003811639271987016	0.0001671165150194586	4.9415132526859557e-05
Xe	-1.364769128227825e-06	-1.6978668908151579e-06	0.002744182545062339	-0.00011930470762751814	5.089930450745712e-05	0.00010441882409845811
2
23000
Ar	3.258529740266403e-06	2.085861477461176e-06	0.0032257120731169317	0.0003345885945241978	0.00010326920562314399	1.599776661889307e-05
Xe	-1.9731300147242064e-06	-8.477468039272949e-07	0.0027446519752868156	-8.620946956742718e-06	0.00011710596356233391	7.332141956330261e-06
2
23200
Ar	5.875534289081287e-06	2.4503299485783463e-06	0.003225783598985758	0.00016980781437416647	-5.1205113176866555e-05	-3.435259192460183e-06
Xe	-1.623685479110754e-06	1.9124713648120197e-07	0.0027441424124014496	7.445865829930119e-05	8.205051553021107e-05	-0.00010701501767408514
2
23400
Ar	6.052971091398099e-06	1.4748270337127219e-06	0.0032251754439967598	-0.00011795099797488411	-0.00012010038862694933	-8.529369808453699e-05
Xe	-8.013393952306129e-07	1.1257053923360728e-06	0.0027426991248499784	9.580211701843833e-05	8.85797039775305e-05	-0.00015416473267220563
2
23600
Ar	3.696239039042774e-06	2.5688758572313e-08	0.0032242096809897234	-0.000349253377184457	-0.00016730747459655005	-0.00010445854858174964
Xe	1.1532182209605943e-07	1.5021906618033973e-06	0.0027414948298221525	9.197559736115418e-05	4.699815633564988e-06	-9.321267523141358e-05
2
23800
Ar	-3.9997217799809726e-07	-1.6677151660068636e-06	0.0032233084737281065	-0.00041824568553513287	-0.00014617403103043563	-6.532527903406196e-05
Xe	8.097931973352625e-07	1.023840968828872e-06	0.0027408710790757084	4.213699922602589e-05	-0.00010374954647984564	-1.3901557478488974e-05
2
24000
Ar	-4.44809549095155e-06	-2.7213365038128802e-06	0.003223317918158272	-0.00033056208755029553	-5.248784118812829e-05	5.583079788254785e-05
Xe	1.0473921728025795e-06	-1.4457645417204125e-07	0.00274116266395102	-6.788816321065708e-06	-0.00011481480854228463	5.622609249051417e-05
2
24200
Ar	-6.393670930209235e-06	-2.4748492639734726e-06	0.0032242241531708006	-4.2330416895839576e-05	0.00010105172129353992	0.00012072737617410848
Xe	8.133818741830992e-07	-1.1206895702700044e-06	0.002741953107029599	-4.81927639100366e-05	-7.583492840972782e-05	9.732810115804758e-05
2
24400
Ar	-5.469828558609677e-06	-1.0125328920947954e-06	0.0032251864575170213	0.00020054420710669034	0.00016142818519914722	8.055487780088297e-05
Xe	4.1259669135155096e-07	-1.5010837743161128e-06	0.0027430923879287806	-4.649914130354335e-05	-1.357159328915894e-05	0.00010887210468323933
2
24600
Ar	-2.4311164551194337e-06	6.891627835162271e-07	0.0032260058543584547	0.0004031103064127008	0.00016335445167396773	7.81201244770843e-05
Xe	-3.009451322808736e-08	-1.4440779120219297e-06	0.0027439369887073723	-4.607222459917743e-05	1.9138101110444167e-05	7.116056935362883e-05
2
24800
Ar	1.4258136690527036e-06	1.9946095772077804e-06	0.0032264189214567677	0.0003445835327570075	9.824004620938123e-05	-3.325330701727192e-07
Xe	-3.555240109259644e-07	-1.003838608172469e-06	0.002744325947719945	-2.6676351158187447e-06	6.022667555729389e-05	-1.5087943119459394e-05
2
25000
Ar	4.314550486954989e-06	2.5096599168067165e-06	0.003225725801115164	0.00020495047666824504	2.586204364900464e-05	-9.177546506627453e-05
Xe	-4.94578734201002e-07	-3.106086914143326e-07	0.0027437114365608866	-4.344427583821743e-06	6.283516217966381e-05	-0.00010465911713197857
2
25200
Ar	5.209839537211779e-06	2.1789875624554363e-06	0.0032243341409307472	-1.9761262542550684e-05	-0.00010433736065067293	-0.00014717602802552545
Xe	-6.963285180199104e-07	2.600055214064272e-07	0.002742473826848479	-1.6113479935085288e-05	2.645835804081974e-05	-0.00011301422837583175
2
25400
Ar	3.8198902388815716e-06	5.910519425123249e-07	0.003223235398187235	-0.00024234712752544898	-0.00019763493850714388	-7.799960169454153e-05
Xe	-8.36748167713743e-07	2.7976082343435895e-07	0.0027414041801487074	-1.7671705580992698e-05	5.149389417735333e-06	-8.888192233830003e-05
2
25600
Ar	9.409544504942694e-07	-1.0965620848133084e-06	0.0032231606716097622	-0.00032937682439473443	-0.00013527817401127394	5.444634946867868e-05
Xe	-7.587824159814514e-07	3.3027054690992544e-07	0.002740838790105596	3.06997072476683e-05	1.1410953221954156e-05	-3.1903969449750064e-06
2
25800
Ar	-2.1881211677983862e-06	-2.155830103824838e-06	0.003224135266284537	-0.0002682260367435235	-7.72598389064222e-05	0.00014715417701056496
Xe	-2.130419081660977e-07	5.017660138532306e-07	0.0027413647132926927	7.456144509552133e-05	9.027756587827079e-06	0.00010358224661277455
2
26000
Ar	-4.08619019193703e-06	-2.512473239182239e-06	0.003225586710142063	-9.407138965482303e-05	1.2070607041136082e-05	0.00012928461691138186
Xe	6.337618923129139e-07	6.100518045476008e-07	0.0027427311499652013	9.701728606307698e-05	3.580424412758268e-06	0.00015566555628013812
2
26200
Ar	-3.971348620913858e-06	-1.8933846430834618e-06	0.0032266236356898997	9.515160165371739e-05	0.0001040192360541968	7.552441371770712e-05
Xe	1.24361307779972e-06	3.8810066573571203e-07	0.002744198384206909	4.351733326042664e-05	-2.099276806217915e-05	0.00012020229552849414
2
26400
Ar	-2.319628393101133e-06	-3.907925772402019e-07	0.0032266868965423467	0.00021472395162415437	0.00015272227240656892	-7.635585003565896e-05
Xe	1.2920005709775438e-06	-4.879017094746395e-08	0.0027449551035617424	-3.9778299839818716e-05	-6.788377219361871e-05	1.4188568631865116e-05
2
26600
Ar	5.36806553205281e-08	8.48590104846794e-07	0.003225658800476106	0.000257711868829657	0.00011577895731151285	-0.00010524723384033265
Xe	4.092232931537491e-07	-5.660807094662185e-07	0.002744617784968191	-0.00013025737150135485	-3.6114871816418015e-05	-9.760651505014012e-05
2
26800
Ar	2.303802594349082e-06	1.8686250729414942e-06	0.003224720887037452	0.0001830198090039391	6.285740605019676e-05	-7.572479824577362e-05
Xe	-8.841519419878043e-07	-1.030516442824299e-06	0.0027430612105935896	-0.00012401748662345185	-2.6271825305095677e-05	-0.00018295487817683007
2
27000
Ar	3.4156506740950267e-06	2.1397211026911053e-06	0.003224150885045364	5.458444771359094e-05	-4.657060352669657e-06	-7.981781021849496e-06
Xe	-1.7392394415067796e-06	-1.343241149434454e-06	0.0027413928100579856	-2.208161071893912e-05	-5.0430598936518264e-05	-0.0001246203073205228
2
27200
Ar	3.496238366536852e-06	1.7425473670706021e-06	0.0032242360210908696	-3.651556662166822e-05	-7.199249414649999e-05	3.683608504801602e-05
Xe	-1.6609502460041267e-06	-1.391972473410872e-06	0.002740805854296209	4.091088764851539e-05	2.99986257243972e-05	-8.345569439525092e-06
2
27400
Ar	2.7749122162358556e-06	9.043226183898727e-07	0.0032244669638569904	-0.00011653889565553893	-8.680185534409792e-05	1.469648222767979e-05
Xe	-9.740131469501039e-07	-6.676481339478217e-07	0.002741603614629928	9.055729656713284e-05	0.0001000179418431832	0.00013125985976966348
2
27600
Ar	1.098874016267562e-06	2.259505873758912e-07	0.00322467557308283	-0.00020825488992426056	-4.608677798926029e-05	6.156571907879028e-05
Xe	1.263957618321746e-07	1.414173489795056e-07	0.0027429104153611195	0.00013772068268528317	7.395054109597809e-05	0.00012001287790243063
2
27800
Ar	-7.597866471330794e-07	1.3452459860408487e-08	0.0032254390207020318	-0.00016534185691935413	-3.33917655093591e-05	0.00010140561456282073
Xe	1.377579732841793e-06	5.547293236909647e-07	0.002743928726358555	8.403113511177703e-05	1.5017359940018173e-05	5.194203093748044e-05
2
28000
Ar	-2.0143966905900023e-06	-4.250250250360793e-07	0.0032261785007671557	-7.628519927135924e-05	-5.8325729932632825e-05	4.487861273615586e-05
Xe	1.963125155311983e-06	7.951923997391829e-07	0.0027439913239050533	1.2043087869698544e-05	4.475300249107804e-05	-1.1558924381525453e-05
2
28200
Ar	-2.3105800088137863e-06	-8.218294532436005e-07	0.0032261104614689103	2.2781046925121287e-05	-2.7286341443531092e-05	-5.758479719126046e-05
Xe	1.5986070985607247e-06	1.0126814856505723e-06	0.002743507658120077	-8.233278412719153e-05	-8.137622343726876e-06	-7.291871281281639e-05
2
28400
Ar	-1.4481385290626885e-06	-9.836615568303207e-07	0.003225205757325243	0.0001328337188620743	5.371003610998595e-06	-0.00014416277114239563
Xe	8.802291330669032e-07	3.623403693574787e-07	0.0027426785019481438	-7.643241931546889e-05	-0.00010495630624934052	-7.297460800873172e-05
2
28600
Ar	-8.58142103157773e-08	-7.422279960507273e-07	0.003223893910345181	0.00015780754898498992	4.915381458445188e-05	-9.302488051377715e-05
Xe	8.313496354859646e-08	-6.087608023852221e-07	0.002742119316528862	-5.3839789011482916e-05	-0.00010335304462418207	-3.6599791711175846e-05
2
28800
Ar	1.5726901478978339e-06	-6.965339385689371e-10	0.00322325562697027	0.00014313249624344992	8.767847638359568e-05	-2.7270989517307263e-05
Xe	-5.241900422609067e-07	-1.3225265573220901e-06	0.002742105430957722	-7.232885458098035e-05	-4.502059755086593e-05	2.706202011886049e-05
2
29000
Ar	2.579751331045359e-06	1.0200736699088245e-06	0.003223744563672586	4.516313776863118e-05	0.00010457189976943538	0.00011047125757560252
Xe	-9.927297861681651e-07	-1.3650407898262164e-06	0.002742324961634086	-5.886213932508243e-06	4.090655183954131e-05	4.1227087273411835e-05
2
29200
Ar	2.7357300417210435e-06	1.866755393410801e-06	0.003225286314952557	-1.85622387470761e-05	5.019467704564175e-05	0.00014966130668926536
Xe	-8.807088097318506e-07	-7.320375611450519e-07	0.0027423268106194698	3.571609390780923e-05	8.914827066999488e-05	-3.547108111561292e-06
2
29400
Ar	2.0264551875109016e-06	2.085280549297562e-06	0.003226535643094666	-0.00012485714406723977	-3.192312662654836e-05	6.624401205364885e-05
Xe	-4.29260502259928e-07	3.9321277416666714e-08	0.002742563801815708	5.355186277703012e-05	6.264846620117967e-05	4.7346835801481854e-05
2
29600
Ar	6.326985262624938e-07	1.494360215140833e-06	0.00322639177095436	-0.00015616417181498038	-8.925532300497164e-05	-9.521896307291964e-05
Xe	6.232923441900485e-08	3.6559542151615547e-07	0.002743136371520271	5.645417483013297e-05	6.9326919099108365e-06	9.919358297450534e-05
2
29800
Ar	-1.0738459451914306e-06	1.7276227779974934e-07	0.003224966601744071	-0.00016853406479549516	-0.00013779478476858993	-0.0001593085027455544
Xe	5.247684782127297e-07	2.1839884857473245e-07	0.0027439708297507504	3.126124103681625e-05	2.4854067000812916e-06	6.955483728154026e-05
2
30000
Ar	-2.7746196313674935e-06	-1.1709416915763877e-06	0.003223610007217925	-0.00011840045839755049	-0.00011385002433252763	-7.928983846008154e-05
Xe	5.860306850914437e-07	3.018830113813158e-07	0.002744280472038849	-4.09476499780093e-06	3.412035327900091e-05	-9.54116743005102e-06
2
30200
Ar	-3.526679958168157e-06	-2.0184591623551864e-06	0.003223760758943779	-2.8654268127008023e-05	-5.242991590750614e-05	9.895749447477866e-05
Xe	6.878406320578988e-07	4.171479776734966e-07	0.0027436659589509054	-1.321628188786575e-05	-2.425359798369203e-05	-0.00011780628359111547
2
30400
Ar	-3.002618747677913e-06	-1.805536267399846e-06	0.003225106889815243	0.00012634015875945763	8.84615615946314e-05	0.00011178921996474531
Xe	4.323559116989208e-07	1.8576027364700374e-07	0.002742385630519689	-3.6979320605173106e-05	-4.280077979649739e-06	-0.00010695214507547549
2
30600
Ar	-1.2535752588990376e-06	-8.555617577867123e-07	0.003225767462355069	0.0002165485635574885	0.00010336850084993889	6.684156221075012e-06
Xe	1.925768051676012e-08	1.5164555869513042e-07	0.002741722281464073	-4.096923209542085e-05	2.126051323855898e-05	-7.298803296710971e-06
2
30800
Ar	8.787120738138013e-07	7.995228850281907e-08	0.0032254388768954115	0.0001997665417054758	9.623482589988317e-05	-7.165170601707912e-05
Xe	-4.989099630691745e-07	4.648284703930455e-07	0.0027421390538358284	-5.39938548662922e-05	4.646443387747821e-05	6.535326624133448e-05
2
31000
Ar	2.582338146532086e-06	6.893681940860147e-07	0.0032244168672978936	0.00014647267717577021	3.280796972653678e-05	-0.0001290993373815588
Xe	-8.104352630085146e-07	6.140776650397237e-07	0.0027428296397044947	-4.18933336916278e-06	-1.4922001596640131e-05	8.57005351951199e-05
2
31200
Ar	3.572005757241128e-06	5.848185581675173e-07	0.0032234889491426213	3.9419404135909216e-05	-3.1225386524854604e-05	-3.6653971386168656e-05
Xe	-5.426176055155854e-07	3.321835147149746e-07	0.0027434648954270933	6.198606436967245e-05	-3.515295337053492e-05	2.49291745507205e-05
2
31400
Ar	3.253437551445069e-06	1.3008841093981807e-07	0.003223985833208671	-0.00011037500612688436	-7.406501940495035e-05	0.00011119555018612903
Xe	1.1355224660545684e-08	-1.781142795545741e-07	0.002743390647813655	6.063501251869359e-05	-4.3933251170011616e-05	-2.3981695120287153e-05
2
31600
Ar	1.6071130048598418e-06	-5.478328950049751e-07	0.0032252774257654306	-0.00022757929563089324	-5.8799859511322715e-05	0.00012920591373816908
Xe	4.037524469627103e-07	-2.1298839384164465e-07	0.002742895566410326	2.9755220142014676e-05	2.9462653672404315e-05	-4.3667252923793075e-05
2
31800
Ar	-1.0929665407761525e-06	-5.48238214196294e-07	0.003226311053185134	-0.0002787758519499561	2.794921462532117e-05	5.8780862076274064e-05
Xe	6.732727827998686e-07	8.561702945571538e-08	0.0027426336930233934	1.965976113559569e-05	2.9069572845150454e-05	-2.0044708031521972e-05
2
32000
Ar	-3.7385305224634975e-06	-1.0953121249242397e-07	0.0032263499942808277	-0.0002050230836905794	5.126648514613525e-05	-8.036727938944142e-05
Xe	8.530857502780311e-07	4.0984574641664006e-07	0.0027426178563107113	-6.0699421452870484e-06	2.9717644440015312e-05	3.103573691104835e-05
2
32200
Ar	-4.845507732998844e-06	2.543595018921526e-07	0.003224964364679066	9.861433954101422e-06	2.8373706153332695e-05	-0.00017802987023560332
Xe	8.042226905950725e-07	6.852154801763384e-07	0.002743028977870593	9.409453326086368e-06	9.030164216690996e-06	2.5281968726794085e-05
2
32400
Ar	-3.477756562270739e-06	1.2314342511614133e-07	0.0032236623464496675	0.00023816432570668446	-5.2032499924040735e-05	-8.124800828777917e-05
Xe	7.820598886614801e-07	6.357795945680633e-07	0.0027431373239812954	-6.718007543358485e-06	-2.4916480766344748e-05	-1.2224912185297607e-05
2
32600
Ar	-7.040612213383525e-07	-2.5984619614091553e-07	0.0032234277073127098	0.0002847787134596473	-1.3098212823382827e-05	3.5387642952528287e-05
Xe	5.191678702885722e-07	2.4308059744528583e-07	0.0027425690705970727	-4.231352784876404e-05	-5.588134057371903e-05	-7.028900950558994e-05
2
32800
Ar	1.7598820876868755e-06	-2.1482019134102345e-07	0.003224338994345579	0.0001992776964135842	1.2273621490009568e-05	0.0001336245736822256
Xe	-1.7715952931950423e-07	-4.7079613603513383e-07	0.0027418319256889596	-8.420441822724261e-05	-9.63848483979334e-05	-5.58813093602411e-05
2
33000
Ar	3.626780536354287e-06	1.3937236829017726e-07	0.0032252893179845125	0.00012467456879541178	4.7115533575495215e-05	6.776336055528805e-05
Xe	-1.0513764421194688e-06	-1.1912667576883713e-06	0.002741683994584914	-0.00010039974366721945	-2.4405858485909593e-05	2.526292840422513e-05
2
33200
Ar	4.071742278751189e-06	5.097675331139592e-07	0.00322561957877339	-5.124870174865033e-05	3.1071945626559276e-05	-3.570928250886518e-05
Xe	-1.6047711153195692e-06	-1.039047409770179e-06	0.002742445379092797	4.398685853049e-06	7.937283035116554e-05	0.00012130211999785817
2
33400
Ar	3.100709566187762e-06	6.964199394539553e-07	0.0032248615485431825	-0.00016844148401911187	-1.0531728949258475e-05	-8.82053548820464e-05
Xe	-1.3382662926424123e-06	9.928786352482049e-08	0.002743562266772778	6.95471950665517e-05	0.0001469160073450293	8.79191486116536e-05
2
33600
Ar	9.1291027993693e-07	4.33644872961181e-07	0.0032242070141436934	-0.00026446158892960475	-4.6200890188450254e-05	-5.31631130872908e-06
Xe	-4.777743334485944e-07	1.5202987837515618e-06	0.002744188280665171	0.00011359907888076446	0.00010376885024988931	1.4470366894583647e-05
2
33800
Ar	-1.780554790777747e-06	3.107992050417288e-08	0.0032245242164090945	-0.0002592705860143449	-1.9202988764428132e-05	7.36818502566661e-05
Xe	6.696052526086909e-07	1.9381284068637314e-06	0.0027437783298521535	0.00010782599266684613	-5.022170082506685e-05	-8.586466844469767e-05
2
34000
Ar	-3.7369204215528855e-06	-1.410716033615218e-07	0.003225452532068301	-0.00011299917025635115	2.558859986715408e-06	0.00010269273845920623
Xe	1.4408161883313395e-06	8.659383515642017e-07	0.0027426706266425013	3.81689107935642e-05	-0.00014660743874842142	-0.00012771247152874765
2
34200
Ar	-3.922478884869864e-06	-1.9804892008960664e-07	0.003226013374283388	5.941438606126523e-05	-1.1984818823971118e-05	-5.6569466259826345e-06
Xe	1.7738895806359692e-06	-6.803050222125796e-07	0.0027416997478612896	1.9562038290577974e-05	-0.00014450548730286176	-6.311488598224935e-05
2
34400
Ar	-2.6537383028618013e-06	-1.7433035794589633e-07	0.003225278946843494	0.00017553253897328918	1.364719647205286e-05	-0.00012894276087774026
Xe	1.6731704157366547e-06	-1.7300365201402128e-06	0.0027417585222746536	-2.6325630935970536e-05	-4.5839285046348016e-05	5.217956548659956e-05
2
34600
Ar	-7.988796399397795e-07	-3.153228596246781e-08	0.003223874457597242	0.00020348893379573801	5.086394244173994e-05	-0.00013053042482229479
Xe	1.4183558302577849e-06	-1.8191707210831116e-06	0.0027425761684862406	-3.3086137719007586e-05	3.1290931638399266e-05	8.503795552784731e-05
2
34800
Ar	1.3630273273329147e-06	4.273319919398951e-07	0.0032232397817889367	0.00021565621801374995	1.9284808665486374e-05	8.571196971656055e-06
Xe	9.119873823212749e-07	-1.1526946618881805e-06	0.0027432411304868375	-6.214177181467792e-05	6.888228986007231e-05	4.032746450658625e-05
2
35000
Ar	2.7789699334957426e-06	6.392130240954348e-07	0.003223999039097361	5.9572086361326224e-05	1.9580475914407637e-05	0.0001446429329467483
Xe	3.1360868021998387e-07	-3.155295388055512e-07	0.002743186295890299	-6.40289276375557e-05	9.558169493275123e-05	-4.2272370748457194e-05
2
35200
Ar	2.7319466825123556e-06	6.871747990932157e-07	0.003225348517189452	-7.196919919572047e-05	-2.169923773904299e-05	0.00010009175535971346
Xe	-2.6452673340817624e-07	7.556253032977949e-07	0.002742467561188042	-3.499105567072119e-05	0.00011180319134604285	-8.218931190300419e-05
2
35400
Ar	1.5200203789781482e-06	1.342733399724628e-07	0.0032256965984470893	-0.00016768852858595505	-7.301459093925134e-05	-3.0276637295665702e-05
Xe	-6.575709767273043e-07	1.7326231799665326e-06	0.002741791610457024	-1.830142392774092e-05	6.42313624740964e-05	-3.6535973979589494e-05
2
35600
Ar	-3.0576474003540984e-07	-6.455586330773147e-07	0.0032249084154967753	-0.00021015746269331857	-7.19127546779728e-05	-0.00011314695659874212
Xe	-5.511062554670799e-07	2.1722719363278956e-06	0.002742043634634903	5.56596919045562e-05	3.37735786478018e-05	5.129408689830056e-05
2
35800
Ar	-2.138611304479954e-06	-1.195548809619801e-06	0.0032238880862789213	-0.00015164502478036784	-6.144181067143573e-05	-7.299124939060046e-05
Xe	2.3302000282842636e-09	2.1579417666164547e-06	0.00274279270773586	6.059294483021768e-05	-2.839402920476189e-05	6.683976105003255e-05
2
36000
Ar	-3.2253180904494188e-06	-1.3847074125517596e-06	0.003223764361786698	-5.582336668159826e-05	1.7185607776463657e-05	3.324097575134657e-05
Xe	7.005225110364915e-07	1.3438481176239606e-06	0.0027433521776207017	6.048989339019492e-05	-0.00012611859865283907	3.486285234657092e-05
2
36200
Ar	-3.1806843210133756e-06	-1.1561873008295368e-06	0.003224353075080747	6.668225744655047e-05	4.5426802503099314e-05	8.895867692747695e-05
Xe	1.0007592288618125e-06	-4.018980585282639e-08	0.0027431738833051983	-6.0438022653139635e-06	-0.0001404965894812499	-5.373909632610961e-05
2
36400
Ar	-1.9173962996038653e-06	-5.386988147181692e-07	0.0032254243957084623	0.00017399167244781084	9.110220781012968e-05	8.553321227143801e-05
Xe	4.890685206258129e-07	-1.2783816334699283e-06	0.0027425774133061544	-7.456463793898609e-05	-7.071928081646552e-05	-6.073390732591795e-05
2
36600
Ar	2.898316450583966e-08	3.793023505023287e-07	0.0032259314361932335	0.00020161805179714945	8.823926811252645e-05	-7.80015466234222e-06
Xe	-2.388819689468401e-07	-1.7539344802183661e-06	0.0027421263807613887	-6.487648204161612e-05	-3.074203314533769e-05	-7.386743347986405e-06
2
36800
Ar	1.9872926231362453e-06	1.0491512387969326e-06	0.0032253248367106442	0.00018649759322826744	6.260388681515248e-05	-0.0001211129160334132
Xe	-8.472914849643386e-07	-1.5796537395969375e-06	0.0027423820232610136	-2.0411773059773224e-05	7.272065908209385e-05	4.89738717354625e-05
2
37000
Ar	3.1999189832418694e-06	1.4710019673419021e-06	0.003223979789047546	5.9168399892763414e-05	3.379708780200832e-05	-0.00013900669811756948
Xe	-9.335412713062066e-07	-7.308943040383806e-07	0.002743063146075765	1.4746174586732824e-05	0.00010648182971037267	8.814782168562138e-05
2
37200
Ar	3.0520626242420248e-06	1.5444807758270561e-06	0.0032232721018075686	-8.961138308744792e-05	-6.155162000749212e-05	-8.662630108974053e-06
Xe	-6.404301180632355e-07	1.7417634737136913e-07	0.002743465214923541	1.3888167206348054e-05	0.00010132237119372481	-6.661739206569432e-06
2
37400
Ar	1.7413234783947614e-06	6.468487300142037e-07	0.003223941232129309	-0.00016048640662175316	-0.00013617134744722917	0.0001405565520621669
Xe	-2.1331196612611937e-07	8.35286224258267e-07	0.0027429490135180328	4.208121373473239e-05	4.659990021997645e-05	-6.569341622727511e-05
2
37600
Ar	-1.235866856891971e-07	-6.805120499918195e-07	0.0032254670481327114	-0.0001791525457326959	-0.00012704116119282817	0.00013529100498264947
Xe	2.493612060812983e-07	1.0222528202779125e-06	0.0027423037422420493	3.550263529245963e-05	-7.337470406070734e-06	-4.721508901883787e-05
2
37800
Ar	-1.5627078043823649e-06	-1.7222442966566944e-06	0.0032263518781030886	-9.853889859667497e-05	-8.187632179537148e-05	1.7775080241750976e-05
Xe	3.7068806628578687e-07	7.381500643827824e-07	0.0027419029874328872	-1.014658948721394e-05	-4.449889778911158e-05	1.60352572580168e-05
2
38000
Ar	-2.0294156402327735e-06	-2.2156124630824654e-06	0.0032257455927566605	-2.7582551958763646e-06	-7.794811287142889e-06	-0.00013207843846452791
Xe	2.356254707472817e-07	2.1091182990245663e-07	0.0027423532899530523	-1.7713789967657588e-05	-8.610125701032462e-05	8.263039294731995e-05
2
38200
Ar	-1.5961671303342755e-06	-1.862070731865965e-06	0.0032240787961374338	8.937811335447808e-05	0.00010387499060615322	-0.00016677684099636325
Xe	-1.2881130779704383e-08	-6.304231230944161e-07	0.0027429958084992886	-2.1006346790293552e-05	-8.042748521010351e-05	4.271505050795618e-05
2
38400
Ar	-4.4254236507336967e-07	-4.4831319863805523e-07	0.0032230725613421243	0.0001187277070615544	0.0001722893786647314	-1.7929070230936373e-05
Xe	-1.9246846462551278e-07	-1.1293706565658015e-06	0.0027432526660581573	-8.864999151880146e-06	-1.857925456749496e-05	-1.1219765775469885e-06
2
38600
Ar	7.673063792894313e-07	1.3530153719937928e-06	0.0032235799948420363	7.26281417977242e-05	0.0001768045217744872	0.00010078480050276694
Xe	-2.1121410614927425e-07	-8.245257984902561e-07	0.0027430635745196823	4.397882151178339e-06	6.199654091771242e-05	-3.514386870719396e-05
2
38800
Ar	1.1814419887187806e-06	2.802989595426876e-06	0.0032248316075691196	-7.436298185199578e-06	5.878523886151265e-05	0.00011772131540428611
Xe	-1.6938051842733638e-07	-8.796951577971359e-08	0.002742555116900878	3.64599357715453e-05	6.81532710664253e-05	-6.687839609594904e-05
2
39000
Ar	9.096317274642747e-07	2.828064409308278e-06	0.0032258629923727434	-6.111682947758051e-05	-7.643490911220409e-05	7.259935676618325e-05
Xe	1.806000608777577e-07	5.792718482677157e-07	0.0027420692167698475	3.931705726088663e-05	4.159724229312478e-05	-2.493837258397269e-05
2
39200
Ar	2.0243375681926052e-07	1.625396713338688e-06	0.0032259447397337423	-7.487666689099473e-05	-0.00016470813365167367	-4.677414950900701e-05
Xe	7.166603607300437e-07	8.672639803165771e-07	0.002742168806055523	4.1348136239814424e-05	-3.721481701209684e-07	3.6918993382358205e-05
2
39400
Ar	-7.434387136801455e-07	-1.7632044533475158e-07	0.0032250755483490077	-0.0001087138915572969	-0.00017505249147093212	-0.00011511569435841254
Xe	7.701223917294757e-07	7.087726047292063e-07	0.0027430359742734805	-2.0835267572249215e-05	-4.146747986922288e-05	9.970082936567313e-05
2
39600
Ar	-1.587997862285567e-06	-1.5858621018339941e-06	0.0032241794693000465	-4.7420480448634514e-05	-0.00011766313163944979	-4.895967137552486e-05
Xe	4.7233139412294505e-07	1.1900055832536107e-07	0.0027437757763638855	-4.5843357671516985e-05	-7.14355819845419e-05	3.85066966633948e-05
2
39800
Ar	-1.771874843617981e-06	-2.0970986266609996e-06	0.003224061922678705	1.8973279285873917e-05	7.727399836067622e-06	5.166230418909402e-05
Xe	1.3258382765368573e-08	-5.722762230659473e-07	0.0027436855103547477	-4.174678197748906e-05	-9.721379645432859e-05	-5.1621166075429565e-05
2
40000
Ar	-1.1145004436770814e-06	-1.3766678976318874e-06	0.0032247754966027446	0.0001236401428409455	0.00012365291169903097	8.698038526851971e-05
Xe	-1.2182991522024747e-07	-1.0441648941435418e-06	0.0027430973174078447	-8.932991966987654e-07	1.1419190701195719e-05	-5.527869139109862e-05
2
40200
Ar	1.4948379170503335e-07	6.46244296726597e-09	0.0032255161305150635	0.00012175115034329579	0.00014530603394966745	4.170183852601616e-05
Xe	7.327721626701667e-08	-8.270917499471182e-07	0.0027424730297137064	4.5967380141239446e-05	1.347413214737602e-05	-5.159869537414512e-05
2
40400
Ar	1.3076806709263948e-06	1.2290475599174043e-06	0.0032255476953309443	0.00010542120574778927	0.00010135590953173916	-7.06671825174446e-05
Xe	2.3886158285585075e-07	-7.286648385609457e-07	0.002741958149160259	-1.9098647978154605e-05	2.197588018396864e-05	-3.9759365887018244e-05
2
40600
Ar	1.7160615772900823e-06	1.6818328077002667e-06	0.003224575788777696	-9.661429331334376e-06	-2.2256553339662437e-06	-9.404384405580304e-05
Xe	-1.209216150606772e-07	-2.1209482420804894e-07	0.0027418962223409423	-4.760575936892911e-05	7.415262352915392e-05	5.583150464600125e-06
2
40800
Ar	1.3025447175389558e-06	1.273687080805436e-06	0.0032237165225000933	-8.256927421562857e-05	-9.702859357609133e-05	-5.511189915902581e-05
Xe	-6.064460591513918e-07	1.7630099693798242e-07	0.0027422578544587994	-4.171852923877823e-05	1.695284005297914e-05	5.607818672397049e-05
2
41000
Ar	2.1423076837331014e-07	2.066918069443467e-07	0.003223911113561819	-0.0001467663964318698	-0.000134105819645265	0.00010049689824802835
Xe	-8.735211466325924e-07	4.407956936098584e-07	0.0027429856287454284	-2.970181676767942e-05	3.609612501325586e-05	8.2666404215832e-05
2
41200
Ar	-1.263451592371632e-06	-1.0252003153313484e-06	0.003225105450202895	-0.0001278750942080164	-0.00010930897566812368	9.869446218720981e-05
Xe	-1.07269112103262e-06	5.969957626247465e-07	0.0027437225981291106	-2.721169606921022e-05	-1.8597824826053356e-05	6.212232464736368e-05
2
41400
Ar	-2.0447482007127723e-06	-1.6475440984552918e-06	0.0032257711552093797	-4.314825827201462e-05	-3.125987742135993e-05	4.810021731606576e-05
Xe	-1.2629857725000407e-06	3.23683712449451e-07	0.002743966223635601	-1.2429105758982047e-06	-2.485284190508755e-05	-2.833628844809538e-05
2
41600
Ar	-1.7733449827804235e-06	-1.5405674661710844e-06	0.003225831052227362	7.528308397861553e-05	4.0433004216751044e-05	-2.9022092781884258e-05
Xe	-6.598927940670745e-07	8.671479941064588e-08	0.0027433657106918797	0.0001064493838695184	-1.5452096401543493e-05	-7.884591945494897e-05
2
41800
Ar	-6.911491512017736e-07	-8.683937392681405e-07	0.0032252707996037614	0.0001167100935735707	8.717017447808314e-05	-8.608262106780459e-05
Xe	4.1226822106716143e-07	-1.3158777404743906e-07	0.0027427394724518794	9.49867153929539e-05	-5.948483254962824e-05	-6.249342916535003e-05
2
42000
Ar	5.721164453095518e-07	1.9715766022739678e-07	0.003224328679043783	0.00010116364241247544	0.00012473811060649095	-9.030447224257876e-05
Xe	1.3599084980060156e-06	-7.107507847031479e-07	0.002742255185634217	7.565853257601986e-05	-4.447666482066082e-05	-3.2558815977426736e-05
2
42200
Ar	1.1519608431061975e-06	1.4083866284097902e-06	0.003223372177772027	2.618669483776671e-05	0.00010325662590436148	-5.948563507916447e-05
Xe	1.6262592649524553e-06	-8.765520341804829e-07	0.002742044756330512	-1.0459874885255624e-05	4.333635899906401e-05	-3.0201563323884546e-05
2
42400
Ar	1.2084487570847955e-06	2.098554544834713e-06	0.003223174037992469	-8.184410810524194e-06	2.226205641934701e-05	1.682298301332124e-06
Xe	1.027770025351525e-06	-5.792466350391315e-08	0.002741932677250792	-0.00010028453538333631	0.00010372021736012337	6.26369054270579e-06
2
42600
Ar	8.638121854447025e-07	1.7549908873407908e-06	0.0032236643126800813	-3.4367467764858475e-05	-9.35833071914452e-05	0.00010547781054564997
Xe	-2.8869525167566263e-07	8.737412963242015e-07	0.002742309637528155	-0.0001522400149437739	6.255726878839609e-05	4.685263943476588e-05
2
42800
Ar	3.033300775347954e-07	6.046643697084857e-07	0.003225174224667862	-5.3037933035762415e-05	-0.000159329721441515	0.00015746205331622722
Xe	-1.4730416944204265e-06	1.1748252412543533e-06	0.0027429147685660103	-9.119499331586627e-05	-6.831752574029094e-07	6.174780547876133e-05
2
43000
Ar	-1.881173174398866e-07	-9.569701418421419e-07	0.003226479763143965	-2.233088252586909e-05	-0.00015788217820287957	5.774585488328129e-05
Xe	-1.929814433566839e-06	8.813563855145846e-07	0.002743374335637116	1.6538925955220475e-08	-3.5479773650113947e-05	3.243796980038387e-05
2
43200
Ar	-3.9399398727049966e-07	-2.2813966944969423e-06	0.0032265759792079467	-2.286159026279901e-05	-0.00010238690322463264	-5.293461263624547e-05
Xe	-1.3857401406774451e-06	1.3748423555685626e-07	0.0027437018224144294	8.051418492931944e-05	-0.00011094409075898015	2.594353469530705e-05
2
43400
Ar	-5.569009398869926e-07	-2.6524224674599284e-06	0.0032256160023133714	-1.8784531968056678e-06	4.303688422850054e-05	-0.0001125177192992326
Xe	-3.7766075439632597e-07	-9.103200503324013e-07	0.0027437341879493382	0.00012785814261525585	-6.432316362411876e-05	-2.278745669677609e-05
2
43600
Ar	-2.5867906283148314e-07	-1.5082418806256961e-06	0.003224470784160073	4.134429075749222e-05	0.0001732623021481755	-9.47912471241339e-05
Xe	1.0896140909031633e-06	-1.4296024579646858e-06	0.0027430888482788372	0.0001436098261949226	-3.7949002978513885e-05	-9.734711252010074e-05
2
43800
Ar	1.5437852981143037e-07	6.209326330047293e-07	0.0032239128776832965	2.9019167299222925e-05	0.00023591270594288278	-2.63798851523406e-05
Xe	2.2055956063034123e-06	-1.6192549488217661e-06	0.0027420219365903438	8.014060862398018e-05	8.975100472037673e-06	-0.00010691778078758712
2
44000
Ar	2.0745319791819944e-07	2.6053769007374503e-06	0.0032241572294659997	-3.2959260596265e-05	0.00015958883391103764	7.294504081475556e-05
Xe	2.70514242815538e-06	-1.2723541733415918e-06	0.002740997437655914	-9.907011177504096e-06	4.491076302592321e-05	-6.262502333985349e-05
2
44200
Ar	-3.359832763825e-07	3.341411655776907e-06	0.0032248576622555354	-6.0317332664677006e-05	3.5051045726017214e-06	5.702416733790019e-05
Xe	2.090574806623759e-06	-6.053274557948199e-07	0.0027410433152407457	-0.0001154275436214931	8.53012246149008e-05	7.816077073715675e-05
2
44400
Ar	-7.412013617286987e-07	2.582869035237578e-06	0.0032251552116700564	-1.4056456435346254e-05	-0.00013949835413851156	-1.1318199268126035e-05
Xe	5.606528005439283e-07	3.937824092528321e-07	0.0027423288448304036	-0.00017655622754567885	9.026868188526342e-05	0.0001792763314094905
2
44600
Ar	-4.565936533213832e-07	8.211508624189761e-07	0.003224843112261921	6.671364155483794e-05	-0.0002030077763772565	-3.648364724081905e-05
Xe	-9.972499496690446e-07	1.1089373730642202e-06	0.0027439516327658234	-0.00014731057998166228	5.887397634492563e-05	0.00011538336008516819
2
44800
Ar	5.24706244266124e-07	-1.1528237639457215e-06	0.003224633745734095	0.00013798421878794483	-0.00018926610688463688	1.0965045680418135e-05
Xe	-2.1930232880593294e-06	1.2442874257883466e-06	0.00274437815343735	-7.351472841619793e-05	1.8789263088968938e-06	-3.4574373558948854e-05
2
45000
Ar	1.6906555905648336e-06	-2.556321651643986e-06	0.0032250063602786557	7.618805807243756e-05	-6.8343812684855e-05	5.950035960450792e-05
Xe	-2.1878896640029524e-06	7.745457002330697e-07	0.0027436463495304902	3.262514888428256e-05	-7.118702778706722e-05	-0.0001066410285335015
2
45200
Ar	2.211160094539462e-06	-2.430626156222595e-06	0.003225389202315897	1.7400509077839924e-05	8.796443967060032e-05	1.184600885984862e-06
Xe	-1.4221914906085025e-06	1.9248922596984052e-07	0.002742589629727203	0.00012287974924380694	-5.120225944857698e-05	-0.00010240969116430986
2
45400
Ar	1.894079350589846e-06	-1.2022140965095106e-06	0.0032251114867999334	-6.0913594532402785e-05	0.00012750741997868332	-6.618610833262318e-05
Xe	-7.446545783072713e-10	-4.022934550514526e-07	0.002742029484074389	0.00015602381842895523	-6.78526933361355e-05	-3.1350211228051505e-05
2
45600
Ar	7.005422028709376e-07	4.642112929787006e-07	0.003224332625014524	-0.00018093233257587525	0.00015858435282531936	-7.414962167848896e-05
Xe	1.2992210847736772e-06	-1.1626460685280898e-06	0.002742136174441183	9.684520043017399e-05	-5.515459034138381e-05	6.45179668941342e-05
2
45800
Ar	-1.1716510506020569e-06	1.756335516026409e-06	0.003224019112831827	-0.0001644351428290613	0.00010445977277777944	-2.102939926621502e-05
Xe	1.9226084982108355e-06	-1.355303466021626e-06	0.0027425979838050472	2.2308899669283942e-07	2.567356204061578e-05	6.3538566550315e-05
2
46000
Ar	-2.343259244987197e-06	2.2708041508573887e-06	0.003224200475464398	-8.096212131235823e-05	9.690760584054223e-06	5.69634857717735e-05
Xe	1.7080936986078213e-06	-6.304081893791201e-07	0.0027431797724691044	-3.4807534761424094e-05	0.00010767069150114724	3.523410177687795e-05
2
46200
Ar	-2.4431582842212844e-06	1.6808517617578288e-06	0.0032251745965783747	5.7947051782274336e-05	-0.00010576742220928685	0.00012453030160028061
Xe	8.697698265114219e-07	5.583935677563461e-07	0.0027433308425821564	-0.00011154051302178703	0.00010315233739787973	-2.1786353583686874e-05
2
46400
Ar	-1.6230889965642208e-06	7.675671417442281e-08	0.0032260917939108146	0.00012946407174511945	-0.000187871035419022	2.972128152330251e-05
Xe	-3.775240123723276e-07	1.4105008019103319e-06	0.0027428763943699876	-0.0001280182832578088	4.5601476264204614e-05	-4.506689699793991e-05
2
46600
Ar	-1.0184068175070111e-07	-1.6433079912916414e-06	0.003225726603015698	0.0001945751085275433	-0.00015472558959025607	-9.951964698830223e-05
Xe	-1.7548906501427133e-06	1.3701855916271971e-06	0.0027422249228131594	-0.00011313097090403502	-3.191202800179445e-05	-7.394693737562215e-05
2
46800
Ar	1.8605073744394886e-06	-2.832603644745504e-06	0.003224309405136102	0.00018959316210474673	-8.377904601262551e-05	-0.00014842905913663653
Xe	-2.523128189211785e-06	9.458760162509243e-07	0.0027415246691375786	-3.789812888369731e-05	-6.8020360025611e-05	-5.135298661711878e-05
2
47000
Ar	3.60687568844433e-06	-2.9510755303503934e-06	0.003223189580598861	0.0001445742749386738	5.881320727024348e-05	-5.163749391661024e-05
Xe	-2.1473971853693807e-06	2.866122574878693e-07	0.0027412050976423907	7.968217268438775e-05	-7.584543404231065e-05	-3.0360233423690442e-05
2
47200
Ar	4.332502322472519e-06	-1.552699307516399e-06	0.0032229936571697097	-2.3169258363268633e-05	0.0001951883190281442	2.5228501909449755e-05
Xe	-8.43461132097976e-07	-4.621332112468618e-07	0.0027413683436393996	0.00015001136643459545	-7.905195938266869e-05	6.356249666668816e-05
2
47400
Ar	3.226916849810791e-06	3.1140607323350766e-07	0.003223653242173888	-0.00020871816772074464	0.00019593157051939276	0.00010257346701015052
Xe	4.6668075216728543e-07	-7.896794609164238e-07	0.0027420887620631653	0.00013422786184789354	1.0571261290442243e-06	9.11019098100581e-05
2
47600
Ar	3.501072377413199e-07	2.1347935779766635e-06	0.0032248538916875642	-0.0003375107731224197	0.0001404245799523244	0.00011672422160458172
Xe	1.5177464342350895e-06	-5.72397541312163e-07	0.002742953081046747	6.542530654548622e-05	3.9104628364385166e-05	8.770377079714983e-05
2
47800
Ar	-2.87242426567328e-06	2.909705488233802e-06	0.0032258992536131053	-0.0002752606348907636	1.7295363662305283e-05	6.684264560353871e-05
Xe	1.60760903385379e-06	-4.249282107528285e-08	0.002743539002931919	-2.477173559684661e-05	5.565501803487916e-05	3.601809488793473e-05
2
48000
Ar	-4.8668051874257094e-06	2.439603550883525e-06	0.0032259556316322313	-9.497091661140964e-05	-0.00010114677931299654	-6.34984094013234e-05
Xe	8.791223257710412e-07	2.2070496537253837e-07	0.002743910035060108	-0.00011854131326390573	2.0358975053125477e-05	4.4500785015573465e-05
2
48200
Ar	-4.436918735379027e-06	1.1169263896431013e-06	0.003225060194099724	0.0001832086229662397	-0.00014938969409031557	-0.00010208175186594646
Xe	-2.7168635441841863e-07	3.2947839710298827e-07	0.0027437410095506546	-9.04963226186379e-05	8.558794923469048e-06	-6.121961975640276e-05
2
48400
Ar	-1.6988436775027165e-06	-3.6724709908766343e-07	0.003224071643752103	0.00032850373797654983	-0.00015330093888281732	-9.487661756996827e-05
Xe	-9.309685316166422e-07	2.2575670640083573e-07	0.002742771689111163	-2.242724042491098e-05	-1.1062615685977641e-05	-0.00012925343755133887
2
48600
Ar	1.921269930182791e-06	-1.714392468950044e-06	0.0032233879636105927	0.0003683659791131785	-0.00011571597215069225	-4.734825681734341e-05
Xe	-9.063526774988032e-07	2.426114701414929e-07	0.002741710361639931	1.8573155167847755e-05	1.312916374468806e-05	-9.799557061743729e-05
2
48800
Ar	4.9554944155807885e-06	-2.5166272334044406e-06	0.0032231311577918466	0.0001726631820029154	-2.5529113116964996e-05	2.6737767375560568e-05
Xe	-5.342435804912612e-07	2.290917137204771e-07	0.0027412959456136043	6.907219959159215e-05	-7.988227405600878e-06	-2.5680720513848972e-06
2
49000
Ar	5.272237918121503e-06	-2.1424486289650147e-06	0.0032239410204939287	-0.00011162445223681626	8.611979191904413e-05	0.00011281678464662433
Xe	7.00772016592109e-08	5.326030903367218e-08	0.0027415437494435293	6.0841985852041836e-05	-2.1217484980510713e-06	2.6080678513944e-05
2
49200
Ar	3.2146954339147454e-06	-6.610103305387988e-07	0.003225191918588039	-0.00029643040057808083	0.00016221048966961443	0.0001249165806102133
Xe	6.228100478118102e-07	-9.820173283263269e-08	0.002742157814199544	5.595881374706014e-05	-5.271271070144313e-06	9.605588602983257e-05
2
49400
Ar	-1.8266321254307666e-07	1.1725498759786699e-06	0.0032262080821242236	-0.0003568223751318098	0.00018198728542160087	6.994354925222137e-05
Xe	8.454654236371324e-07	-2.920346430352164e-07	0.002743294123324769	-1.0593561679044467e-05	-2.9855947286001225e-05	0.00012746928655141585
2
49600
Ar	-3.314034487911482e-06	2.7430874616660527e-06	0.0032262353268644674	-0.00024338844251116745	9.763062014630079e-05	-5.48978921333438e-05
Xe	7.34589679218522e-07	-4.360574592811442e-07	0.0027443584638490144	-3.297186230185216e-05	-1.2174621214034693e-05	8.129205678519622e-05
2
49800
Ar	-4.736997959623385e-06	3.269369533963823e-06	0.0032253488785360307	-3.551379264980474e-05	2.1030557421650078e-05	-0.00011531953980189844
Xe	1.3273166181372736e-07	-6.11417678589151e-07	0.002744725170133903	-4.928884121575292e-05	-1.7803844330054276e-05	-2.467876616093703e-05
2
50000
Ar	-3.742501588636528e-06	2.8472753139979513e-06	0.0032240502906668617	0.0002119931158916449	-0.00010179207481559182	-0.00010343548389483456
Xe	-3.9252894930203864e-07	-6.315107835137758e-07	0.0027436082507901354	-3.2724601575365694e-05	1.0938908595861347e-05	-0.00018161773287602172
2
50200
Ar	-1.069007710658893e-06	1.4157278818349387e-06	0.0032236069449792424	0.00032124079987048016	-0.00015936789582130756	-2.8072680179626477e-05
Xe	-5.836136993038889e-07	-3.101374554759602e-07	0.002741565551605733	1.1547500206394344e-06	4.611261947093094e-05	-0.0001797362784358607
2
50400
Ar	2.3120812369840985e-06	-3.5133527554159523e-07	0.0032237758183564606	0.00032902738420458744	-0.00019052936236484878	6.191784828496856e-05
Xe	-3.6088854725875016e-07	1.9855157103340525e-07	0.0027403182440241436	3.59822196771144e-05	4.615848363948679e-05	-5.764908799979538e-05
2
50600
Ar	4.9037379354240664e-06	-2.0248929467178603e-06	0.0032242187268583795	0.00017015977861340725	-0.00013752672301510917	3.803890755325519e-05
Xe	-6.693231649381379e-08	7.777675801926913e-07	0.002740412084140609	1.6783874070764997e-05	3.112465545776526e-05	7.677992819536828e-05
2
50800
Ar	5.157473726456426e-06	-2.88933589590916e-06	0.003224501574318866	-0.00012732630242113076	-3.200064266373355e-05	3.741301678972953e-05
Xe	9.050222236710201e-08	1.0031475479542e-06	0.0027418846799341927	1.5133774640739136e-05	2.1695180145431217e-05	0.00018205880786321098
2
51000
Ar	2.773655680535832e-06	-2.724128455698565e-06	0.0032247152416718643	-0.0003185581212343742	7.489734368271716e-05	1.7474220572374312e-05
Xe	1.149404416723192e-07	1.0683150251133995e-06	0.002743757042883317	5.107747969004342e-06	-3.1366605092609723e-06	0.0001663503482006756
2
51200
Ar	-7.856659920628665e-07	-1.4853546050377745e-06	0.003225201017629012	-0.0003853141006299025	0.00015993839843886834	8.760702154749118e-05
Xe	2.810241151900834e-07	7.220879735086016e-07	0.0027448783690047617	4.782968556813675e-06	-4.3516463389752014e-05	2.385080810057808e-05
2
51400
Ar	-4.2677659617381025e-06	2.0261253876846717e-10	0.003226142021853837	-0.0002595045388233152	0.0001268306623517004	0.0001017406001309821
Xe	3.4989016651472094e-07	1.2010582248630353e-07	0.0027442565535603157	1.7604385470954753e-05	-7.981712034151102e-05	-0.00013208981240521122
2
51600
Ar	-5.51668315555385e-06	1.4071575851517032e-06	0.003226563432625464	2.796927536416294e-06	0.00014429405268643556	-2.6255637789636468e-05
Xe	4.353262168056556e-07	-7.866253209740289e-07	0.0027428819844063797	6.50537604085588e-06	-8.269545320806565e-05	-0.00012153527638729709
2
51800
Ar	-4.266436014816127e-06	2.5413878892890957e-06	0.0032256695939628225	0.0002366880211771522	8.833345292982843e-05	-0.00016909656505775068
Xe	5.218209206295063e-07	-1.4902887646084393e-06	0.002741895500923177	1.3480821673723986e-05	-2.986059374925873e-05	-5.98860976634675e-05
2
52000
Ar	-8.847923261363562e-07	2.892568302586751e-06	0.0032238446572398767	0.00040410141491673283	-3.939314847318771e-05	-0.00015955997529300552
Xe	3.6092541908669736e-07	-1.49814018291636e-06	0.002741803701572674	-3.941441858264017e-05	2.4140257012495575e-05	2.358373259431761e-05
2
52200
Ar	3.037850675046279e-06	1.6450320292257558e-06	0.0032228169816225986	0.0003354455863237602	-0.00018588766555657595	-4.775716656831372e-05
Xe	-8.410472011790114e-08	-9.183596958373511e-07	0.0027419244331911663	-1.2762942271366723e-05	0.00011631333804912696	1.0519873821910823e-05
2
52400
Ar	5.387963072314338e-06	-5.289224860310611e-07	0.0032231198679439454	0.0001387026852941691	-0.00023770263107087701	0.00011728472438144171
Xe	-3.20167391678724e-07	4.714997838739868e-07	0.00274212687393016	-2.154741758927758e-05	0.00014889085083882221	4.731672874356862e-05
2
52600
Ar	5.606758083440315e-06	-2.5729548183038764e-06	0.003224607549130885	-0.00010643887342067103	-0.0001701216091061615	0.00018518276079000358
Xe	-5.55550477403536e-07	1.4677864920349948e-06	0.0027426356667144317	-1.874045867295709e-05	6.91252037263645e-05	6.43109853844147e-05
2
52800
Ar	3.5527989661743392e-06	-3.7910188802333543e-06	0.003226216511236685	-0.00028948583483750113	-6.0669618536786045e-05	0.0001146403376463027
Xe	-7.449282226994948e-07	2.2188331070929832e-06	0.0027430897870874557	-9.356230586543298e-06	5.9826309841171694e-05	4.006830225422538e-05
2
53000
Ar	2.7744254245821527e-07	-3.5742052754713596e-06	0.003226834261217531	-0.00036596265776593363	9.320090360564769e-05	-1.8287134080029034e-05
Xe	-6.117004604109955e-07	2.1535428834308704e-06	0.0027433693855468204	3.10036637960786e-05	-6.175125076967555e-05	2.850279086083262e-05
2
53200
Ar	-3.0804478674359275e-06	-2.05076389914378e-06	0.0032259464729625545	-0.00028937047186603106	0.0002118117701846883	-0.00016697397076101482
Xe	-3.5909452466990795e-07	1.3830417011845328e-06	0.0027434217457325215	1.2718089636763194e-05	-0.0001061464181582146	-2.387874829650314e-05
2
53400
Ar	-4.884868620669638e-06	3.9919319732416514e-07	0.003224204662439322	-6.561616852382633e-05	0.0002624610811553287	-0.00016805722027608174
Xe	7.1111394385154464e-09	-1.5381626269734812e-07	0.0027430553148645506	5.3760884901271745e-05	-0.00016333406479517758	-2.8185896760805355e-05
2
53600
Ar	-4.328900386673358e-06	2.612260735836458e-06	0.0032230505969264396	0.0001712880291525557	0.00017606196507401683	-5.036822181090162e-05
Xe	6.556347998482879e-07	-1.5470398954621714e-06	0.002742448115440103	7.172423742788632e-05	-0.000121567782641867	-6.796197248223222e-05
2
53800
Ar	-1.78136368584092e-06	3.811739933100236e-06	0.0032232975208648386	0.00032722263968868424	5.746107221078453e-05	9.777233555924453e-05
Xe	1.182288928453485e-06	-2.4576878643237646e-06	0.0027418435014312597	1.2963916888823373e-05	-4.9578120270256196e-05	-4.897941916504292e-05
2
54000
Ar	1.4526164965098789e-06	3.873479285293102e-06	0.003224544580718492	0.00030990032921042953	-6.753513365865001e-05	0.00011563122338447095
Xe	9.545801985403504e-07	-2.280903381786819e-06	0.002741671103944446	-8.337289115157296e-05	5.889631247848352e-05	4.2515953640187965e-05
2
54200
Ar	3.943016219231471e-06	2.4920110217153647e-06	0.003225791628319949	0.00014891852555924155	-0.0002170594316896463	9.422402646117486e-05
Xe	-9.911567420163167e-08	-1.1091211250507248e-06	0.002742398451907015	-0.0001316040246577509	0.00015789920705470652	8.532756855008993e-05
2
54400
Ar	4.29377223915005e-06	2.1146274579173982e-07	0.0032262612624857105	-0.00010488856186326584	-0.0002377161330324957	-1.0707821126540626e-05
Xe	-1.5537735774256385e-06	7.959710771418559e-07	0.002743453036153336	-0.00014619807424885465	0.00020489022115896505	0.0001318864324387382
2
54600
Ar	2.594950438812619e-06	-2.2042996408987144e-06	0.003225613466820507	-0.0002144872392384611	-0.00020473115635069892	-0.00010937027922274961
Xe	-2.6755523638490535e-06	2.4517048230978323e-06	0.00274442445792192	-8.400155979745619e-05	0.0001173723980847337	5.986320901486798e-05
2
54800
Ar	2.964419073126903e-07	-3.722562396339428e-06	0.0032244370841090705	-0.00021578319456784913	-9.04980898750914e-05	-0.00010308828476917809
Xe	-2.5790509562329946e-06	2.8367518803610525e-06	0.002744567198117174	7.734892916332761e-05	-3.949267075717151e-05	-7.008147586835975e-05
2
55000
Ar	-1.6323136753700568e-06	-3.906462265176899e-06	0.003224101626183037	-0.00016492917604074586	6.33777182959516e-05	4.8061548923838614e-05
Xe	-1.2808832169331904e-06	2.035199850024659e-06	0.002743461690369874	0.00017125825102712257	-0.00013950109712402341	-0.00012867776022162654
2
55200
Ar	-2.7041915823574962e-06	-2.6161254898086093e-06	0.003224892269597162	-3.226127025501655e-05	0.00019555712215401229	9.923506847589873e-05
Xe	8.93360921005059e-07	3.1793339408063967e-07	0.0027422125043496757	0.0002266524897688219	-0.00017914933792800513	-0.00011325742237073228
2
55400
Ar	-2.5505615805466566e-06	-3.684912089694245e-07	0.003225496928072627	6.336579208053838e-05	0.00023127640335406384	8.553463644212101e-06
Xe	2.6887857421453044e-06	-1.2370393599807923e-06	0.002741528220150681	0.00012039149033431641	-0.0001470407539752006	-3.384725221307114e-06
2
55600
Ar	-1.712361344797274e-06	2.0613586303929377e-06	0.0032251036865690837	0.00010931958207890988	0.0002325140540061136	-8.642442515468066e-05
Xe	3.158185174218111e-06	-2.380703192603293e-06	0.002741999661463039	-1.8917308721073898e-05	-6.474002138122117e-05	7.12679991114363e-05
2
55800
Ar	-6.51885479686338e-07	3.946381895706969e-06	0.0032241196595905065	0.00011813640937126635	0.00011747688100739724	-7.65908107889556e-05
Xe	2.0955537341561797e-06	-2.5488502310268017e-06	0.0027427233695316118	-0.00016725218551193885	3.729407850445897e-05	6.539368504613245e-05
2
56000
Ar	4.6930551065091907e-07	4.354029762958018e-06	0.00322388377601419	9.41301310930297e-05	-1.0392340472769849e-05	4.0337476265983564e-05
Xe	1.2382461119984096e-08	-1.9003519129229941e-06	0.0027432311001041637	-0.0002462204729562244	9.865637811906029e-05	5.402279706472334e-05
2
56200
Ar	1.1290795491990669e-06	3.261711880862189e-06	0.003224815149810087	6.61090378427795e-05	-0.0002151933660388549	8.901036020519262e-05
Xe	-1.9970628486396478e-06	-7.709132026530295e-07	0.002743554079636927	-0.00015099957211129635	0.0001406081542991646	1.5906557030889913e-05
2
56400
Ar	1.8588243535519259e-06	7.469605840729963e-07	0.00322567735433848	7.896421615693466e-05	-0.0002778341391986709	6.299080936294829e-05
Xe	-3.071048790861328e-06	4.821068505497446e-07	0.002743701350185058	-7.005832778482432e-05	7.977762888065391e-05	-8.347548984855195e-06
2
56600
Ar	2.428957571991349e-06	-1.8346426843523314e-06	0.003225944623457403	1.5693170420005077e-05	-0.0002263091126098078	-1.0742599184620924e-05
Xe	-3.0720719157503146e-06	9.169331385874818e-07	0.002743124206355963	8.315676681555521e-05	3.7106365449967346e-05	-9.43390549767976e-05
2
56800
Ar	2.0598941133873055e-06	-3.715716794774906e-06	0.003225423664182192	-7.976400763181905e-05	-0.00011179107999413576	-6.816833484384033e-05
Xe	-2.072177735241813e-06	1.1855536819670435e-06	0.00274240194100395	0.000131934261974253	1.3165773967349444e-05	-5.438494655270933e-05
2
57000
Ar	8.89012267772568e-07	-3.727915858997064e-06	0.0032247134379280347	-0.0001534512784254691	8.743031835623716e-05	-8.047494580672848e-05
Xe	-3.379622965394552e-07	1.142270304190607e-06	0.002742268680798071	0.00020053088829326949	-2.5297584904529757e-05	-1.9342574585184837e-05
2
57200
Ar	-7.979687627139549e-07	-2.379717867855814e-06	0.00322397311926713	-0.000178704711574317	0.0001801211393651069	-7.078418329376422e-05
Xe	1.752321365122984e-06	8.49299775837234e-07	0.0027425282678514205	0.0002079435729187774	-4.626452673791509e-05	7.847494501787581e-05
2
57400
Ar	-2.3194197231550403e-06	-4.906315365433883e-07	0.003223765888449787	-0.00011223579290403743	0.00019057152377033144	4.890309985877981e-05
Xe	3.3032899970660857e-06	5.810308702921793e-07	0.002743170232241427	5.003065746543171e-05	-2.6932289759950723e-05	7.136577832118152e-05
2
57600
Ar	-3.1593191069507733e-06	1.182126141764387e-06	0.0032245366519366575	-3.878356629646873e-05	0.00013178142574968952	0.00011339179983444634
Xe	3.0523056331367573e-06	2.2054733074120696e-07	0.002743790241727603	-7.032747480154727e-05	-4.1922778030121966e-05	1.769244540232379e-05
2
57800
Ar	-2.913453959101607e-06	2.408343974147288e-06	0.0032255616678546722	7.439611196886227e-05	8.571620321619126e-05	7.679953855774994e-05
Xe	1.6037867210217065e-06	-2.6091535413448995e-07	0.0027437073981297264	-0.00021729483564251892	-5.194218358586117e-05	-3.614653417885469e-05
2
58000
Ar	-1.7029960694743294e-06	2.630172890039955e-06	0.0032259476647003627	0.00018835124798824288	-3.9860697713624765e-05	1.3317949649490255e-05
Xe	-7.361379546009539e-07	-6.143234425236716e-07	0.002743348219458068	-0.00023576764120903556	-2.481415243793689e-05	-3.489841670527109e-05
2
58200
Ar	3.818557125838677e-07	1.6161372190363033e-06	0.0032254980453287857	0.00022560220808581053	-0.00014810097143117484	-8.590342055688328e-05
Xe	-2.5874966390390503e-06	-7.95593536445043e-07	0.0027430802098844334	-0.00013687731921710637	-2.8245898807822547e-05	-3.493251862293663e-05
2
58400
Ar	2.417447940169736e-06	-5.266613326234207e-08	0.003224554850883107	0.00019931329721380137	-0.00017670790305064556	-7.610511973027633e-05
Xe	-3.4064292144489393e-06	-6.334012807006812e-07	0.002742908696745387	-9.927423087449559e-06	4.998869229260511e-05	-1.8110746112587e-05
2
58600
Ar	3.873876368321672e-06	-1.7397595340156744e-06	0.003224053959363447	7.002090080314097e-05	-0.00015572184173486805	-6.554731367976386e-06
Xe	-2.9252456327118366e-06	-2.2882474400800484e-07	0.002742650100842155	0.00011355718087378466	5.49993456700689e-05	-2.670356924162878e-05
2
58800
Ar	3.829845094109521e-06	-2.64292270608596e-06	0.003224237433186034	-7.523004925226861e-05	-4.592313179245859e-05	3.1372669888226356e-05
Xe	-1.39713765655631e-06	3.021651883558825e-07	0.0027425790069711227	0.00018963765598395714	6.410946219922393e-05	2.2195626690641203e-06
2
59000
Ar	2.170033205456102e-06	-2.434715880986089e-06	0.003224677330353433	-0.0002282755405393401	9.054776360748302e-05	6.548134030197373e-05
Xe	5.426974204444256e-07	4.612886441326232e-07	0.002742581507291694	0.00017502893631488113	-1.9733868348608383e-05	-2.462630584761052e-05
2
59200
Ar	-3.70378503404244e-07	-9.295752602453085e-07	0.0032251733423682414	-0.0002753253860268216	0.0002069450628495274	1.670605983371837e-05
Xe	1.8432668593368385e-06	2.9582390085324553e-07	0.0027423670213521253	9.823056815226285e-05	6.780688094291182e-06	-5.9023250123009626e-06
2
59400
Ar	-2.976016129847195e-06	1.132226240782189e-06	0.0032252117153887747	-0.00023092574105506601	0.00018853542198282844	-1.520425976847671e-05
Xe	2.1994894558508974e-06	4.4465366146179987e-07	0.00274239049123679	-1.1247319853868266e-05	4.162235146870623e-06	2.6825310126242888e-05
2
59600
Ar	-4.485706060583135e-06	2.6459766892708432e-06	0.0032249365872318012	-3.7218766163354726e-05	8.750825594016776e-05	-5.752073449847238e-05
Xe	1.7820654329725575e-06	3.21563306785412e-07	0.002742984865112925	-6.308922655274162e-05	-2.929549382445165e-05	6.692697733824682e-05
2
59800
Ar	-4.086824449460066e-06	3.0548185024241936e-06	0.0032246920806874298	0.0001467085438177429	-2.14311932155188e-05	-8.465703762454542e-06
Xe	1.0425092399371246e-06	3.472564627379833e-08	0.0027434024208447703	-9.823431572364757e-05	-2.0635897852312705e-05	-8.83829182384968e-06
2
60000
Ar	-1.7729922558782416e-06	2.283884328548526e-06	0.0032246655376949405	0.0003117589502794148	-0.00012059931129092536	-2.9022197918997395e-05
Xe	-4.3265552102342545e-08	-9.149927946890009e-08	0.002743124685242306	-0.00011181983265769282	-3.534788107575509e-05	-6.430215729262671e-05
2
60200
Ar	1.485133652414022e-06	5.749677675796783e-07	0.0032242354407270146	0.0002961204341968834	-0.00022376903736479446	-4.781059856250751e-05
Xe	-1.0443878294800336e-06	-6.417538821093165e-07	0.0027424375201989116	-8.48189314201099e-05	-5.091035046368009e-05	-7.83530751799771e-05
2
60400
Ar	3.748082188552296e-06	-1.4126298189347114e-06	0.003223989248103318	0.0001492797983632406	-0.00017215935285651166	7.192301613272027e-06
Xe	-1.648112771260225e-06	-1.1902336989308393e-06	0.002741822578278653	-2.7981235960350124e-05	-5.2182940275993286e-05	-3.0387231161151123e-05
2
60600
Ar	4.0905873407263355e-06	-2.5563171066098036e-06	0.0032244086043384016	-6.643425376128986e-05	-4.873603090212056e-05	5.8210972645328055e-05
Xe	-1.6150071853870738e-06	-1.3485289449500815e-06	0.0027418457232054614	3.4550219895707145e-05	2.7021746007838e-05	4.4276316979878524e-05
2
60800
Ar	2.6519687914416736e-06	-2.3915537043347625e-06	0.0032249821726596417	-0.00021847903811775387	7.433104172274238e-05	4.722148594053631e-05
Xe	-9.420444679172806e-07	-9.850077665120036e-07	0.002742474876387386	8.87001757517349e-05	7.985327975778735e-05	8.724729016441646e-05
2
61000
Ar	2.46013535136729e-07	-1.3820039151940048e-06	0.0032255021948334817	-0.00024827997685491495	0.00010758545194236124	4.879793645517686e-05
Xe	-3.713321383109184e-08	1.8686180213175737e-07	0.002743385765436132	8.774736524819752e-05	0.0001123168800023217	9.307905044387264e-05
2
61200
Ar	-2.0526062374878526e-06	1.2733867715158294e-07	0.0032255796009900872	-0.00018400207092704983	0.00016064305670907773	-4.344533357075132e-06
Xe	6.229171993528996e-07	1.280019911153434e-06	0.002744126093611342	6.0101764645072065e-05	7.848038673225891e-05	3.069483008726702e-05
2
61400
Ar	-3.4199431025510063e-06	1.5565185589632175e-06	0.0032253319177807153	-8.270247892826941e-05	0.00011243899179345152	-4.15604089674174e-05
Xe	6.671529546704869e-07	1.5266749587830285e-06	0.0027440525335968727	-2.79202055888413e-05	-3.59466640550549e-05	-4.8296016121161765e-05
2
61600
Ar	-3.4983066688270778e-06	2.0816428662893125e-06	0.00322485902738814	6.851281080803634e-05	-8.560908011119411e-06	-7.628575638266797e-05
Xe	-2.696288104365746e-07	1.0715439204012682e-06	0.0027431535684378176	-0.00011261344482067112	-4.755103439601255e-05	-0.00011963437798810661
2
61800
Ar	-2.197680367301203e-06	1.4468080502502826e-06	0.0032239720596577365	0.00018886691031632513	-9.688067893799977e-05	-0.0001023898790682009
Xe	-1.0226101806237157e-06	4.5068628047041004e-07	0.0027421514833028274	-2.084709239384578e-05	-6.974277096223487e-05	-0.00010628842425017767
2
62000
Ar	-8.50134636536284e-08	1.2421390807113982e-07	0.003223284756954209	0.0002190537139740308	-0.00013414814120931969	-3.8143657469423174e-05
Xe	-8.2563633093297e-07	-2.007873034138353e-07	0.0027411962115563874	4.5577222660549016e-05	-4.030261498216333e-05	-5.91476886962054e-05
2
62200
Ar	2.0917955543237603e-06	-9.879172274973236e-07	0.003223342355007661	0.00019707014411900515	-0.00010171554365120226	6.93124486437833e-05
Xe	-2.4689763522110653e-07	-4.12128052897154e-07	0.0027411230721444122	8.896151239699773e-05	-1.1879731478821234e-05	4.636427769121644e-05
2
62400
Ar	3.6637314736289058e-06	-1.6329567242556473e-06	0.00322429575517	8.946868846343473e-05	-1.7789219425711195e-05	9.9692175957912e-05
Xe	5.630805785612588e-07	-2.684101102135654e-07	0.002741984950909355	6.173045572966948e-05	3.11579185206392e-05	9.933965603979961e-05
2
62600
Ar	3.4923853842689805e-06	-1.7058775910707226e-06	0.0032251368945024387	-0.00011492222883071648	3.058001792555603e-05	9.10777643984184e-05
Xe	1.1647753197451525e-06	5.011901015742371e-09	0.0027428591649560096	4.955736426335582e-05	5.270912141027066e-05	8.430726997503068e-05
2
62800
Ar	1.630518760055454e-06	-1.207876389024411e-06	0.0032257495154436495	-0.00024511063170716595	7.410325601193774e-05	2.6577820230144313e-05
Xe	1.3795738201170043e-06	6.469195163955306e-07	0.0027435681502212973	5.7233245807410316e-06	7.663359465070496e-05	4.541491078523713e-05
2
63000
Ar	-9.068419568104842e-07	-1.6672805771267264e-07	0.0032257439219950984	-0.0002699837541163649	0.00011202400456253543	-1.4159511670618401e-05
Xe	1.0056975989289816e-06	1.1778689724791444e-06	0.0027438385013443334	-7.045579376824555e-05	3.080752007217519e-05	3.215618768568056e-05
2
63200
Ar	-3.524902182524185e-06	5.449951991529945e-07	0.0032250500831286022	-0.00019227885149915593	4.591905679453457e-05	-9.47530740539769e-05
Xe	2.779862657950873e-07	9.943795412809968e-07	0.0027437818675121917	-6.051748312529855e-05	-4.605370584823374e-05	-4.203965946676398e-05
2
63400
Ar	-4.387514482881895e-06	7.988255865657036e-07	0.0032242717139731518	1.691140952036206e-05	3.0977580263335563e-07	-5.4017620514038245e-05
Xe	-2.501275338914199e-07	2.3412021311218426e-07	0.0027432334974020877	-2.1059201872953954e-05	-9.515023887741845e-05	-8.308223141898178e-05
2
63600
Ar	-3.2193567540977794e-06	5.756390902620281e-07	0.0032240877886404525	0.0002231648016722528	-3.749925103885839e-05	2.5718235082690968e-05
Xe	-3.440926824446408e-07	-6.116427860598647e-07	0.002742288555634176	6.236131794445977e-06	-7.349917505309943e-05	-8.635697558699057e-05
2
63800
Ar	-4.6686084421941026e-07	7.651383397473332e-08	0.003224438095144514	0.0003039914702976237	-3.683078445058941e-05	2.1191299244702034e-05
Xe	-1.612189340388772e-07	-1.1618212917260412e-06	0.0027416614498478125	3.56174072659807e-05	-4.772516683920945e-05	-4.757297414848138e-05
2
64000
Ar	2.432415912683281e-06	-1.6884530081875963e-07	0.00322459857054904	0.0002515577134659291	-1.1333712858225076e-05	-1.0392822973840986e-05
Xe	1.915459918918608e-07	-1.4971886184096101e-06	0.002741601164074759	3.2406427436001234e-05	-1.91863104933708e-05	4.322085402156976e-05
2
64200
Ar	3.920526804505104e-06	-1.6096336032045805e-07	0.0032246199355661217	4.789595295677041e-05	1.2382556346682712e-05	3.1228814181376534e-05
Xe	2.9785812228992007e-07	-1.3896888756900083e-06	0.0027423397765600813	1.3839559272973155e-05	5.13767872676632e-05	9.091995954547196e-05
2
64400
Ar	3.2778019958235586e-06	-4.1846708709015384e-08	0.003224863576336863	-0.00016881731139787058	1.886192649593232e-05	-2.482761607094226e-06
Xe	3.5474481349034833e-07	-6.632139890093337e-07	0.002743189850560546	7.473558134527981e-06	0.0001195109869599067	7.245624528496884e-05
2
64600
Ar	1.0062916621702014e-06	-2.448318104574127e-08	0.003224939151263207	-0.0002810427363407774	-3.9003273477557846e-05	1.2095661956554948e-05
Xe	2.069110771785824e-07	5.001980967012444e-07	0.0027436183677719867	-2.4548516755513054e-05	0.00010894875329165911	1.094977374776867e-05
2
64800
Ar	-1.8009612350371512e-06	-6.610083833179357e-07	0.003225099467396985	-0.0002660180279884444	-9.277787488123638e-05	3.5848091955748554e-06
Xe	-1.3038982100168798e-07	1.2024464456144595e-06	0.0027434418588309817	-3.5262151295771344e-05	4.2522708407939274e-05	-5.015897542073518e-05
2
65000
Ar	-3.7654641528597746e-06	-1.5259839952290531e-06	0.003225239952597883	-0.00011720601739759815	-6.971854693725377e-05	4.895164767630834e-06
Xe	-3.890099023864179e-07	1.438519448332844e-06	0.0027428907831159774	-2.5736600020543222e-05	-7.524200354617798e-06	-6.270305343584799e-05
2
65200
Ar	-4.063873492269124e-06	-1.9628251249392877e-06	0.003224967469144303	8.139542666217861e-05	2.319886831533235e-06	-4.586786031152454e-05
Xe	-6.56425999415302e-07	9.378414484048538e-07	0.002742304783727296	-1.2149493096011776e-05	-7.549946017687319e-05	-2.811738949948813e-05
2
65400
Ar	-2.51272467661186e-06	-1.4924907600147702e-06	0.0032244573496547136	0.0002288555581020293	0.00010877572903286785	-1.7671249575618297e-05
Xe	-3.3991128974277806e-07	5.384923671889531e-08	0.0027422614628553567	6.503973252346952e-05	-0.00010466523882366243	-1.0416224838553933e-05
2
65600
Ar	3.0560687336522677e-07	-4.009707597980079e-07	0.003224396100625211	0.0003163323082520529	0.00011836177088588017	6.115879775810842e-06
Xe	1.5997965306344075e-07	-1.287604126372296e-06	0.0027423240949620473	1.1291101433921911e-05	-0.0001414712535055894	2.7884492633684628e-05
2
65800
Ar	3.2040308482994637e-06	8.598474017346108e-07	0.0032245293755677356	0.00024030865493064854	0.0001362141937826014	2.95550965577985e-05
Xe	1.8071414805640045e-07	-2.2818799693425492e-06	0.0027429661615489165	-6.038818570110282e-06	-2.013504599487315e-05	8.898887814114777e-05
2
66000
Ar	4.6838733168808435e-06	2.1572108322502108e-06	0.003224835311187134	4.967172583937937e-05	0.00010366395378234018	2.9364936233445942e-05
Xe	2.2009508266563252e-07	-2.068764193496204e-06	0.002743567048698403	1.590094859357868e-06	7.713859283229757e-05	3.8123653844214415e-05
2
66200
Ar	4.606615706452042e-06	2.7860282769785066e-06	0.0032250076826605668	-9.003397180567445e-05	1.4710567690415445e-05	7.704334034613188e-06
Xe	3.083882317932745e-08	-9.464412316955842e-07	0.002743502581263686	-1.3167931816829466e-05	0.00012724058839254991	-4.209872646003982e-05
2
66400
Ar	3.071993599312226e-06	2.2889615019224236e-06	0.003225057086355123	-0.0002260135141951809	-0.0001129758127512718	9.672035444951365e-06
Xe	-1.4987231365329947e-07	4.2503063678031493e-07	0.0027430966053168344	-2.352810916958801e-05	0.00013418327642731795	-5.662994702588984e-05
2
66600
Ar	3.3132011385825737e-07	7.068838826942487e-07	0.003225145726654516	-0.00028599565399329077	-0.00020591458241936037	-1.3465520745412341e-05
Xe	-1.1859773916788889e-07	1.5344721685242096e-06	0.002742444655982609	-3.5909493305815108e-06	8.084141405863279e-05	-6.082269929148814e-05
2
66800
Ar	-2.2579448947259013e-06	-1.3278483879542742e-06	0.003224966613918265	-0.00021424763366645864	-0.0001704427421671847	-5.973068781902311e-06
Xe	-1.0646257232153646e-07	1.969634457924759e-06	0.0027417914067354994	4.874003391063953e-07	1.1534722658052655e-05	-4.642290552092553e-05
2
67000
Ar	-3.681940996231006e-06	-2.7702380060374755e-06	0.0032247772985809077	-7.708436751416097e-05	-0.00010829962687529862	-5.447687439348535e-05
Xe	-7.565590850468744e-08	2.0800441456808768e-06	0.0027418537460198815	-2.1005079361788485e-06	-1.2815289398982935e-06	4.362134031565818e-05
2
67200
Ar	-3.405555251272343e-06	-3.279545638677869e-06	0.0032244403689455866	0.00012708651990322713	2.4018787430586226e-05	-1.9485833678564416e-05
Xe	-2.2035747268011077e-07	1.5982931414328129e-06	0.002742689609973227	-3.805837377671787e-05	-0.00010139911247933693	9.864334947587219e-05
2
67400
Ar	-1.5925691786701166e-06	-2.5304076986354087e-06	0.003224440907443058	0.00024292691114319396	0.00011067456308922858	1.8799291626073747e-05
Xe	-7.406989083386681e-07	4.1365203750953837e-07	0.002743197690207963	-6.685444610994803e-05	-0.00013889435808881528	9.2964814008953e-06
2
67600
Ar	1.1168049789245842e-06	-9.989764375042693e-07	0.0032247699795460395	0.00026663575865637	0.00015715124772848853	2.5488204864962536e-05
Xe	-1.265615504039997e-06	-8.660316344890517e-07	0.0027430172553058333	-3.769687711478036e-05	-9.905606287400183e-05	-9.512306288673397e-06
2
67800
Ar	3.3045163327535915e-06	6.790879939036523e-07	0.003225137003631258	0.00013419984651230244	0.00014775031818452066	5.095973057687987e-05
Xe	-1.3363226191746525e-06	-1.5722184657399533e-06	0.002742832911153576	3.2593330032768934e-05	-3.108213609386598e-05	-8.860026712677638e-06
2
68000
Ar	3.846135319325678e-06	1.7851988702200778e-06	0.0032254488585286754	-2.8974893991566804e-05	9.51549743679749e-05	7.006916455664819e-06
Xe	-8.194005009804353e-07	-1.668931961342488e-06	0.0027428338385196696	7.899011149670931e-05	1.4285241870305988e-05	1.3359514207151404e-05
2
68200
Ar	2.7006237234106685e-06	2.3072569038878785e-06	0.003225209345259501	-0.00017863310455427697	-1.271541523027553e-05	-6.104765914340479e-05
Xe	9.610858599114324e-08	-1.0212780798547948e-06	0.002742975799821477	9.247771983306155e-05	8.194261290612347e-05	2.198057268422729e-05
2
68400
Ar	5.44251342067051e-07	1.8253333879719517e-06	0.003224627983309439	-0.00022828106671773376	-8.706339476950127e-05	-4.2283199257888186e-05
Xe	7.822388800057728e-07	-1.6469948671647005e-07	0.002743114100732341	4.8288892178492186e-05	9.565422440398167e-05	1.5441390594670394e-05
2
68600
Ar	-1.6696636590613155e-06	6.764483509674763e-07	0.003224364315697499	-0.00020154703628814908	-0.00014024473838352713	3.7368409888038173e-06
Xe	7.92985473396887e-07	7.331270211537302e-07	0.002743226295663286	-3.429729240720044e-05	7.990321930283777e-05	-9.121556285422247e-06
2
68800
Ar	-3.1746788355150577e-06	-6.4963304800446e-07	0.0032245267361922098	-8.73087854191539e-05	-0.00012483692828637878	4.532484981213416e-05
Xe	3.98940066985696e-07	1.1384158124499644e-06	0.002742887110993774	-4.587311104994991e-05	1.7096818176454708e-05	-3.972417030702357e-05
2
69000
Ar	-3.278930988360974e-06	-1.7980385974355284e-06	0.0032251426339162765	6.326384015706207e-05	-0.00010796673139804359	6.754109251236011e-05
Xe	2.5486318375428557e-08	1.2283196598663802e-06	0.002742406030265761	-2.2378081266832495e-05	1.1291691125447661e-05	-4.042557003422661e-05
2
69200
Ar	-1.8844507260507747e-06	-2.4168694302062093e-06	0.003225410031124554	0.00020863752430147787	-3.093327674023217e-05	-1.1231139697378209e-05
Xe	-1.8247191113607011e-07	9.602098457019908e-07	0.0027423050140624934	-6.805056071240557e-06	-5.971108198192021e-05	-1.8915446980843545e-06
2
69400
Ar	6.771596588982424e-07	-2.2727605933295265e-06	0.0032249641257039332	0.0002733292386335117	6.303648056025603e-05	-7.346950898598556e-05
Xe	-6.030339907029587e-08	4.041548045005545e-07	0.002742511491680069	1.60419816463483e-05	-5.617219514627602e-05	3.403939193267021e-05
2
69600
Ar	2.9386369441224067e-06	-1.3972914930003425e-06	0.0032242033471699977	0.00015595523190259285	9.191224496561342e-05	-7.397640665956138e-05
Xe	1.594762371392726e-07	-2.7628150227561783e-07	0.002742870181983297	-6.640044369927486e-06	-6.350835910951567e-05	2.1590097048148992e-05
2
69800
Ar	3.5343144948751384e-06	-3.695593146123549e-08	0.003223835314535039	-3.999189990320077e-05	0.00016268748646164585	-1.588605474311512e-07
Xe	8.79139306842422e-08	-8.406833883598067e-07	0.0027427790466806766	1.1001915154466387e-06	-3.74113801134432e-05	-1.810906993181551e-05
2
70000
Ar	2.1569574545361412e-06	1.5532602160629495e-06	0.003224393366245859	-0.00019174793238915314	0.00014811934568237917	8.148107969508879e-05
Xe	2.1039437552032644e-08	-1.239670242505181e-06	0.0027424283120856653	-1.072624339958721e-05	-3.9538259520783695e-05	-4.902771916340547e-05
2
70200
Ar	1.2501718614117726e-07	2.54648214199782e-06	0.0032252092546173157	-0.00021460381347387933	4.419397496557571e-05	7.006409816182028e-05
Xe	-7.600849373076765e-08	-1.3886056301205733e-06	0.0027418600249837933	-4.2478846599760225e-06	1.0342552717120211e-05	-4.1239871065303454e-05
2
70400
Ar	-1.7984682372173394e-06	2.5021919555583977e-06	0.0032255318797489167	-0.00017257025857740266	-5.80051374362939e-05	-1.007463276930888e-05
Xe	-4.0214663456288966e-07	-8.910669126531961e-07	0.0027416597877866	-4.606558336025267e-05	6.990451365350544e-05	1.4526795338736178e-05
2
70600
Ar	-2.9895519408978645e-06	1.3381058430402223e-06	0.003225217380343193	-2.8884021091067813e-05	-0.00017478502894804993	-5.2269667559623564e-05
Xe	-9.160385116439286e-07	-5.308394424449422e-08	0.002742173472414137	-3.5897713647832424e-05	0.00010139573053548666	7.576845494709536e-05
2
70800
Ar	-2.47078299494826e-06	-3.891549624045441e-07	0.0032246487661823932	0.00014554727889008122	-0.00015792988502022674	-3.1192730660942315e-05
Xe	-1.142554775869293e-06	9.132961736909017e-07	0.0027433759261388884	9.299250967998152e-06	9.341229941102449e-05	0.00010913461409027315
2
71000
Ar	-9.060718503906089e-07	-1.8038620438973673e-06	0.003224620317716225	0.00016059573732192363	-0.00010313086537566652	3.532668667685242e-05
Xe	-6.224838905625656e-07	1.7022188586482263e-06	0.0027442540500607977	6.820707032970145e-05	3.1692372592208674e-05	6.0892528040239144e-05
2
71200
Ar	4.723870908180458e-07	-2.3014654750519067e-06	0.0032250998792539734	0.00013871539772102132	7.303530788170249e-06	6.806748875673036e-05
Xe	1.0350756738422327e-07	1.5636446994886942e-06	0.0027440506476350706	6.128027689165125e-05	-4.5395686648373165e-05	-9.721113009501873e-05
2
71400
Ar	1.3403480475609203e-06	-1.956720760792145e-06	0.0032254588244761246	3.4292838195249004e-05	8.993674018810754e-05	-8.678483430386057e-06
Xe	5.045567574228567e-07	9.365395189715613e-07	0.0027428743441834883	2.125290842659834e-05	-7.070783335781652e-05	-0.000147321610767238
2
71600
Ar	1.1711188334226613e-06	-8.726889869754074e-07	0.0032249507260280154	-4.9508992297437505e-05	0.0001357364886404784	-7.326801692957348e-05
Xe	5.1425719195532e-07	-5.829365343597687e-08	0.002741747669464855	-1.2540515628847352e-05	-0.00013204830494556056	-6.312179148345962e-05
2
71800
Ar	4.285110728480072e-07	8.088371407720921e-07	0.0032241344428424247	-8.399556547624494e-05	0.00017364855976957777	-8.326677834996205e-05
Xe	3.152299040625217e-07	-8.616367242477846e-07	0.002741394986831492	-3.0943206766600286e-05	-3.730805238227083e-05	-1.4053735779439875e-05
2
72000
Ar	-4.4970069640129863e-07	2.3475358770874904e-06	0.003223701506648708	-6.773667742822833e-05	0.00012437548795740937	8.295265957278655e-06
Xe	2.3825999566423328e-07	-1.1661679049839581e-06	0.0027417438421257325	2.7662037973447846e-05	1.3671657289140953e-05	7.412251219793416e-05
2
72200
Ar	-1.0678096913782344e-06	3.0337747836327685e-06	0.0032241957701017094	-5.203479487917951e-05	-1.7061785856954467e-05	8.242549793632001e-05
Xe	5.121283221897274e-07	-6.515715134305762e-07	0.0027424210015836842	1.1313373416032062e-05	5.9718083249661064e-05	6.342640009414876e-05
2
72400
Ar	-1.5239699299384342e-06	2.2708824506433535e-06	0.0032249597352095264	-2.1937567979860264e-05	-0.00012165664613699376	6.613647761909573e-05
Xe	6.422896024077313e-07	-1.2652113329123415e-07	0.0027430162941532252	3.2008914278609777e-06	3.557045686622768e-05	6.68705856224184e-05
2
72600
Ar	-1.3678501620838568e-06	5.66962987524413e-07	0.0032253995251405984	6.366408834828941e-05	-0.00020957454212823534	3.106469462397621e-05
Xe	5.509544204186221e-07	4.321547143543071e-07	0.002743511780738688	-1.3457889560454659e-05	4.634585046573538e-05	3.172520346288299e-05
2
72800
Ar	-4.365636299760271e-07	-1.573716348612528e-06	0.0032252666772851183	0.00011625226414688446	-0.0001998948306467353	-1.3777620117271362e-05
Xe	2.8211155143333056e-07	7.514085141154081e-07	0.002743830396232642	-4.269256358082873e-05	2.821985013522131e-06	1.4601690003430292e-05
2
73000
Ar	7.228770772261701e-07	-2.9473471550220277e-06	0.0032251832280709635	0.00013260140347961944	-6.71107149995806e-05	-1.4107870776761392e-05
Xe	-6.739689279268262e-08	4.0176105685793954e-07	0.002743693544209336	-2.1088740715248623e-05	-4.2022394060918084e-05	-2.7267548048229196e-05
2
73200
Ar	1.836097659014664e-06	-2.8407649564598355e-06	0.0032249364862727416	6.411657307781313e-05	8.815961260513086e-05	-2.5252093084843552e-05
Xe	-2.466764544394515e-07	4.344667923404923e-08	0.002743079698016788	-9.208924692728409e-07	-3.835528622217651e-05	-5.306571655712538e-05
2
73400
Ar	2.1152972067651525e-06	-1.541006486042019e-06	0.0032245308648026854	4.456866055876174e-06	0.00014196905218502711	-3.7719782538699295e-05
Xe	-1.1353496041498115e-07	-1.4175628369962678e-07	0.0027426412381650026	1.2749233960426066e-05	-6.2990682061449e-06	-1.4315724573117383e-05
2
73600
Ar	1.7072378629975868e-06	-9.85292554700675e-08	0.0032243969530712283	-8.450816587401512e-05	0.00016217251567640783	-1.35078371585124e-06
Xe	5.856082858267688e-09	-2.9078514703073776e-07	0.0027425559690693003	-6.588528523114991e-06	-4.917247142745024e-06	1.0894925425792185e-05
2
73800
Ar	5.897336761132322e-07	1.425406530375779e-06	0.0032246596269626753	-0.00015060421935951816	9.920869010106592e-05	3.762692746763968e-05
Xe	-2.1506158667727082e-07	-3.342479088194913e-07	0.0027426419103208487	-3.035316388230486e-05	-1.9628021135421066e-06	1.9220177013511758e-06
2
74000
Ar	-1.0892572440260145e-06	1.9479905673529946e-06	0.0032251982323969223	-0.00015390454722068715	1.3777861849118033e-05	7.697016601972102e-05
Xe	-5.616339570782871e-07	-3.6615364193730004e-07	0.0027428534225701967	-1.5980446747659783e-05	1.407999206200632e-05	3.855358222148344e-05
2
74200
Ar	-2.2132503945941435e-06	1.675764915813766e-06	0.0032257962029524803	-5.5870435759861394e-05	-7.343286995018596e-05	5.3357615424721395e-05
Xe	-8.389821708725045e-07	-1.7827973676501466e-08	0.0027431496415881653	-2.367472961869818e-06	2.2318788771832984e-05	1.9631118627167845e-05
2
74400
Ar	-2.198945316404569e-06	8.68276990010443e-07	0.003225959004413282	6.735346486106136e-05	-8.654229285024712e-05	-2.975687838004837e-05
Xe	-6.141727546209333e-07	3.2683031157255953e-07	0.0027432777464780128	5.664623726715908e-05	3.741961176599959e-05	5.292935278827837e-06
2
74600
Ar	-9.715710993568118e-07	3.1100245460753065e-09	0.0032253582804103787	0.00014932073206098276	-6.767516714610934e-05	-9.41410854775876e-05
Xe	-1.6071053786668623e-07	5.57724697833996e-07	0.002743117352451565	4.490153093020758e-05	1.4710484334598635e-05	-3.364500976303935e-05
2
74800
Ar	5.321104778279027e-07	-5.638042542178681e-07	0.003224342959560271	0.00016400232151030862	-2.9582766418088217e-05	-0.0001094118254962292
Xe	3.516692842396163e-07	3.2169239182498935e-07	0.002742729700445565	8.83437934481746e-05	-3.144561819198242e-05	-3.4154852336010255e-05
2
75000
Ar	2.0493309453959014e-06	-1.0944608549624534e-06	0.0032234743678717496	9.525643005118078e-05	-7.997936782289692e-05	-3.517818873799169e-05
Xe	1.3095008584403932e-06	-1.3399873843157674e-07	0.0027425140402545936	8.215463853737409e-05	-3.910382834029797e-05	-3.5576952076962285e-05
2
75200
Ar	2.408452397402333e-06	-1.43570524506497e-06	0.00322355315889543	-4.242305434432277e-05	2.143521988937914e-05	4.874214874036407e-05
Xe	1.799134022195461e-06	-6.158067210355573e-07	0.002742065565511246	2.2997088994886884e-06	-3.045236261767033e-05	-5.211685779669961e-05
2
75400
Ar	1.751210954786431e-06	-1.1440263564601734e-06	0.0032243741285575725	-0.00011017437886034684	7.603950159032579e-05	9.103502220998313e-05
Xe	1.2638900778262084e-06	-7.588228498220571e-07	0.0027419059068653513	-0.00010420125565204797	1.0896332733955572e-06	2.5604858844272417e-05
2
75600
Ar	3.698953780833969e-07	4.214293430840205e-08	0.003225006764959674	-0.000147591682603232	0.0001237773019150676	3.724873643454538e-05
Xe	-1.165562457862208e-07	-2.8833729889949784e-07	0.002742615069934313	-0.00014810847239172555	8.372388092680544e-05	0.00010058845911005083
2
75800
Ar	-1.1018683597236496e-06	1.0114705803119556e-06	0.003225272438775199	-0.00012784523816374168	8.72290811167663e-05	1.864682810637399e-06
Xe	-1.2598714934373198e-06	7.343728239818397e-07	0.0027434572777979105	-8.332016792322801e-05	9.893542258461861e-05	7.072948309163868e-05
2
76000
Ar	-2.0992826416660017e-06	1.3768772724704466e-06	0.0032254769014359854	-6.50412100370893e-05	3.851958973200048e-07	2.375137283001124e-05
Xe	-1.97158445679638e-06	1.542443900964556e-06	0.0027439285613055533	-3.996209391585671e-05	6.505671964697612e-05	3.5785161305740856e-05
2
76200
Ar	-2.0033616632904193e-06	8.322865773043801e-07	0.0032257964872181694	7.775095963212068e-05	-0.00014015450007671571	7.422470494233115e-06
Xe	-1.8671058093672638e-06	1.5545917214133595e-06	0.0027439335200159943	6.619882520560168e-05	-7.025629589037465e-05	-3.126927623894715e-05
2
76400
Ar	-7.790103540642417e-07	-8.551466889565104e-07	0.003225417814310991	0.00017133056226992238	-0.00016535597383924384	-7.854554305324568e-05
Xe	-8.245578769958789e-07	4.5723177330773797e-07	0.0027432756950320253	0.00013846241561989685	-0.00013178868313662881	-0.00010508731867957416
2
76600
Ar	8.887286045105022e-07	-2.2285978212419407e-06	0.003224324964303427	0.0001419372055700927	-0.00011327236123543934	-0.00011058504905087592
Xe	4.666804926022554e-07	-7.246085497587561e-07	0.00274233415465927	0.00011738595159951998	-0.00010683289605357538	-8.961440355255577e-05
2
76800
Ar	1.9089476332134196e-06	-2.938846961343145e-06	0.0032236847900379588	4.754926824603362e-05	-7.252988633690488e-06	-1.877347010881488e-05
Xe	1.3427960007999658e-06	-1.5313242843363047e-06	0.002741694047319552	5.30278501783496e-05	-4.091620816923384e-05	-3.2603081148051426e-05
2
77000
Ar	1.8551850058082445e-06	-2.407254725818238e-06	0.0032239460204365462	-4.9386951462981805e-05	0.00012049472619931684	7.260382750724346e-05
Xe	1.3806446938923077e-06	-1.4255594604427512e-06	0.002741805822349376	-4.7860867407608366e-05	7.086666079900015e-05	2.467388184976632e-05
2
77200
Ar	1.0453353086561477e-06	-8.530375664151221e-07	0.0032248643153523393	-9.296192014214525e-05	0.00019314369266016897	0.00010913957002099469
Xe	6.513939187207465e-07	-2.988895587252552e-07	0.002742156205116445	-8.662730606694822e-05	0.00012505308330273946	7.140323669679001e-05
2
77400
Ar	-5.227716153110627e-09	9.990462939715557e-07	0.003225628683356548	-0.00010154578121992625	0.0001598703624634858	3.5847754266115445e-05
Xe	-1.9394052069929654e-07	8.128209256012699e-07	0.0027432988198872127	-9.279439753140064e-05	9.458718822992894e-05	0.00013547289015532546
2
77600
Ar	-8.577784175973352e-07	2.3116132043301388e-06	0.003225644717443066	-5.779132918250428e-05	7.536775810906355e-05	-1.1037481752621295e-05
Xe	-9.167362837390266e-07	1.4541585888563462e-06	0.002744436282111462	-7.003947569864226e-05	3.8964393485369527e-05	6.469723815169964e-05
2
77800
Ar	-1.2847184489184054e-06	2.2993536671754494e-06	0.003225525730221402	-2.647737437917668e-06	-6.974231006087555e-05	-1.5479463855234112e-05
Xe	-1.5045403883157295e-06	1.374973708869999e-06	0.0027444686278060536	-4.367492467951704e-05	-5.420571699038246e-05	-4.65943048715604e-05
2
78000
Ar	-7.543172785080337e-07	9.85061331344704e-07	0.0032252611654239993	8.433598957276902e-05	-0.00015266567154640658	-2.26897586002151e-05
Xe	-1.4459943350697541e-06	4.799952101185028e-07	0.0027436744984892353	4.204336259932994e-05	-0.00013980120977520163	-8.609622274609965e-05
2
78200
Ar	4.569295829747368e-07	-4.4002776329720866e-07	0.0032249814985011254	0.00013405350107074484	-0.00014605609495517625	-4.695382258738281e-05
Xe	-8.703771244866476e-07	-7.625412848949772e-07	0.0027425594875085707	6.438090463093832e-05	-0.00011968096418205881	-0.000117572632801455
2
78400
Ar	1.5570776548768918e-06	-1.5581389504014955e-06	0.0032244214656590065	6.699059433322976e-05	-5.964684900975434e-05	-4.053133364702539e-05
Xe	9.311936708741634e-08	-1.55566483665711e-06	0.002741403518033484	0.00010321334123589532	-5.671816692229205e-05	-9.212408066881775e-05
2
78600
Ar	1.965209424677127e-06	-1.8739679002174065e-06	0.003224161757091039	8.897597205787152e-06	2.7268956035206683e-05	-2.8649081164219774e-05
Xe	1.1286510283963245e-06	-1.5879276650116304e-06	0.0027410236120058284	0.00010933188930245027	5.4196362020443694e-05	4.608780242757698e-05
2
78800
Ar	1.4794530956364305e-06	-1.0991421922765865e-06	0.0032241972542362118	-8.415612639290067e-05	0.00013472500423923465	3.525697727575276e-05
Xe	1.822225599586041e-06	-9.87887596302698e-07	0.0027418888999642147	3.305811904322177e-05	9.592825234597641e-05	0.00011836375810779287
2
79000
Ar	1.4783889446294767e-07	4.558413390444871e-07	0.0032245182389405856	-0.00015211887804944806	0.000167138534205471	4.753664126407598e-05
Xe	1.5922409545019137e-06	-8.597684698280309e-08	0.002743199792497725	-7.019806820363982e-05	0.0001028068196991316	0.0001024732874414871
2
79200
Ar	-1.0344061070223346e-06	1.9298754869463545e-06	0.0032251683439346334	-8.525127912078759e-05	0.00010753625049848148	9.135375843714904e-05
Xe	5.698179839945831e-07	9.086951236421295e-07	0.0027437557408605782	-0.00013002391586500368	8.956749151602766e-05	-1.5757200586961047e-07
2
79400
Ar	-1.443894087159432e-06	2.362417783762774e-06	0.0032258454440124997	1.9054472500196504e-06	-2.3318910116086664e-05	4.7627735227321655e-05
Xe	-7.804628340026203e-07	1.56608234821772e-06	0.002743233199794138	-0.00012582059315340867	4.66210878804264e-05	-6.889362162239008e-05
2
79600
Ar	-9.837678442942415e-07	1.6604897953953877e-06	0.0032259839492779097	8.22385968814334e-05	-0.00011975960910145488	-3.36892296377501e-05
Xe	-1.488237689249531e-06	1.498440992791605e-06	0.002742617210073046	-2.2867299327138938e-05	-6.931292750191763e-05	-6.773764492575538e-05
2
79800
Ar	-8.642463266350182e-08	-6.662571943430425e-08	0.0032250566964752963	8.925413916459538e-05	-0.00019442341822504	-0.00011695853748132082
Xe	-1.4524535703261685e-06	4.5856608300159765e-07	0.0027419917867841474	5.850907686706537e-05	-0.00014996243425935014	-2.666487803283151e-05
2
80000
Ar	6.721904181358081e-07	-1.8004296061982912e-06	0.0032239204635839684	4.8966726235455757e-05	-0.00015799996196710263	-8.603016885876962e-05
Xe	-7.440138675664099e-07	-9.033908802944976e-07	0.002742293506210665	8.964177087099503e-05	-0.00011790382271457949	6.306609229532103e-05
2
80200
Ar	1.0170651521286075e-06	-3.01201973026744e-06	0.003223384946207873	2.191018636850534e-05	-5.201227815495159e-05	-7.0770842181342095e-06
Xe	1.8486563889227766e-07	-1.7892331751394063e-06	0.0027428767225714974	8.873805326583151e-05	-4.2758444081170247e-05	3.685191076369531e-05
2
80400
Ar	8.750385267632641e-07	-2.926973267796434e-06	0.0032239068954250487	-5.3413717801466986e-05	7.941923105201048e-05	0.0001282017955977132
Xe	6.451017652531236e-07	-1.717513961191137e-06	0.0027430067950673783	1.7742844001046502e-05	6.256239010675717e-05	-2.186566297667218e-05
2
80600
Ar	9.711316393257922e-08	-1.2321481565398916e-06	0.0032253260776215465	-9.838921525900816e-05	0.00023388604510815033	0.0001349231802953907
Xe	7.851975401590918e-07	-8.162696830267963e-07	0.002742574663087625	-3.5144343672905175e-06	0.00011696847103799924	-5.4710981647342314e-05
2
80800
Ar	-6.091424521207393e-07	1.0309973911181631e-06	0.0032262830435948434	-4.850047904119689e-05	0.00020779418223595001	3.377091398283239e-05
Xe	7.328823009112854e-07	5.816284361827432e-07	0.0027422243624506673	-1.2427405133069163e-05	0.00012395887976437384	-1.8775768483410607e-05
2
81000
Ar	-9.376994093064318e-07	2.596087658494571e-06	0.0032258059215834966	-3.584132627829456e-05	0.0001099406667558529	-0.00011097145705822053
Xe	3.060825339512008e-07	1.426161862123084e-06	0.002742510725837903	-7.472446291962596e-05	6.134410525050909e-05	6.194675074280328e-05
2
81200
Ar	-1.1028811889388287e-06	2.7942040933536365e-06	0.003224309188288717	2.3828963364785696e-05	-5.66384739714745e-05	-0.00015275618710768719
Xe	-4.403071223029672e-07	1.8851659618732876e-06	0.0027430750976168206	-7.479234539957049e-05	-2.5894135129606133e-06	2.6724703904010556e-05
2
81400
Ar	-6.427923143069812e-07	1.3609996329740264e-06	0.003223207103612112	9.112615704326229e-05	-0.00022051622581974872	-4.049764250327884e-05
Xe	-9.523469275361342e-07	1.5013603219414086e-06	0.002743059186461201	-2.0472073745651848e-05	-7.010178511677953e-05	-1.6291995029909766e-05
2
81600
Ar	4.772366846494353e-07	-1.0866753006535893e-06	0.00322367482397406	0.0001299706554012397	-0.0002514426351096657	0.0001069768380330418
Xe	-8.944548042543318e-07	5.312075279725656e-07	0.002742715857616869	2.1939178210173304e-05	-0.00011458476014452297	-4.3449189843536064e-05
2
81800
Ar	1.5908068688241588e-06	-3.1194374928108843e-06	0.0032249753572440704	0.00010409954985794522	-0.00012349975248918718	0.00014466628685003876
Xe	-3.326319463342563e-07	-3.5004595673658756e-07	0.002742165063246501	8.321544636927476e-05	-5.4023418491546736e-05	-5.59748063432631e-05
2
82000
Ar	2.5296647521853945e-06	-3.407355783614866e-06	0.0032260078300912504	7.026983699608941e-05	5.299435939864994e-05	4.5619802221989e-05
Xe	7.134207824847251e-07	-8.562288988103047e-07	0.0027417883184236943	0.00010331356546376033	-5.164082657900068e-05	-1.2552627124148762e-06
2
82200
Ar	2.4881499218114407e-06	-2.3411055804155525e-06	0.003225627434189222	-4.052308263701194e-05	0.00016072139360036802	-9.760029079273957e-05
Xe	1.4951050861074856e-06	-1.2939605783862224e-06	0.002742255648298759	3.8864555658446134e-05	-4.072025038568414e-05	8.629540679168382e-05
2
82400
Ar	1.3368940070035724e-06	-1.8984563548752616e-07	0.0032244776325972427	-0.00017662606851236875	0.0002491584045337921	-0.00012170136125590645
Xe	1.6790890669134864e-06	-1.307334616617273e-06	0.002743043348143211	-1.9865149824274986e-05	3.7580453842803205e-05	5.697330243836709e-05
2
82600
Ar	-6.546008950776938e-07	2.3435764554480344e-06	0.003223532448424156	-0.00020739034216470982	0.00022562514590169044	-2.6649316231402916e-05
Xe	1.0866410239957774e-06	-7.858813200461758e-07	0.002743387732082879	-9.136542040282627e-05	6.529929932111208e-05	9.321046248150523e-06
2
82800
Ar	-2.2524338063758237e-06	3.868478442952632e-06	0.0032240322621203	-0.00011316179242137015	6.356835509015605e-05	0.00010343225817435872
Xe	2.48961253798058e-07	-1.634395342567827e-07	0.0027429433596708524	-7.672898979242034e-05	7.549508982709788e-05	-5.847285320412213e-05
2
83000
Ar	-2.921660686773159e-06	3.561058226882165e-06	0.0032250753158278756	-1.7447724803845307e-05	-0.00013335290016355567	9.932169790862012e-05
Xe	-5.869009111030545e-07	4.997703563084397e-07	0.002742256414920813	-8.924307014150559e-05	6.215812997031009e-05	-6.114634291771342e-05
2
83200
Ar	-2.423820317611716e-06	1.4369878444394724e-06	0.0032257700440776545	0.00011533150159468011	-0.0002805473426288583	1.2879496770607794e-05
Xe	-1.2611857942582259e-06	7.394349433841847e-07	0.002741862651020312	-4.604975085080181e-05	-6.743334214641673e-06	-4.269975860994368e-05
2
83400
Ar	-7.97782563743271e-07	-1.3784139438215333e-06	0.003225435675674591	0.00018535559506190633	-0.00023608345338355764	-7.532162335664761e-05
Xe	-1.5029798485144713e-06	6.045944150967258e-07	0.0027418332194670118	2.7516857441458854e-05	-2.5794045961782954e-05	2.5585860015363354e-05
2
83600
Ar	9.488475523114654e-07	-3.3989954749368937e-06	0.003224463759264374	0.00017227003035258083	-0.00014040650453419286	-0.00010757082384468189
Xe	-8.732964395329977e-07	3.0467614383609324e-07	0.002742205759485343	6.945076805060706e-05	-2.3273044957177872e-05	1.5446131861101e-05
2
83800
Ar	2.4488777828322904e-06	-3.910023795504047e-06	0.0032237060180938864	0.00013120261164805091	4.511055915085841e-05	-4.684696926627063e-05
Xe	-2.246182601608425e-07	-1.042437656073124e-08	0.0027424646417807384	6.159974700783405e-05	-3.397080882990653e-05	3.493791110127874e-05
2
84000
Ar	3.043396557765614e-06	-2.5876833760761077e-06	0.003223652896031145	9.937691588636321e-06	0.000213579579126844	3.360451342125973e-05
Xe	3.7794583225439426e-07	-2.3442143384261118e-07	0.0027426915647526255	4.5989136310257396e-05	-7.56747487608018e-06	6.706214124252926e-07
2
84200
Ar	2.4731877661128428e-06	-1.6468776595674238e-09	0.003224313951828644	-0.00014148737728837874	0.0002675675002790139	0.00010012813600098138
Xe	8.187202962433972e-07	-7.176132245059152e-08	0.0027424626475505975	8.433839974896362e-06	2.4826097162561165e-05	-2.8776187342311508e-05
2
84400
Ar	6.445020959239732e-07	2.2170126695044596e-06	0.0032255799301348525	-0.00017888486106111938	0.0001671597262540158	0.0001378560972947393
Xe	5.893751152056079e-07	1.8662068390087478e-07	0.002742231491712055	-3.3935286074682694e-05	1.00954451989235e-05	-1.4796961141694576e-05
2
84600
Ar	-1.1922472896202986e-06	3.3074071282288546e-06	0.0032264650847670787	-0.0001706147983374321	2.6663298689724306e-05	6.02610939792165e-06
Xe	7.344889680883241e-08	1.2949684611350226e-07	0.0027425708479632783	-6.541256523766656e-05	-1.8928660446366158e-05	8.510356848344108e-05
2
84800
Ar	-2.588573843611528e-06	2.775311934251669e-06	0.0032257909797425103	-6.691454455100907e-05	-0.0001198718086938374	-0.0001191036508869873
Xe	-4.355629874555907e-07	1.5244813348599635e-07	0.0027433847152566124	-4.826071878919371e-05	2.375851813967447e-05	6.0725283541262035e-05
2
85000
Ar	-2.4771726621102828e-06	8.933301236381987e-07	0.0032244548881471217	9.545674957090415e-05	-0.0002274102408504454	-0.00014395155637054205
Xe	-7.318159643436693e-07	2.2706842916993326e-07	0.002743784191227818	-1.9672806649373132e-05	-7.254275227430069e-06	2.4187426208126835e-07
2
85200
Ar	-9.875337548279676e-07	-1.4139838298896735e-06	0.003223409723886352	0.00018173192760534678	-0.00019578765496556076	-6.273396893929015e-05
Xe	-8.792306748491271e-07	1.0810270636686722e-07	0.0027433041193885032	-4.351214542079181e-06	-9.53247596222431e-06	-0.00010189547334576551
2
85400
Ar	9.859320256542584e-07	-2.7338872380811096e-06	0.00322354677693148	0.00018681962332471922	-4.947448335740265e-05	8.091986626836573e-05
Xe	-8.886728667093902e-07	-1.1579969348572108e-07	0.0027421751700800524	1.8697063192146384e-06	-1.0349631703880564e-05	-0.00010458063783496795
2
85600
Ar	2.623556408529851e-06	-2.7199003109324957e-06	0.0032247357696757175	0.00012622133764849785	4.1307298664022464e-05	0.00012922945235292423
Xe	-7.11663164364987e-07	-1.5429565864193575e-07	0.002741216591158788	2.130422036722681e-05	1.3894155965335274e-05	-6.083358723998297e-05
2
85800
Ar	3.152342612475522e-06	-1.888815477396292e-06	0.003225720386153006	-1.6367241909438954e-05	0.00013643694348650217	5.816125041787623e-05
Xe	-5.3128367423908e-07	-1.2428790929011897e-07	0.002741250271330862	1.3072020053577918e-05	1.0441802589607864e-05	7.247921105454711e-05
2
86000
Ar	2.274515626281831e-06	-1.545443943508479e-07	0.003225679324482113	-0.00014342337019630005	0.00019872818386065471	-4.8244617821864477e-05
Xe	-5.97521262717975e-07	7.660086681510744e-08	0.0027425489224792415	-1.2435565071393674e-05	7.1829804881792195e-06	0.0001628662081201497
2
86200
Ar	5.622106359546807e-07	1.6978932450952398e-06	0.0032251969476258494	-0.0002056022346601498	0.00014942991233863711	-4.981528018648521e-05
Xe	-6.163413770135888e-07	-2.848433488850963e-07	0.002744199507710555	9.85171083703903e-06	-6.439793970917614e-05	0.00013337047336188412
2
86400
Ar	-1.3751612399970697e-06	2.69153309029823e-06	0.003224993207735372	-0.00015153075268502578	2.829402396890188e-05	7.365654112877507e-06
Xe	-4.0124001812968146e-07	-9.530995408501666e-07	0.0027450571851215556	1.3698097370919907e-05	-4.81009012825358e-05	3.966519902206121e-05
2
86600
Ar	-2.4622719781597664e-06	2.3552938561510517e-06	0.003225269665330647	-7.928134312236353e-05	-9.231888573146332e-05	4.031099138013294e-05
Xe	-1.8558080167456928e-07	-1.1507736693855316e-06	0.0027446567173069437	4.737213338302626e-05	-5.69566450887735e-06	-9.741903994226927e-05
2
86800
Ar	-2.5466532330834867e-06	9.077664375560576e-07	0.0032255356677351847	5.984537902954978e-05	-0.00017696397829734453	1.2998529119667506e-05
Xe	3.560007659185692e-07	-8.435367884591215e-07	0.0027432926320477198	3.526069260764127e-05	6.342563687437001e-05	-0.0001917230873729859
2
87000
Ar	-1.444864982507177e-06	-1.0125013610071655e-06	0.0032256242246139375	0.00013527542372397726	-0.0001635157328559613	-4.323837108132659e-05
Xe	3.8763596554041673e-07	-2.37630110639875e-07	0.0027415727611597327	-6.388369296654719e-06	8.046731457212429e-05	-0.00013690710297649807
2
87200
Ar	1.1897868072604837e-07	-2.1255076541020597e-06	0.003224739642368083	0.00016274782910165886	-3.362952629374919e-05	-0.00013017044516023488
Xe	1.5090386060127185e-07	3.9744539299998647e-07	0.002740944218241163	-3.6055721419275995e-05	4.422405802241496e-05	1.2680133860108704e-05
2
87400
Ar	1.5612447939081508e-06	-1.7764822590160883e-06	0.0032236497061437167	0.00012657150722258825	9.792911701387128e-05	-6.909505616110516e-05
Xe	-1.6255531902854523e-07	8.619331230055806e-07	0.0027418170052240128	-1.2381587931643913e-05	3.2494680131833215e-05	0.00013021582325365965
2
87600
Ar	2.75823216403297e-06	-6.100844140817479e-07	0.00322352879369665	7.497587223394111e-05	0.0001127538834067759	5.67488279468156e-05
Xe	-1.3040729586848265e-07	1.0673377807978641e-06	0.0027430987550984996	3.439319155479586e-06	-9.933093710256541e-06	0.00012683788768690313
2
87800
Ar	2.9041036166734715e-06	5.506497992825405e-07	0.0032245769516697814	-6.310728670121209e-05	0.00010055283537188336	0.00011922120675451389
Xe	-1.3968419844462416e-07	6.845216576591483e-07	0.0027441246320154948	2.4970051269997735e-05	-4.85572809826558e-05	7.520587218600707e-05
2
88000
Ar	1.7722834828960482e-06	1.204034946207313e-06	0.003225877991856819	-0.00016876400933241506	1.3353541001394806e-05	0.00011932824870185706
Xe	3.0443520051951034e-07	-7.292963728296295e-08	0.0027443950595129186	5.2656793099085136e-05	-6.636465995120384e-05	-3.3537667529340554e-05
2
88200
Ar	-2.2817995384590069e-07	1.230836660502932e-06	0.003226375808687162	-0.00023254377053091122	-1.447415681446323e-05	-2.207215039533169e-06
Xe	7.312493189433924e-07	-7.809235135501158e-07	0.0027433401997353536	4.399476650682229e-05	-6.18144246577357e-05	-0.0001487466081809525
2
88400
Ar	-2.4044589338640782e-06	8.764524821992049e-07	0.0032258050927173026	-0.00016602169414705863	-9.174577629323318e-05	-0.00012036913004973133
Xe	8.506612344169226e-07	-1.1926805677768162e-06	0.0027419601791273305	-1.7582659883844535e-06	6.976730679188503e-06	-0.00012145754294425814
2
88600
Ar	-3.6291602868516794e-06	5.163474522975947e-08	0.0032243188730823593	-6.317561835062985e-05	-6.060299269284715e-05	-0.00016117783782092088
Xe	8.44016916095149e-07	-7.883223508398354e-07	0.0027411576857921073	-7.5059351201940645e-06	4.770380174648565e-05	-3.663785730721016e-05
2
88800
Ar	-3.748538862124301e-06	-4.566252948446553e-07	0.00322281410127063	5.6126587849531894e-05	-2.2013275899488803e-05	-0.00013011148312955112
Xe	8.343721193965027e-07	-4.000457235818479e-07	0.0027412923224152713	-2.33895271252175e-05	5.298971107032412e-05	5.2678879836688314e-05
2
89000
Ar	-2.268970916027619e-06	-5.870485826836705e-07	0.003222422094680122	0.00023290239241312096	8.735403306462052e-06	5.9518945784797025e-05
Xe	3.770323291303835e-07	2.447923781318834e-07	0.002741976798555456	-5.719023964281131e-05	6.820113675147254e-05	6.971380981676043e-05
2
89200
Ar	2.213421953187465e-07	-4.6092030786271717e-07	0.0032237158180206484	0.00023926647750896536	1.0933210411883983e-05	0.0001931235073973849
Xe	-2.584313539770303e-07	1.0202518844331559e-06	0.0027428591085073215	-4.2027917389793074e-05	5.524333344765499e-05	0.00010281539478962506
2
89400
Ar	2.1816339550178864e-06	-2.659275235717034e-07	0.0032259240448395195	0.00015913177780290508	2.1516384916323643e-05	0.00020823883677726295
Xe	-4.860311817425316e-07	1.3191037540767247e-06	0.00274366645070106	-2.7760190454569385e-07	1.3506791891439272e-05	7.48788455936886e-05
2
89600
Ar	3.1224734350616984e-06	-4.133020335875862e-08	0.003227259668546022	3.2970195584860005e-05	2.5680097581524022e-05	5.0486481616501716e-05
Xe	-4.4295548485823747e-07	1.05475875182294e-06	0.0027442074688421294	8.808251192719675e-06	-4.101523857949104e-05	3.080184195647628e-05
2
89800
Ar	2.781517113843061e-06	3.123158194446352e-07	0.0032268876588595462	-0.0001294692882700304	3.5211974676313765e-05	-0.0001291971570187038
Xe	-2.4674489238861714e-07	6.003471988983977e-07	0.00274438140232444	2.695037115224488e-05	-2.93039850325792e-05	4.3902704093196455e-06
2
90000
Ar	1.0290777227731572e-06	3.379212769859752e-07	0.0032249684165181185	-0.0001753016197097107	-3.296021261986277e-05	-0.0002241781285795907
Xe	1.9559919127153304e-07	6.712785767051437e-08	0.0027441772247119582	6.077735924119251e-05	-8.764750504841072e-05	-6.011958972570499e-05
2
90200
Ar	-5.746513457894352e-07	-9.30488965673362e-08	0.0032230319384881838	-0.00014254720501806836	-3.30016030415214e-05	-0.00014548525114383462
Xe	1.1184159354539223e-06	-6.986244607821197e-07	0.002743052519931546	0.00010556640370731658	-3.58020642032537e-05	-0.000156504405611642
2
90400
Ar	-1.6659117464605657e-06	-2.2878453414604574e-07	0.00322245613803424	-7.028773986910839e-05	-1.0778824330425042e-05	1.8941867033289373e-05
Xe	1.8898903942086716e-06	-1.0105258285785961e-06	0.002741421477680919	4.1631338157455835e-05	-1.522931433153568e-05	-0.00015326852916131806
2
90600
Ar	-2.2688422002975694e-06	-2.2541432318317396e-07	0.003223361098116342	-4.188299667171555e-05	1.914121005554478e-05	0.00016724578851950084
Xe	1.7666097964965999e-06	-6.190196197525009e-07	0.0027405739723059238	-7.169036316530398e-05	5.4665311227225096e-05	-1.3677790695840747e-05
2
90800
Ar	-2.531280028294359e-06	4.819129615134767e-08	0.0032251327677609975	2.2770605303396514e-05	3.4849848767393254e-05	0.00015964370920844114
Xe	7.013823240304583e-07	2.762699740294823e-08	0.0027412412043687747	-0.0001275674551387036	8.211138224212889e-05	0.00016751540670763068
2
91000
Ar	-1.9759384434634276e-06	6.115958173984064e-07	0.003226211726434263	0.0001186921917995306	6.811499861201012e-05	4.0577419463844757e-05
Xe	-4.671806103952408e-07	8.12853524581456e-07	0.0027428519887728077	-0.0001132166199934573	5.549424903109184e-05	0.0001598359489271414
2
91200
Ar	-4.5164863295063584e-07	1.0024759783648902e-06	0.003225943459239355	0.0001899869689783693	2.9211241840938306e-05	-6.77268440292387e-05
Xe	-1.3237110435539206e-06	1.0894002985442908e-06	0.0027443129254503935	-6.561603047644621e-05	-6.944917390478933e-06	0.00013374103046019797
2
91400
Ar	1.6702167655424052e-06	1.1160535979308493e-06	0.003225251021434612	0.0002018635550868355	-2.124388045184221e-05	-6.511592441366245e-05
Xe	-1.3723132756460366e-06	6.261758884860378e-07	0.0027448876442897523	4.016892753581973e-05	-8.806243800475275e-05	-1.797442441346444e-05
2
91600
Ar	3.19723911891952e-06	4.94713432447761e-07	0.003224600427691609	0.00010676177788300336	-9.11505412656315e-05	-6.64543056189725e-05
Xe	-6.183035263000513e-07	-2.9239939076933976e-07	0.0027440509950601624	9.177682401169435e-05	-7.9892780876487e-05	-0.00014191131096398787
2
91800
Ar	3.45541302638258e-06	-4.1465420715695847e-07	0.003224084163200941	-7.004919634554955e-05	-8.601736918191964e-05	-5.5472400172557783e-05
Xe	1.4656561357520532e-07	-9.270989150114935e-07	0.002742354545887622	5.3124225083068064e-05	-6.315154371157673e-05	-0.00018545080679294407
2
92000
Ar	2.015947359473777e-06	-1.0010424222660746e-06	0.0032235592321370535	-0.0002101584994901467	-4.8215120843350204e-05	-1.5958841306998797e-05
Xe	4.118041587581186e-07	-1.3798568305897387e-06	0.0027408386789846036	-1.2524264889391203e-05	-1.687078612909415e-05	-0.00010010826335795988
2
92200
Ar	-1.2794351730249968e-07	-1.0938183321801836e-06	0.003223555456386007	-0.00020788403572047622	3.136052657560646e-05	-4.981666585734869e-06
Xe	1.7584104825816996e-07	-1.381129918487493e-06	0.002740603922328793	-2.6338310137840442e-05	4.317960298805317e-05	5.5817102862492095e-05
2
92400
Ar	-1.969853016272179e-06	-5.911009395461547e-07	0.003223702682892159	-0.00015765517914087507	7.209058055247325e-05	3.073708641234463e-05
Xe	5.891533912234511e-08	-9.37379975997618e-07	0.002741582803389193	-6.045618112115549e-06	7.418053540826983e-05	0.0001124367190802127
2
92600
Ar	-2.82400058985604e-06	1.1714624127167381e-07	0.00322420413468802	-4.4342651861671605e-05	8.085152123384356e-05	7.174000690547034e-05
Xe	-1.087985408162142e-09	-1.5019278696317614e-07	0.00274283154178052	-2.8361773759144317e-05	8.885262317992712e-05	0.00012088435015003863
2
92800
Ar	-2.448583032134974e-06	1.0301965461725792e-06	0.0032249280624332705	0.0001217668294427358	7.730188215386203e-05	6.954915952701425e-05
Xe	-1.946908574009716e-07	6.961327172274959e-07	0.002743562705454907	-3.013733353514193e-07	8.7686093730957e-05	3.142233126919078e-05
2
93000
Ar	-9.107844007932224e-07	1.2912860079325644e-06	0.003225532647421083	0.00018257630833093554	-3.164978697418303e-05	3.123266504901197e-05
Xe	-7.669828637128802e-08	1.2374421151707269e-06	0.002743547156207254	1.8101844146709624e-05	-1.3181484658294313e-07	-2.4172918088229065e-05
2
93200
Ar	9.817261158814522e-07	6.086839756000087e-07	0.0032255154982850152	0.00018135488430429185	-0.00010159431656660357	-1.8371022880495127e-05
Xe	1.6482672333330106e-07	8.017972340894947e-07	0.0027429748093069687	3.44052081277996e-05	-9.055366438483691e-05	-8.00316098661302e-05
2
93400
Ar	2.550547840303562e-06	-6.069366604843214e-07	0.003225065971827104	0.00011246901346359264	-0.00013202962865897777	-6.351053572281303e-05
Xe	5.221141864921418e-07	-1.143602302072703e-07	0.0027423020192777797	1.8024828661281147e-05	-8.484483880361656e-05	-3.087494002387765e-05
2
93600
Ar	2.9136490439220073e-06	-1.7905112736475005e-06	0.0032244128382232385	-3.521527576687459e-05	-8.313408643298344e-05	-6.236228550481908e-05
Xe	7.18601726193094e-07	-8.538729217528555e-07	0.002742176934701006	1.6416847824757448e-05	-3.207942460254466e-05	-1.6932447384442003e-05
2
93800
Ar	1.9743616943798505e-06	-2.2101072953984012e-06	0.003223685691156521	-0.00016221314748085416	2.012058380966688e-05	-6.341225252466824e-05
Xe	9.514853155188903e-07	-7.738888395617955e-07	0.002742179630098123	1.0558238848495714e-05	4.8488682535114e-05	1.901293139883712e-05
2
94000
Ar	7.035541328693496e-08	-1.5461973019081747e-06	0.003223574404679422	-0.00019607278049007463	9.698335900226146e-05	4.9547286481018946e-05
Xe	8.062653444406365e-07	-7.844353701090466e-08	0.002742337864197904	-1.8119369076679013e-05	7.665614176243876e-05	-1.3545644321629775e-05
2
94200
Ar	-1.7988763160505496e-06	-3.082060200531025e-07	0.0032242851263655148	-0.00018438844228401652	0.0001160087469765667	9.544199349302549e-05
Xe	2.4796791740092047e-07	4.7585538414575744e-07	0.0027424379723662	-9.060408278613076e-05	5.01940529565736e-05	1.959873385939331e-05
2
94400
Ar	-3.0519314914739767e-06	8.827506180233547e-07	0.003225329592641614	-8.13428963317331e-05	0.0001040818386309282	9.71459613139294e-05
Xe	-3.24232291321338e-07	9.268224241112353e-07	0.0027425089640423397	-3.201335738397753e-05	2.4864623789457233e-05	2.326696026478821e-05
2
94600
Ar	-2.7881960690939074e-06	1.6023397696450707e-06	0.0032259231387785116	0.00011797792347154846	2.6150889142514442e-05	-2.6629054382102776e-06
Xe	-6.243306927731652e-07	1.0486550645344181e-06	0.0027428962382548016	-2.0116322492009085e-05	-1.6435861261351467e-05	5.7591890036372766e-05
2
94800
Ar	-1.0453138639519693e-06	1.2763767379109492e-06	0.003225517693914612	0.00022627620467311773	-0.00010836367648221627	-6.963226773577101e-05
Xe	-6.996027699035287e-07	6.063303250017527e-07	0.0027431781074819532	3.971985213481493e-05	-8.344914062386041e-05	-1.4676342026810003e-05
2
95000
Ar	1.2678861845224398e-06	7.880211827455458e-08	0.003224752096568231	0.0002039617279569522	-0.00013317508198993895	-8.715690312537e-05
Xe	-3.398963654136532e-07	-2.304039971066804e-07	0.002742668011966508	2.483031409162147e-05	-7.780066722018704e-05	-5.0282028919609956e-05
2
95200
Ar	2.8480235116755955e-06	-1.2444393767586137e-06	0.00322418195152763	9.562419497400327e-05	-0.00013072268607313084	-1.2719797743857378e-05
Xe	9.349788537578293e-08	-8.523934557218531e-07	0.0027423790705460244	7.699714020375626e-05	-2.6400251983178736e-05	-9.39105862606292e-06
2
95400
Ar	2.8910803298482047e-06	-2.0037809609099533e-06	0.003223959494784885	-6.483792007574347e-05	-1.1746398800261942e-05	-2.32297565644149e-06
Xe	6.150455607522615e-07	-9.069767557640089e-07	0.00274222586540682	4.503043926193637e-05	2.4374456961061903e-06	-1.4711750982268534e-05
2
95600
Ar	1.7025645450747011e-06	-1.605390473555194e-06	0.003224199100754754	-0.00017623002889636025	7.595943327733551e-05	4.239108483060852e-05
Xe	8.175999179194752e-07	-6.851384698430821e-07	0.0027421719004470935	-1.9601275603777234e-05	2.6379295036115177e-05	1.6334575732904005e-05
2
95800
Ar	-3.202687050917649e-07	-6.260572661063799e-07	0.003224838848164232	-0.00020185588791372697	0.00011593340287990502	7.414770793708973e-05
Xe	6.127473359080351e-07	-6.755932524001003e-08	0.0027422829804833178	-4.496624578351249e-05	0.00010625123655524124	1.4204269383391102e-05
2
96000
Ar	-2.067968424584887e-06	7.028897430234632e-07	0.003225415647549822	-0.0001404989436524876	0.00011653159102731036	4.06551221923466e-05
Xe	-7.274280171521532e-08	1.1494301349617714e-06	0.0027427036248315606	-0.00010178741963165849	0.00012010516483241688	5.9271181602000624e-05
2
96200
Ar	-2.677153984487935e-06	1.8424146118616503e-06	0.003225726943520238	1.1372948169385107e-05	9.249184385265468e-05	1.4024153901964566e-06
Xe	-7.972270178202507e-07	2.0215289051252183e-06	0.0027435514997530093	-2.8371670054285463e-05	4.649627390380204e-05	6.431745690901156e-05
2
96400
Ar	-1.8711612007032553e-06	2.224911454325564e-06	0.0032257068918479653	0.00015314107739803818	-7.624527251870247e-06	-2.6003519682261713e-06
Xe	-8.79810178571927e-07	1.8227894252936077e-06	0.0027438665704979316	2.208573310524321e-05	-8.257873106821208e-05	2.3339805238314295e-06
2
96600
Ar	1.6228101141641035e-07	1.7942758034392985e-06	0.0032253143378465038	0.0002499109683027485	-9.556132859797872e-05	-6.433262292139117e-05
Xe	-6.779752610265651e-07	5.935678134732245e-07	0.002743458999443271	2.9004435104457664e-05	-0.00014557856933812422	-6.527794803427832e-05
2
96800
Ar	2.1209376629257277e-06	4.138686665733622e-07	0.0032247256130474105	0.00015286105992594088	-0.0001469082734973475	-4.691235532212593e-05
Xe	-2.6545762042273285e-07	-1.031108373598079e-06	0.002742853745517402	5.132291026188093e-05	-0.0001833771428782649	-6.101732323421368e-05
2
97000
Ar	3.3023255690006666e-06	-1.0179703739371594e-06	0.003224304690123879	5.658587030404233e-05	-0.00010823304674731102	-3.604399169822645e-05
Xe	1.9093762318317497e-07	-2.438282965460217e-06	0.002742275086185552	3.3226924102813175e-05	-7.552881084188697e-05	-3.911319579397019e-05
2
97200
Ar	2.9794786642759385e-06	-1.7102184902714945e-06	0.0032241037265712163	-0.00011607158852815879	-1.8206944779926163e-05	5.9484126907697714e-06
Xe	3.791965885581451e-07	-2.5492128262704964e-06	0.002742071159143413	-1.4663431795888828e-05	5.396611942747155e-05	1.3523623726101083e-05
2
97400
Ar	1.3495334856194521e-06	-1.1744384531199096e-06	0.0032243744922585897	-0.0001989638980502983	0.00012240184218935052	6.198365085274356e-05
Xe	-1.7115192114968218e-07	-1.5621064968738656e-06	0.0027422123246453314	-8.63936236754164e-05	0.00013233183215397652	5.85191935137901e-07
2
97600
Ar	-6.457619681852179e-07	1.0708720349154683e-07	0.0032249179063753588	-0.00018497603763413718	0.0001467585685949841	5.944777297555887e-05
Xe	-7.850895707442009e-07	6.960887925503696e-08	0.002742598878064068	-4.262137118339826e-05	0.00017129935524626847	6.430593272865777e-05
2
97800
Ar	-1.964427492744461e-06	1.314980849918885e-06	0.0032254673967812473	-7.845337289291779e-05	0.00010841985184089045	4.445842420515846e-05
Xe	-9.20954217361604e-07	1.4135273797130395e-06	0.0027432350747179533	-1.303090550234487e-06	7.940156958942163e-05	6.235587098920468e-05
2
98000
Ar	-2.027602825680968e-06	1.5988559493599632e-06	0.00322547645155366	6.851271530813252e-05	-5.5524452643533955e-05	-2.801589357029056e-05
Xe	-6.310647494671243e-07	1.8843198973948346e-06	0.0027438430114397434	6.245271168108908e-05	5.43783344045766e-07	3.435009361073067e-05
2
98200
Ar	-1.0452503631236831e-06	6.819720572867277e-07	0.0032252049094239434	0.00012618558655952056	-0.00012992770405722493	-3.218956674365632e-05
Xe	1.9870660356269349e-07	1.5403682068597825e-06	0.002743673623403759	6.55129974150597e-05	-8.86290255532571e-05	-4.749492981308127e-05
2
98400
Ar	2.4314848456841624e-07	-4.727180910465877e-07	0.0032249473738410143	0.0001311809967587212	-9.992333284169215e-05	-2.3325149362290288e-05
Xe	7.653331589788586e-07	6.252869522408539e-07	0.0027431228707873343	3.803100267527077e-05	-9.550319449066901e-05	-3.9346457765755056e-05
2
98600
Ar	1.2844069524337363e-06	-1.086277681708313e-06	0.0032246806162587786	8.028316787519667e-05	-3.891253096695743e-05	-3.0576890898540344e-05
Xe	7.81002603716497e-07	-4.121303931610841e-07	0.002742968422942252	-8.862984089229098e-06	-0.00010943425361402423	-2.4527142387496077e-06
2
98800
Ar	1.342065848408488e-06	-1.4764577043832573e-06	0.003224412642615101	-4.5977713630965956e-05	-2.4473954831845244e-05	-1.1127305675971714e-05
Xe	3.9323521007569175e-07	-1.2138896761180776e-06	0.002742721795570136	-4.408716541924816e-05	-5.481813316578207e-05	-3.383027174103354e-05
2
99000
Ar	6.473904548979211e-07	-1.432395241834633e-06	0.003224275472906875	-9.000498106150234e-05	2.3659226487698447e-05	-1.2808432272369548e-05
Xe	-1.536607207111851e-07	-1.4352680032328692e-06	0.00274250887480473	-3.8074275495957334e-05	2.7889608103469405e-05	-5.2996962814972945e-06
2
99200
Ar	-4.305569294065154e-07	-6.35033914886843e-07	0.0032242968323515607	-0.00011931986517554941	0.00011896686645357641	2.89329347567905e-05
Xe	-5.078532777784881e-07	-9.426406454801784e-07	0.0027426579947094467	-4.238823207549879e-06	6.714210497043628e-05	2.201115291626569e-05
2
99400
Ar	-1.49471564767771e-06	7.065690244696143e-07	0.003224783420142582	-7.169591145800259e-05	0.00011972517647648345	6.793621333747978e-05
Xe	-3.2579721498087524e-07	3.197390374585854e-08	0.002742994573320236	4.940324423971209e-05	0.0001234801611629356	2.360524888719442e-05
2
99600
Ar	-1.9328547455052215e-06	1.6912729691837372e-06	0.0032252632574986152	7.874718602068405e-06	4.324552328860029e-05	2.4598133614309193e-05
Xe	1.9212493469992302e-07	1.245995373084561e-06	0.0027432219830396567	3.699533046233453e-05	9.0602680321528e-05	3.1340750041644564e-05
2
99800
Ar	-1.3844074670199338e-06	1.5884279493417716e-06	0.003225226728340889	8.195737632659054e-05	-6.0456346251212135e-05	-3.765219190862935e-05
Xe	8.426794290747255e-07	2.0032352199244366e-06	0.0027434177458500303	8.126068156275731e-05	2.6866364533369887e-05	2.0620724716871962e-05
2
100000
Ar	-5.750516832396451e-07	8.649818863769367e-07	0.003224857759950477	8.866332765094793e-05	-7.896993058510138e-05	-4.620046832371189e-05
Xe	1.4430862385760064e-06	1.7555254706849788e-06	0.0027434934143621766	3.956973887551904e-05	-8.329974065399961e-05	-1.5668631233632963e-05
2
100200
Ar	2.4939101331076665e-07	9.329161146304778e-08	0.003224497113572125	7.96899735927569e-05	-5.1653804928603854e-05	-1.4928852694538501e-05
Xe	1.4339694775523418e-06	7.576282248251342e-07	0.0027429392500658728	-4.6575005419150365e-05	-0.00012124087543498148	-9.24434714580251e-05
2
100400
Ar	9.06298869484209e-07	-5.129659344743046e-07	0.003224393790774646	3.6745159700327596e-05	-5.74044555258391e-05	1.6674586538004124e-06
Xe	6.325728463497384e-07	-7.858825489322694e-07	0.0027421517557160518	-0.00011064372070112515	-0.00013866098700813942	-7.685717571342181e-05
2
100600
Ar	1.0239272366558e-06	-9.748841719527736e-07	0.0032245398615450577	-1.5988554827607235e-05	-5.364244102337174e-05	7.60331017873586e-06
Xe	-4.6176858348778693e-07	-1.7368270505931216e-06	0.0027416951696467356	-8.291652627987194e-05	-6.0626706424635516e-05	-1.2315086126887681e-06
2
100800
Ar	8.129770610903829e-07	-1.2547975097334594e-06	0.0032244601686562293	-1.1570895406667751e-05	2.8184226313371035e-05	-1.2197712976131476e-06
Xe	-1.3266610714011267e-06	-1.929691913453485e-06	0.0027419243006244444	-5.7233301162790655e-05	4.081693381292361e-05	3.913324467091538e-05
2
101000
Ar	7.328931450949037e-07	-3.312627913754469e-07	0.003224451136465836	-7.292917991549044e-06	0.00012864789753889633	2.2679661171688034e-05
Xe	-1.4698700175479633e-06	-1.381329900173081e-06	0.0027424151363857926	2.0736728249866497e-05	6.516014875710338e-05	6.25808302358166e-05
2
101200
Ar	5.289587180690499e-07	6.2909313181996e-07	0.0032249187860473546	-3.219968441716782e-05	9.48709549875803e-05	7.789010524050998e-05
Xe	-1.0679927258377484e-06	-5.410094743292015e-07	0.0027429595663052823	7.7600992587541e-05	6.92939997961904e-05	5.156566125720716e-05
2
101400
Ar	2.0615829851646397e-07	1.6741844503031657e-06	0.003225587829120509	-2.2752916788111358e-05	9.121126019509116e-05	4.28758436995146e-05
Xe	-8.459144731815896e-09	1.1837134428222635e-07	0.002743412625305357	0.00011411489879498893	5.325468120536793e-05	2.2911008619909865e-05
2
101600
Ar	-1.221617620400284e-07	2.0930369416200355e-06	0.0032257537952070222	-5.5058502886710634e-05	-6.7213502038526086e-06	-1.9364415271621377e-05
Xe	1.0070307916661322e-06	6.664497117441647e-07	0.0027433754835044033	7.733424861686635e-05	3.679329883501857e-05	1.2656176987253833e-05
2
101800
Ar	-7.019094309493748e-07	1.5314111061300756e-06	0.003225310929113686	-6.163309607918191e-05	-9.982489610354866e-05	-5.991085219501349e-05
Xe	1.5957654946374918e-06	1.0642099024444984e-06	0.0027434265798327788	1.733424001707334e-05	2.4615101271609843e-05	9.5653362870305e-06
2
102000
Ar	-1.3440066868197647e-06	2.1008363926773952e-07	0.0032248211564641967	-5.311864780701519e-05	-0.00015419710303829566	-3.605553199717122e-05
Xe	1.615264621596168e-06	1.3867866921021e-06	0.002743238700874303	-3.71340685406919e-05	1.8244564730687337e-05	-3.493686635648621e-05
2
102200
Ar	-1.5959700500165271e-06	-1.4629997067253058e-06	0.0032246227154997713	1.533911559013618e-05	-0.0001631398194628721	-7.151205801763771e-07
Xe	1.138342371574343e-06	1.1473607490184213e-06	0.002742628806724721	-5.895309946085622e-05	-7.277779458253074e-05	-7.465163931856802e-05
2
102400
Ar	-1.2318141326618767e-06	-2.746523472193044e-06	0.0032245872982942527	9.184829143121056e-05	-8.579295534147915e-05	-1.7372764913260713e-06
Xe	2.871658617865121e-07	5.486474967258948e-07	0.002742031694731418	-0.00010215188628825544	-4.001692083167336e-05	-2.6847224197864218e-05
2
102600
Ar	-2.8347793363886186e-07	-3.035755304477494e-06	0.0032244471821285905	8.202633648781868e-05	2.1827167919432746e-05	-1.3392006979125433e-05
Xe	-7.476286554758288e-07	-1.2543955382836975e-09	0.002742128219037842	-0.0001077569610717217	-7.307056772467942e-05	4.408613870600187e-05
2
102800
Ar	5.396200833250035e-07	-2.072153936345456e-06	0.003224391463849713	8.523769879667345e-05	0.00014776579275122063	-7.789854772278015e-08
Xe	-1.5012337621920008e-06	-5.64135837134717e-07	0.002742528639050785	-3.8830183433855303e-05	-3.929361919702596e-05	4.76173793972215e-05
2
103000
Ar	1.2759844677281525e-06	-3.8303798474986213e-07	0.003224693430891604	5.280695424606099e-05	0.0002117937277901834	6.75251165920418e-05
Xe	-1.5680894960065813e-06	-7.324518001875468e-07	0.0027427874133525106	4.402170831442863e-05	3.020729798928562e-06	-8.076969716685848e-06
2
103200
Ar	1.1772577885926697e-06	1.7903982462197104e-06	0.003225119781324191	-4.401801570361473e-05	0.00018318455601172497	2.1392171816401724e-06
Xe	-9.39024761683646e-07	-3.240108694134626e-07	0.002742601106565947	7.15400073830701e-05	7.316606318378768e-05	-1.1798214822813538e-05
2
103400
Ar	4.583579170337947e-07	3.279754843194973e-06	0.0032250582921283188	-7.881620869206259e-05	0.00010273710063791463	-2.0867344719678484e-05
Xe	-1.6051705675651646e-07	2.6660531503822604e-07	0.002742681207924976	8.240030575362905e-05	5.2183434310726704e-05	3.103347163382679e-05
2
103600
Ar	-3.202074399272817e-07	3.3393944022918558e-06	0.0032249986955619004	-7.444785401133801e-05	-8.616359116400258e-05	-4.013966433560586e-06
Xe	5.793604902487055e-07	9.055834944160681e-07	0.002743080052957122	6.981433947083669e-05	6.816787761966467e-05	5.3727332129265993e-05
2
103800
Ar	-9.551141904615823e-07	1.9461905889740174e-06	0.0032251605334860465	-6.271782164440566e-05	-0.00017623008617485166	2.6916687934163432e-05
Xe	1.3033503081383163e-06	1.1030509035944149e-06	0.0027434643984914414	5.7807140557190314e-05	-3.085073084876601e-05	9.21452379012604e-06
2
104000
Ar	-1.3077571483849697e-06	-1.452224759788019e-07	0.0032253395739959214	-2.0485563595520084e-05	-0.00020710901278580754	2.1347484219010107e-05
Xe	1.5306977407264162e-06	4.430065013607266e-07	0.0027433028229209198	-8.443800367890289e-07	-9.11418372842343e-05	-4.6899679750647195e-05
2
104200
Ar	-1.0416056491692852e-06	-1.997997875464102e-06	0.003225254645815227	5.528427887921243e-05	-0.00015434726379984405	-5.263057643429705e-05
Xe	1.1481041623810404e-06	-5.021131684128324e-07	0.002742501133602323	-7.846975529533308e-05	-0.00010224746123668986	-9.76719547885223e-05
2
104400
Ar	-5.944336727241082e-07	-2.839060832632044e-06	0.0032246617584371184	2.2148720040731986e-05	-1.67244628310261e-05	-6.821269642140491e-05
Xe	4.5196853594556874e-07	-1.4785995395565625e-06	0.0027418215230216028	-4.945553757855032e-05	-4.907723273670675e-05	-8.935009602278041e-07
2
104600
Ar	-3.092537929152336e-07	-1.8613510079588692e-06	0.003224037980380038	3.518263847040246e-05	0.00019588051163848722	-3.2132105537887874e-05
Xe	-1.4447193901551035e-07	-1.4564651349218123e-06	0.0027421020774675313	-5.937171836605489e-05	5.428203302581775e-05	3.816172315108397e-05
2
104800
Ar	1.0271465922728361e-07	3.9935127368082126e-07	0.0032240879056333683	2.4384288401938482e-05	0.00022714352152928248	1.2258120511780768e-05
Xe	-7.016899605452066e-07	-7.366294106693611e-07	0.0027425124014763863	-2.359500618618551e-05	0.0001042763209118749	5.5645899999212654e-05
2
105000
Ar	2.032719536730791e-07	2.4093508991397084e-06	0.003224578066858509	-1.9144786702644233e-07	0.00016041672093540212	6.166903120245874e-05
Xe	-1.1230593976772355e-06	3.217832451417902e-07	0.002742951529000265	-3.0297388277127137e-05	0.00010648161859616271	2.7044235563046548e-05
2
105200
Ar	4.39246915628756e-07	3.0631026522545485e-06	0.00322534164636538	3.5115391967630674e-05	-1.9856148328366328e-05	8.71728235189042e-05
Xe	-1.3904517899475342e-06	1.279561734747344e-06	0.0027429918338754927	-2.0235607115028882e-05	6.924239424069221e-05	6.294534909720661e-07
2
105400
Ar	6.438123598505176e-07	2.2318281972860397e-06	0.0032255036580618626	1.8300557341763555e-05	-0.00014566631572575635	-3.7016499929355216e-05
Xe	-1.3129482797954993e-06	1.5399650334814287e-06	0.0027428930955288072	3.5033397498142896e-05	-1.2068952397848712e-05	2.3386023643302014e-05
2
105600
Ar	6.417978779084511e-07	4.562613435277525e-07	0.0032249370628849657	-2.464761940761327e-05	-0.00020862287861569175	-6.709638480040028e-05
Xe	-6.945262642191463e-07	1.1828262737877064e-06	0.0027433021625823434	9.406523394287575e-05	-4.6866704828042205e-05	3.792718077064564e-05
2
105800
Ar	2.951397154384251e-07	-1.5636577541153799e-06	0.0032241607554898163	-2.8171081270992498e-05	-0.0002039472449824925	-7.448351537024537e-05
Xe	2.096965643199942e-07	4.117063994179495e-07	0.0027432978133688146	8.529405067470613e-05	-8.694895696075582e-05	-4.190382938159593e-05
2
106000
Ar	-4.312827366710285e-08	-3.012174286990002e-06	0.003223870904315258	-4.620200915396972e-05	-9.220914692144213e-05	1.3025635089325525e-05
Xe	9.6843946671576e-07	-5.720784196949191e-07	0.002742641483516228	5.181628074536903e-05	-0.00012086100746966115	-7.785096617772961e-05
2
106200
Ar	-4.468899820202784e-07	-3.1100102753228246e-06	0.0032242018436942745	-3.657231935036319e-05	7.52116150886282e-05	4.416696771381989e-05
Xe	1.3704506485947918e-06	-1.4889135958905337e-06	0.002742043524959304	1.875269981842848e-05	-5.8304422375897566e-05	-4.9526344611226836e-05
2
106400
Ar	-7.212418943100226e-07	-1.577308792637232e-06	0.0032246637872209404	-3.114166888199232e-05	0.00021858971442102374	4.9269208851297326e-05
Xe	1.011630601712849e-06	-1.6546808960531705e-06	0.0027418741548317464	-7.610004116849924e-05	2.6367841596448977e-05	1.4107967429342106e-05
2
106600
Ar	-7.212149737866044e-07	8.014795485028819e-07	0.003224998218585296	1.799418740746791e-05	0.00024176772687920875	2.171047913307158e-05
Xe	1.8795428782650394e-07	-8.646883323798623e-07	0.0027423209826080686	-9.91293066224382e-05	0.00012127197258679907	6.9827936085483e-05
2
106800
Ar	-3.561088114614991e-07	2.7224914734195715e-06	0.0032249059841110254	5.55897945683262e-05	0.00015005391083317265	-3.188586666874964e-05
Xe	-6.516670034142729e-07	3.4765867289299267e-07	0.0027433153821739852	-6.286028239377291e-05	0.00011539136867172128	9.768629227499839e-05
2
107000
Ar	4.818957753925043e-07	3.6776743736368486e-06	0.0032248466332797493	9.72535492380342e-05	1.141783378584025e-05	7.818628117181881e-07
Xe	-9.787593675926951e-07	1.1765642761476614e-06	0.0027441133728948403	-1.0598928648581225e-05	5.727020464688885e-05	5.9967150024523624e-05
2
107200
Ar	1.3152697987939774e-06	2.957729692163565e-06	0.0032248523469285612	5.8294931296365364e-05	-0.00011731229276113833	3.085109260860968e-06
Xe	-8.220816863473138e-07	1.4378834726651521e-06	0.002744080973379214	3.450676735451696e-05	-1.3025075182559256e-05	-6.128020531183083e-05
2
107400
Ar	1.335817419205823e-06	1.0593559367032843e-06	0.003224858230186496	-3.782185430281012e-05	-0.00021295599462587588	8.712028966996074e-06
Xe	-2.9010283950270967e-07	9.661657693082933e-07	0.0027431644137210147	4.4463799654825705e-05	-7.214669604675251e-05	-0.00012293346251519068
2
107600
Ar	6.076623037151507e-07	-1.153476134465458e-06	0.0032250202618466866	-7.984816510561666e-05	-0.0002021037483046877	1.115282248560246e-05
Xe	-1.0817502033653051e-07	-1.9093450771473915e-07	0.002741946069054603	-7.60963440175772e-06	-0.00013567297867263416	-0.00013038977684298728
2
107800
Ar	-2.0944802469212123e-07	-2.707303056160526e-06	0.003225120628588851	-4.893802531681726e-05	-0.00010513670291831716	1.0579612839263908e-05
Xe	-8.365706392599287e-08	-1.4190251777186808e-06	0.0027411224365808547	-2.142937790026042e-06	-9.281936268089737e-05	-2.2593599942644126e-05
2
108000
Ar	-3.896924060488275e-07	-2.8810906708969063e-06	0.003225157703132204	2.0058738821639935e-05	8.899167595407653e-05	-2.3720376378579494e-05
Xe	1.0514500578363589e-07	-1.9802679399399484e-06	0.0027413658354577763	8.38267099128011e-06	-7.05712470599511e-06	5.3452644093708974e-05
2
108200
Ar	-3.3501287399977525e-07	-1.3859264131379966e-06	0.003224852301308129	9.518334462398855e-06	0.00021924249889682332	-2.022948870317695e-05
Xe	3.722575415468086e-07	-1.6196944472218206e-06	0.002742307518696323	4.158198714084769e-05	9.779785384720858e-05	0.00011981376116188747
2
108400
Ar	-1.6627693627411774e-07	9.542718467987566e-07	0.0032247204738883135	1.9377769056442645e-05	0.00023455074627971772	-2.7820528609013478e-06
Xe	8.007937817919122e-07	-4.6438839096044703e-07	0.0027436317290364725	3.89131783109324e-05	0.0001283623781991682	0.00011405971970834553
2
108600
Ar	-5.1412951017543316e-08	2.7549968282014357e-06	0.003224808890852474	-3.734021704483687e-06	0.00012105139788434077	1.4034413517510156e-05
Xe	1.0611640168939442e-06	6.883300542788662e-07	0.0027440692496417595	-4.928508731243795e-06	9.164548055836449e-05	-6.327002662192717e-06
2
108800
Ar	-5.175201684286405e-08	3.175615870414274e-06	0.00322503668328798	-1.1283364901008657e-05	-3.312157178957354e-05	1.3404296281728343e-05
Xe	7.421806035912203e-07	1.3469093030086102e-06	0.0027434838683453675	-3.401949302702539e-05	4.291971695939588e-05	-0.00011773755517150313
2
109000
Ar	-3.027899119276534e-07	2.000324129723491e-06	0.0032249665296466743	-3.2067750732845514e-05	-0.0001939170343364413	-7.88514507015454e-06
Xe	3.503465766344596e-07	1.5077182476806827e-06	0.002742434280461769	-3.00969669400186e-05	-4.363858622927653e-05	-7.680338550906856e-05
2
109200
Ar	-7.999355308473598e-07	-3.854745916639395e-07	0.0032246792411860944	-5.137722393085302e-05	-0.0002451055694453021	-2.571572484150975e-05
Xe	-1.4216559166550291e-08	8.50405447610688e-07	0.0027418091244941546	-4.021268126394859e-05	-7.403000392430373e-05	-2.2460308129643865e-05
2
109400
Ar	-1.1389219452950465e-06	-2.6920244400469607e-06	0.0032243027576437018	-3.547445136257566e-05	-0.00017424091897035225	-3.765112695050198e-05
Xe	-3.5920526031498663e-07	-1.5411400788925235e-07	0.0027421342241685976	-3.0281643489296913e-05	-0.00011852484695545406	6.99274909283004e-05
2
109600
Ar	-1.2747692193618102e-06	-3.7257211041742076e-06	0.0032239656644099213	2.0930718455637168e-05	-2.423620043639683e-05	4.039208855973907e-06
Xe	-5.253528242986975e-07	-1.2329989383103923e-06	0.0027429251634826374	-3.7310814685736987e-06	-0.00010979920136421894	8.064057527232201e-05
2
109800
Ar	-9.128908257176679e-07	-2.8541199623143273e-06	0.0032243639613978776	8.463691674352415e-05	0.00016505160016411436	9.115773500241506e-05
Xe	-4.148653467994709e-07	-1.8719248162497935e-06	0.002743282538685482	1.1316823448762837e-05	-8.06307114294152e-06	7.520761100902224e-06
2
110000
Ar	1.9858513513092967e-08	-4.7645030184950124e-07	0.0032253523996547094	8.880397206448039e-05	0.00028416145884447533	0.00010361651942900846
Xe	-9.735003112231568e-08	-1.402946865733109e-06	0.002743131721799048	4.8769535879798754e-05	6.609200688881831e-05	-2.284592793426324e-05
2
110200
Ar	9.419330974718909e-07	2.1033224330732012e-06	0.003226264999776793	7.593218752382503e-05	0.00021105262791593253	4.5071706962385405e-05
Xe	3.923520474476373e-07	-4.6973284002987394e-07	0.0027430057915826724	5.471259630673144e-05	0.00011701235111248733	-1.7222405293688895e-05
2
110400
Ar	1.4434007605475505e-06	3.289442489515205e-06	0.003225883189391335	5.1381294704022194e-05	2.3080527767651165e-05	-0.00010148774749161403
Xe	1.0635635516948195e-06	6.32756275420002e-07	0.0027428116888263054	7.50676037673711e-05	0.0001011343352666871	-9.6718819750236e-06
2
110600
Ar	1.6479527261508993e-06	2.676755857881216e-06	0.0032244928517824656	-1.4477621869676356e-05	-0.00011985936624010318	-0.0001420586274440909
Xe	1.438631101673394e-06	1.5710670383637053e-06	0.002742552933912369	-1.2030399819670393e-05	6.285524996891718e-05	-4.092463044736274e-05
2
110800
Ar	1.0585873978087185e-06	8.249509485444427e-07	0.0032234772721550994	-0.00010815316787483505	-0.00021802403389900468	-6.168249578431994e-05
Xe	8.764549336411693e-07	1.82563216729757e-06	0.002741870551648696	-0.00010530600495500404	-1.167992936365997e-05	-9.217034700400944e-05
2
111000
Ar	-1.9537648882996075e-07	-1.346054395171026e-06	0.0032235944745645675	-0.0001207098152166689	-0.00020369338120274606	7.557325869662035e-05
Xe	-5.428710655059226e-07	1.3194745989032575e-06	0.002741424528575422	-0.0001649920124642705	-7.203699390100489e-05	-1.3891746463761442e-05
2
111200
Ar	-1.2608868326050491e-06	-2.97326029505781e-06	0.0032245174094137686	-7.210382463905032e-05	-9.297483881028114e-05	9.3657088821207e-05
Xe	-2.1163129138931667e-06	5.989886728342332e-07	0.002741706972074259	-0.00011749089457264124	-7.960493849514429e-05	5.350867238642374e-05
2
111400
Ar	-1.4684434967860377e-06	-3.2269850335407314e-06	0.0032254250850879823	3.227802285452971e-05	4.304259026999135e-05	7.881578053876242e-05
Xe	-2.8563352821771145e-06	-1.539517500143477e-07	0.0027425043425240735	-1.2899311362102243e-05	-9.28831000567701e-05	7.261173956774796e-05
2
111600
Ar	-6.962748634447136e-07	-2.2246720836007743e-06	0.003225904173819753	8.661250230133643e-05	0.00018808778488578931	3.718883141126048e-05
Xe	-2.053714456108598e-06	-8.948482779460317e-07	0.0027432302863896374	0.00015210450702938004	-5.4904411618395254e-05	7.570243296636431e-05
2
111800
Ar	2.0452122176104443e-07	-2.466513814519019e-08	0.0032259402447803827	9.505547283778271e-05	0.000230615914684513	-3.515490579826719e-05
Xe	-1.363183608508287e-07	-1.1563930097689011e-06	0.0027438063562856643	0.00021471247734796033	-1.0366352716835738e-05	2.584062808620324e-05
2
112000
Ar	7.702532141688852e-07	2.156414843745317e-06	0.0032254421259587467	2.264062678056922e-05	0.00019286220808212415	-8.630935489490771e-05
Xe	1.6642923239076785e-06	-1.2414484089773707e-06	0.0027437838162667973	0.00013568622790576247	-1.58844480664957e-05	-1.9256852316117586e-05
2
112200
Ar	6.699061079855688e-07	3.579627384603004e-06	0.0032246383951009773	-3.6660850842283535e-05	6.078579130941179e-05	-6.670958453194279e-05
Xe	2.45153577445699e-06	-8.019101745984012e-07	0.0027432865756777496	3.6266011482882714e-05	6.958630959402496e-05	-5.6391791905736145e-05
2
112400
Ar	2.3507538193832935e-07	3.3686972518079224e-06	0.0032241806133014857	-7.056484642796102e-05	-9.282860347078032e-05	-1.9719203563318774e-05
Xe	2.172833470179782e-06	-6.081820559549595e-08	0.0027424427128466752	-8.004705705069372e-05	9.098453886962837e-05	-7.668629315116878e-05
2
112600
Ar	-5.553773407178631e-07	2.027703384894084e-06	0.003224154946156836	-5.762173216539427e-05	-0.00018362906603730842	-4.747437622789464e-06
Xe	8.956658452688797e-07	6.583973389232572e-07	0.002742021917609851	-0.00016060537409598504	3.972197878259646e-05	5.719899945772583e-06
2
112800
Ar	-1.0069820710697431e-06	-2.8173965539823365e-08	0.0032241610906397645	-2.903858050678677e-05	-0.00020908468037745246	1.4194437970033587e-05
Xe	-7.951610064119694e-07	8.089709640850785e-07	0.0027424787469672997	-0.00017007087874815904	5.464899434282028e-06	7.734317592437765e-05
2
113000
Ar	-8.69341165642146e-07	-2.2367270887559813e-06	0.003224629390811108	4.433514979262669e-05	-0.00018709131032208383	6.63239374500716e-05
Xe	-2.1631007679998013e-06	7.026299419501455e-07	0.002743186985443609	-0.00010148698304481386	-3.041842045056216e-05	5.3624326194770326e-05
2
113200
Ar	1.7567671309417795e-07	-3.6390752258817853e-06	0.0032251549782356713	0.0001592194637080789	-6.870459363067065e-05	4.9652481286431185e-05
Xe	-2.5549843263840377e-06	5.554895013187299e-07	0.002743510801907035	2.9374545436611113e-05	-2.5787199906651907e-05	2.1672660463779274e-05
2
113400
Ar	1.6939246713694298e-06	-3.2758539732702082e-06	0.0032257804741269297	0.00014000409227303508	0.0001264429686334752	4.570401573089552e-05
Xe	-1.7417072762862731e-06	3.0879875500007496e-07	0.0027433103725988434	0.0001261763404116576	-3.779237208071115e-05	-3.773281168013226e-05
2
113600
Ar	2.587377067171637e-06	-1.5192311872468145e-06	0.0032257828685770817	3.703311383666944e-05	0.00024017514680213712	-6.849807321196959e-05
Xe	-3.003903338733481e-07	-1.4320205090081423e-07	0.0027426667712479045	0.0001643734648373981	-5.6755299661906245e-05	-9.888574442094092e-05
2
113800
Ar	2.487913903988552e-06	1.0490266213774177e-06	0.0032248776921611675	-4.742829507084677e-05	0.0002723954001377173	-0.00010844483249783352
Xe	1.117834894000957e-06	-3.278484940885209e-07	0.0027418466367891406	0.00011311730814776697	8.102320393811542e-06	-6.875409257266195e-05
2
114000
Ar	1.4309784308354286e-06	3.1111558560940087e-06	0.003223828991066736	-0.0001552651803775085	0.00013127303624778814	-7.991584302412719e-05
Xe	1.9796091584923113e-06	-1.421884884836951e-07	0.0027415552939722885	6.345126421767266e-05	4.448063194607448e-06	1.5620707371942613e-05
2
114200
Ar	-3.29363728317803e-07	3.4431246910123485e-06	0.0032231235831865985	-0.00020084640750503188	-5.334280778928299e-05	-2.9575444652935007e-05
Xe	2.0929538983858074e-06	-4.6725353796873324e-08	0.002741814447427644	-5.053442202135049e-05	9.309226099853368e-06	7.110680226879585e-05
2
114400
Ar	-2.3363935472766306e-06	2.2058201338784606e-06	0.0032232268542285105	-0.00019267025249406898	-0.0001915280631064154	7.649763555674414e-05
Xe	9.623467536295648e-07	-2.2112819745422096e-07	0.002742562534299699	-0.00016188616908806958	-1.8975181525044613e-05	8.631183949475674e-05
2
114600
Ar	-3.610748069893417e-06	-4.4269987680815534e-08	0.003224401677521485	-6.183958099689734e-05	-0.00022246351986232837	0.00015767118098789057
Xe	-1.0209456547774611e-06	-3.335182813759779e-07	0.002743316894479419	-0.00017735355121427767	6.035880646722677e-07	5.7774247905898784e-05
2
114800
Ar	-3.4728373015279663e-06	-2.2085068384475524e-06	0.0032261054008213	9.495607671767337e-05	-0.00019779629017983933	0.00014813425316090314
Xe	-2.3876892071307645e-06	-1.1508320743200846e-07	0.002743654416623115	-8.270932582955841e-05	3.3984463017614645e-05	1.727963359572425e-05
2
115000
Ar	-1.7156173703682245e-06	-3.537066666051751e-06	0.003227183901657063	0.00026151558008875994	-3.600325676479335e-05	4.2727848195098846e-05
Xe	-2.465477703192685e-06	3.2027628493770224e-07	0.0027436299854679508	4.204746784484018e-05	5.188986357741171e-05	-2.605247676976293e-05
2
115200
Ar	1.1193559337966169e-06	-3.0565642848247743e-06	0.0032265490619580927	0.00025192297250515986	0.00013387614902575973	-0.00015064287938886228
Xe	-1.6051290816208163e-06	6.571552224818454e-07	0.0027432729842290175	0.0001285328901018941	2.5761358669802798e-05	-4.24082305854614e-05
2
115400
Ar	3.1098107614089024e-06	-1.3965852629388304e-06	0.0032246243337393844	0.00012694743514904847	0.00020305556966521753	-0.00022156561527110984
Xe	-1.2761421099316219e-07	7.176849539966543e-07	0.002742861574977048	0.00013991333790440224	-2.646507089144579e-06	-2.467742572224518e-05
2
115600
Ar	3.703074656665549e-06	7.837304233610374e-07	0.003222866574885807	-2.211126015641239e-05	0.00023199639602282696	-8.104459686623369e-05
Xe	1.2259470686606095e-06	4.946914577246791e-07	0.00274267224002581	0.00010471816155456352	-3.946151879899014e-05	-1.8292720776571996e-05
2
115800
Ar	2.696341727859833e-06	2.564944795934177e-06	0.003222919434129792	-0.000154397554951824	0.00013239299318490932	8.38498001901512e-05
Xe	1.9592884405854798e-06	-1.2437497339676657e-08	0.0027425119905646503	3.975893793335608e-05	-5.383986259687029e-05	-1.3953010524908504e-05
2
116000
Ar	4.6396974598957125e-07	3.1604413988217684e-06	0.0032244348295351567	-0.0002649830301123832	-7.6227419746513335e-06	0.00018388389083993185
Xe	1.8847893759188391e-06	-2.3426066904217358e-07	0.002742537371787207	-6.325756338727182e-05	-6.956107728239212e-06	4.5481295373253013e-07
2
116200
Ar	-2.0245425041770158e-06	2.4441177427360786e-06	0.003226046634381887	-0.00023052791663752056	-0.0001414885318066723	0.00011016133626121133
Xe	9.077136895976334e-07	-2.5268753638744624e-07	0.0027425277676772298	-0.00012388811029401435	1.1513829827798351e-05	-1.9203422190685738e-05
2
116400
Ar	-3.40839480793932e-06	6.411730590718281e-07	0.003226295243246697	-4.741172315170894e-05	-0.00019095365380261835	-6.251637814909285e-05
Xe	-2.452093780640763e-07	-5.874722365405984e-08	0.0027426347531186676	-0.00011968791654896347	1.8962476959115485e-05	4.233599511895462e-05
2
116600
Ar	-3.0368658218053133e-06	-1.1286474770935207e-06	0.0032252684755449588	0.00012618567971550977	-0.00014568649526672633	-0.00011534215244751741
Xe	-1.1772988751994964e-06	1.5688432251498875e-08	0.0027430622594747977	-5.24166489177017e-05	1.3776829134991865e-06	5.708541883645031e-05
2
116800
Ar	-1.3377967242924327e-06	-2.1668643069079027e-06	0.0032241010456375107	0.000195396465457414	-7.258412611598271e-05	-0.00010472902628483833
Xe	-1.296940809704724e-06	1.3393000127654137e-07	0.002743501240348284	2.506565595921562e-05	1.0878361922596574e-05	2.2907980913710605e-05
2
117000
Ar	8.92462876117779e-07	-2.343430619221083e-06	0.0032235127905094964	0.00023123187038771178	3.919705483870785e-05	-2.2880610090208663e-05
Xe	-7.46928755545875e-07	2.902353517399448e-07	0.0027433273802456087	7.086988842436798e-05	3.382874302335629e-05	-5.5430879332788566e-05
2
117200
Ar	3.023309134692225e-06	-1.6085471820801998e-06	0.0032239804343991043	0.0001553428247967635	0.00012378929164681175	0.00011456876674097792
Xe	1.9238659765373747e-07	6.681501552470879e-07	0.0027424895635966987	9.739436309182653e-05	4.1106037152823396e-05	-9.989509471359739e-05
2
117400
Ar	4.016062178292091e-06	1.2535065978230162e-08	0.0032252535904156387	8.03357510117851e-06	0.00018675407507297696	0.00012571945550113526
Xe	1.0339837027141955e-06	8.986211996233208e-07	0.0027418136764920252	8.577574541059357e-05	-1.4867065536528453e-05	-4.043315468201971e-05
2
117600
Ar	3.181674948931777e-06	1.580665825893316e-06	0.003225957310055326	-0.0001602355356596811	0.0001200911557577933	1.250048752512589e-05
Xe	1.4288653671968863e-06	5.464568493887175e-07	0.0027417091861175165	1.3168189076353297e-05	-5.590024261625087e-05	3.398309353750552e-05
2
117800
Ar	8.889394478411628e-07	2.2190783839184832e-06	0.0032256529727218083	-0.0002625675630253103	1.5525662325478355e-05	-6.46963304324745e-05
Xe	1.1782340993287732e-06	1.5148309302006166e-08	0.002742441019656774	-5.4996625576177665e-05	-6.413191884450478e-05	9.953109429974323e-05
2
118000
Ar	-1.8681874711603433e-06	1.8603307422744583e-06	0.00322471032423811	-0.00027541269534849005	-8.887005239818834e-05	-0.00012300762633815277
Xe	4.5980963472592347e-07	-1.9317260981940823e-07	0.002743370167958573	-7.054894080958009e-05	-4.726891169454361e-06	9.604574344438287e-05
2
118200
Ar	-3.925940668274902e-06	6.699754388916426e-07	0.0032237356858319075	-0.00012602724061201885	-0.00015395765897245896	-4.5514779360745284e-05
Xe	-3.812493797038398e-07	-2.5293693229466516e-08	0.0027438505673259717	-9.313478647478621e-05	3.068531292013595e-05	4.304446543056297e-06
2
118400
Ar	-4.059566194384297e-06	-7.849436421478419e-07	0.003223673484975306	9.260397280357738e-05	-0.00013630461818592526	2.9641388085102635e-05
Xe	-1.2168582768145342e-06	2.54366225013507e-07	0.0027430895874731363	-6.247739347295908e-05	7.499398993130976e-06	-0.00012565094578647867
2
118600
Ar	-2.1868476013892474e-06	-2.0841631675589416e-06	0.003224331708660587	0.0002651913835470919	-9.926041005756236e-05	8.368850439325072e-05
Xe	-1.462943374633204e-06	2.6233507080401936e-07	0.0027415551288790924	7.815444906912371e-06	-6.90650241575867e-06	-0.00013492148672596084
2
118800
Ar	8.416558163654431e-07	-2.6223841125892555e-06	0.0032250026492681378	0.0003067628785833958	-3.386784066240033e-07	4.7954808028868244e-05
Xe	-1.1228386041418587e-06	9.087427960136123e-09	0.002740774186437416	3.586810067036168e-05	-3.658037248397584e-05	-1.7372515584406704e-05
2
119000
Ar	3.6255145792947047e-06	-1.98963419734585e-06	0.0032249845868482273	0.00023717054972454579	0.00010037472478106023	-2.78808414402116e-05
Xe	-6.345707150731266e-07	-5.248368322448219e-07	0.002741426340770791	4.5002668159651556e-05	-6.443586113634852e-05	0.00013875731135909114
2
119200
Ar	5.021360156095948e-06	-5.30838772635486e-07	0.0032244720262105007	4.2384106039641294e-05	0.00018998450048194978	-6.244393188544693e-05
Xe	-2.1518656891538202e-07	-1.1239156959688867e-06	0.0027430130988418846	2.4803919024442952e-05	-3.124134219425222e-05	0.00014216557943207253
2
119400
Ar	4.538869357136444e-06	1.4191194720106942e-06	0.0032241432236501336	-0.00012044307445521964	0.00017688411759892017	4.4689150148065233e-07
Xe	1.0162151361532795e-07	-9.930408499923854e-07	0.0027441668368154977	3.771944479118018e-05	4.428062262878109e-05	7.326375514880653e-05
2
119600
Ar	2.2988134824307555e-06	2.9208028252754873e-06	0.003224576809495451	-0.0003079337413062949	8.719962777631748e-05	7.339879453750224e-05
Xe	5.084848300650067e-07	-4.3934668059478564e-07	0.0027442541970740895	2.3740098389481776e-05	5.955177569054852e-05	-6.932360032460345e-05
2
119800
Ar	-8.920500237278264e-07	3.164466873628394e-06	0.0032255480922212696	-0.0002926541456929867	-7.233704353160853e-05	9.063795160688253e-05
Xe	5.744723763373665e-07	1.8101288879214303e-08	0.0027432921367521517	-3.754888695914611e-07	1.9126345436676655e-05	-0.0001061106375185558
2
120000
Ar	-3.2014260271680806e-06	1.7960633428386772e-06	0.00322608274583491	-0.00018457124056752073	-0.00018064202029838196	5.302050788399708e-06
Xe	5.624957142193362e-07	1.7255310368307667e-07	0.002742343931475673	2.0183279682716737e-05	3.3317610694827386e-06	-6.398174700892935e-05
2
120200
Ar	-4.031225711962136e-06	-2.505757256456909e-07	0.0032255263658950003	1.2418377087438603e-05	-0.00021187975944887455	-0.00010395882236628668
Xe	6.504818308374709e-07	-1.9891577795661714e-08	0.0027420873108758644	1.406372801917208e-06	-3.2438991959411764e-05	8.384037012791186e-06
2
120400
Ar	-3.1679161218364617e-06	-2.253792190251637e-06	0.003224616596616585	0.000141188284584364	-0.00017095380581070964	-0.00010181486938530372
Xe	6.863840877338577e-07	-1.2930170432869978e-07	0.0027421265622488956	-2.9116565969409737e-06	2.9075220568115457e-05	-4.850528409535521e-06
2
120600
Ar	-1.4891010108596289e-06	-3.2458616465531342e-06	0.003223684366799312	0.00020652639042024855	-8.92765458598213e-06	-6.634950964315474e-05
Xe	5.717344661515639e-07	-4.3828174785802494e-08	0.002742222513679993	-1.3610195171931478e-06	5.405128788451728e-07	3.384023613538459e-05
2
120800
Ar	7.18352811384363e-07	-2.405336421076857e-06	0.003223639511228767	0.0002211388070616746	0.00016702273321325746	5.5440928076248106e-05
Xe	4.460923284274508e-07	-3.529946030265215e-08	0.0027426339228138084	-3.2588389458792575e-05	-3.115473894209315e-06	3.3414471030100086e-05
2
121000
Ar	2.6166097766569625e-06	-3.017188981270577e-07	0.003224581261966943	0.00014657048865428788	0.0002369637064347379	0.00011644338169439125
Xe	1.2236977529479738e-07	1.993603824861446e-08	0.002742694196155995	-1.822658092919682e-05	8.21359804152577e-06	1.4617429731099467e-05
2
121200
Ar	3.122360895981125e-06	1.7547307312374738e-06	0.0032256400069758033	-5.9232167084884636e-05	0.00017603699928725003	8.160528894884013e-05
Xe	-2.0870450867259816e-07	2.890289917424978e-07	0.002742779190695331	-3.0766993461209304e-05	3.6426053338893794e-05	1.9672002355308677e-05
2
121400
Ar	1.9383897061053773e-06	3.044145767928794e-06	0.003226073920442886	-0.00016781552197195335	7.74406385361079e-05	1.6617703040522256e-05
Xe	-4.847731269834883e-07	4.440625343148033e-07	0.002743160754810311	-4.9392174365658885e-05	1.5830560297636015e-05	3.8046352213888393e-05
2
121600
Ar	-1.1576877393085294e-08	3.0869472986135457e-06	0.0032258059963831015	-0.0002062910176313911	-9.500187424500086e-05	-6.868749947972666e-05
Xe	-7.675730992940312e-07	5.898632262774555e-07	0.0027433173512308525	-9.790342001864552e-06	1.6784907600348203e-05	1.0969219317855753e-05
2
121800
Ar	-1.8221643941411916e-06	1.6023085138335081e-06	0.0032248978939313777	-0.0001420146306465683	-0.00016803126781674314	-0.0001154777823148474
Xe	-5.651573399507239e-07	5.73605325349155e-07	0.0027432530162131616	2.9834308992927988e-05	-2.2776002191880596e-06	-2.5836463411250364e-05
2
122000
Ar	-2.7353840746828603e-06	-1.773388398167233e-07	0.0032239391111828766	-5.6960862682632514e-05	-0.0001809638908784498	-6.379615228204096e-05
Xe	-1.9161024950012918e-07	5.733715128056422e-07	0.002742943453175367	6.626157881246728e-05	-1.6747481526325097e-05	-4.627457085067499e-05
2
122200
Ar	-2.7829993422267548e-06	-1.8305613000206815e-06	0.003223839886733076	4.970721229221373e-05	-0.000128634058887666	1.4696166820704431e-05
Xe	1.307539987543021e-07	1.5731329741840756e-07	0.002742526411842727	1.731598266389103e-05	-5.1725376357573365e-05	-2.7166466800726247e-05
2
122400
Ar	-1.8421341108754757e-06	-2.7258592676313773e-06	0.003224364613193519	0.00014041911879273186	-4.271391901970934e-05	8.272993733189896e-05
Xe	4.724740345124302e-07	-1.9251039836814732e-07	0.002742457521366644	1.933850964762247e-05	-3.8561571044969814e-05	-4.784168741522813e-06
2
122600
Ar	-7.215430815692836e-08	-2.4930526256107187e-06	0.003225131450447328	0.00019390428174952324	8.586067521204832e-05	6.98094681480917e-05
Xe	2.432216412792179e-07	-6.906971785983264e-07	0.0027423586250488042	-3.603330154890216e-05	-6.030050958354923e-05	-1.9835500749081295e-05
2
122800
Ar	1.8001520035736346e-06	-1.302052911919892e-06	0.003225571204079713	0.00017001578506596016	0.00014137684909937067	1.798000436877172e-05
Xe	-9.892284978441246e-08	-9.176767597428258e-07	0.0027425812719052848	-1.8155955994164804e-05	1.4071598640695686e-05	5.0443183435073085e-05
2
123000
Ar	2.950495902861867e-06	3.43444709224695e-07	0.00322551278671039	6.242419774313735e-05	0.00018157402539678157	-2.4642813261681677e-05
Xe	-3.5402867009321385e-07	-4.3374345774218325e-07	0.0027433016054454738	-1.2438739335246479e-05	6.511351875952512e-05	9.89864437148782e-05
2
123200
Ar	2.635672766991414e-06	1.887753728883119e-06	0.0032248939961207097	-0.00011119451038017538	0.00011157524882912296	-8.558432823883965e-05
Xe	-4.328390661309991e-07	2.1749416359612457e-07	0.0027441662494951703	1.439172672161288e-06	3.31072315374194e-05	5.9867260499835876e-05
2
123400
Ar	1.1638268341512004e-06	2.4438096159520515e-06	0.0032242952300379035	-0.00018495120267639627	5.8696507951816515e-06	-3.4868089572686954e-05
Xe	-2.9366538365258625e-07	5.456736162421327e-07	0.002744202137248641	2.666634548879809e-05	1.1981156261588654e-05	-3.203686212189953e-05
2
123600
Ar	-8.061447540687257e-07	2.0613730054824938e-06	0.0032245472834474373	-0.0001896555401387488	-8.983544458037782e-05	6.882833276033335e-05
Xe	1.1691489481743698e-07	3.684096650645501e-07	0.002743427255128268	5.230889144575587e-05	-7.003487456485e-05	-0.0001418140411141934
2
123800
Ar	-2.4240797475621234e-06	5.790315531145657e-07	0.0032253859016531336	-0.00011313738835710523	-0.0001733222160415761	8.10301655894569e-05
Xe	7.353646072832281e-07	-3.572517701426038e-07	0.0027420648608944102	6.179916749506004e-05	-5.1339596424069133e-05	-0.00010500725119084367
2
124000
Ar	-2.8268017818868987e-06	-8.568119949623186e-07	0.003225527717065649	1.8562798940778386e-05	-0.00012186921285386375	-6.320625488857119e-05
Xe	1.2461569941174963e-06	-7.172583786810901e-07	0.0027416788935822906	3.536633032292744e-05	-2.4872082619266305e-05	9.051443938822786e-06
2
124200
Ar	-2.0771072216110045e-06	-1.5951813608304234e-06	0.0032247228276044955	0.00014077581422716276	-5.976632978108212e-05	-0.0001094912582251499
Xe	1.400228422030025e-06	-5.360693807768133e-07	0.0027418576733091605	-1.9309441825637536e-05	4.143740995470915e-05	7.907699206825105e-05
2
124400
Ar	-1.0328018395428178e-07	-1.7552957425617969e-06	0.0032237175980121507	0.0002131672505934737	2.8650088150631663e-05	-7.388013638625632e-05
Xe	8.691818864647865e-07	2.994955786500917e-07	0.002742860882937608	-8.39372211551837e-05	9.409208055950123e-05	0.0001069350809963805
2
124600
Ar	1.8477567301831968e-06	-1.2334759237157538e-06	0.0032234337723517467	0.00017720503217243447	6.923559645271028e-05	4.0293119208754774e-05
Xe	-4.4652976786916477e-07	1.1341248549299304e-06	0.002743515267701128	-0.00016230163318644864	6.115533738458736e-05	3.470904680436351e-05
2
124800
Ar	2.970632045704229e-06	-6.42639590610431e-07	0.0032246818265306543	6.567362039519356e-05	6.803222807500567e-05	0.00019031037485595258
Xe	-1.9782603517847587e-06	1.4277112598059133e-06	0.0027434973991493083	-0.0001352022154778531	-1.2771144251205379e-05	-1.750828681021955e-05
2
125000
Ar	3.183129126646282e-06	3.781655056852208e-08	0.0032261210751681466	-1.632972200650303e-05	6.523356901952025e-05	8.895571105630596e-05
Xe	-2.865191769444989e-06	1.1709249763658914e-06	0.002743189131682553	-1.6484379346011153e-05	-5.794456491220291e-05	-4.6224745765537374e-05
2
125200
Ar	2.582237934413258e-06	5.022170760723308e-07	0.0032263648115095278	-0.00010792548876292909	4.2127637909284815e-05	-6.81175189588484e-05
Xe	-2.095345823973156e-06	5.021143910564354e-07	0.0027425255529166105	0.00012884331408114774	-5.7409161320628993e-05	-7.250281120143071e-05
2
125400
Ar	1.2218895777764915e-06	8.477281106262278e-07	0.003225325036843881	-0.00017443199942794943	7.027444784131051e-06	-0.00011369131481434744
Xe	-6.794504668995328e-07	-9.326128232439335e-08	0.0027419214327840166	0.00016782165408062182	-6.006552467913016e-05	-2.4941736581411686e-05
2
125600
Ar	-3.629470077032982e-07	5.996839696818702e-07	0.0032240085130887737	-0.00015432929283146638	-3.095098011002418e-05	-0.0001625218278527318
Xe	9.011143105811526e-07	-6.610121325404124e-07	0.0027419090438565437	0.00014127921306745768	-2.4163987540101156e-05	6.279248946591986e-06
2
125800
Ar	-1.6957449963920647e-06	9.927573788323849e-08	0.003222843653939381	-0.00010839761592737617	-5.5907361777332916e-05	-3.73404428084988e-05
Xe	2.056553592508078e-06	-5.006485013921712e-07	0.0027421056124146592	7.780867478314235e-05	2.525989018332075e-05	1.2655968941530548e-05
2
126000
Ar	-2.3763727863246317e-06	-4.193169881061538e-07	0.00322317451935199	-2.4697335272115423e-05	-2.478944098798405e-05	0.00011033950933855835
Xe	2.1437042492329793e-06	-7.175869933633041e-08	0.0027421754449288398	-4.716119051152091e-05	3.443024283544123e-05	-4.236554848265937e-06
2
126200
Ar	-2.078005247810537e-06	-3.992098800045793e-07	0.0032249041240222345	9.081820427718723e-05	1.949642585904491e-05	0.00019078168981600643
Xe	1.355915870723077e-06	6.760981138365922e-08	0.0027420737973419948	-0.00011443552151138071	5.361539461096691e-06	-4.374492715333817e-06
2
126400
Ar	-6.872131395521061e-07	-2.721376393208284e-07	0.0032262682812510823	0.0001709255546313573	2.683634095295901e-05	9.071446191782144e-05
Xe	5.5435388184537944e-08	5.3858568903069696e-08	0.0027422891497528887	-0.000147414370202089	4.719856747551996e-06	7.163590620423222e-05
2
126600
Ar	1.0875324463127497e-06	-5.018984446801083e-08	0.0032263302682644843	0.00015770528337011858	6.196885074566214e-06	-7.480286832582531e-05
Xe	-1.1055333984308802e-06	6.729468564918416e-08	0.0027432766513765467	-6.7685332342867e-05	7.640637778960362e-06	0.00010280041552887123
2
126800
Ar	2.3193854446413284e-06	3.5083114649044944e-07	0.0032249690321850895	8.016786714138838e-05	6.324159102884196e-05	-0.00014060815053948996
Xe	-1.383045906921018e-06	8.917762045859657e-08	0.002744069940509871	3.0017436976713475e-05	-9.911248283903478e-06	4.269068090733987e-05
2
127000
Ar	2.501185811347576e-06	7.39734381531613e-07	0.0032240131782332914	-3.4907831579479643e-05	2.2285587670042235e-05	-3.144278296365159e-05
Xe	-7.044688574510727e-07	1.629463958226461e-07	0.0027440300801570036	8.218628059408006e-05	2.6489621251285045e-05	-3.782178823675503e-05
2
127200
Ar	1.7413694720184987e-06	6.840105326068882e-07	0.0032241496594631104	-0.00014203281196596357	-3.2244528239023925e-05	5.8697859091941544e-05
Xe	9.879633815440638e-08	1.5425108211945237e-07	0.002743166875547474	6.877835106115315e-05	-1.0743025255184244e-05	-0.00011316917443561062
2
127400
Ar	-1.0877971404995291e-07	4.1159267026298276e-07	0.003224944549871035	-0.00017951839876366847	-4.362418975906328e-05	7.253392235324939e-05
Xe	4.969639707189881e-07	9.176924577150552e-08	0.002742158369999141	2.1217277190888403e-05	-5.43290260659827e-06	-0.00010569792817284619
2
127600
Ar	-1.7971043014973256e-06	-1.7876263612047385e-08	0.0032254928741401534	-0.00014665690535971114	-5.020780201584228e-05	5.110423024531693e-05
Xe	7.040184897732716e-07	1.0547678005502515e-07	0.0027415669507015036	-1.1840704534702287e-05	4.791184558734712e-06	-1.1150143773352754e-05
2
127800
Ar	-2.840484490715578e-06	-5.494146706729306e-07	0.0032255447001661324	-6.204734246445634e-05	-2.202903718673381e-05	-4.905802676524892e-05
Xe	6.227066394640054e-07	1.2244045749622715e-07	0.0027419231222189063	-2.350766228836612e-05	-4.873973152818587e-06	7.388370711680593e-05
2
128000
Ar	-2.897665383920094e-06	-4.908791679020564e-07	0.003224646107026036	6.979043976856848e-05	1.6322943695538665e-05	-7.838581176402209e-05
Xe	4.055643944831835e-07	2.314389145149362e-07	0.0027428309692912613	-2.517822306635949e-05	2.7260938790792588e-05	0.00010173307045837196
2
128200
Ar	-1.7185223410273475e-06	-3.166555598296169e-07	0.0032238535326314624	0.00017660844060927175	4.5074818583108296e-05	-4.4702825164287485e-05
Xe	1.0915843035478919e-07	4.1084019011883665e-07	0.00274356386973798	-1.551653089840116e-05	-1.0491696673056971e-05	1.6531063764085024e-05
2
128400
Ar	-3.0786959268822555e-08	3.098086150477235e-07	0.003224074109679226	0.00015001888336556237	6.992895522986565e-05	6.507902828744075e-05
Xe	-1.2209352845819487e-07	2.7193119640184654e-07	0.0027432559955802693	-2.6008422018399626e-05	5.570488768215511e-06	-8.429993102616195e-05
2
128600
Ar	1.4261902137836293e-06	1.0420168478602591e-06	0.0032249720548877584	0.0001439131578427419	6.682992467752351e-05	0.00010970728681562825
Xe	-2.2828548652593342e-07	2.1348490480715382e-07	0.002742456373634899	1.219793460300121e-05	-1.5726802182776658e-05	-7.622241984512204e-05
2
128800
Ar	2.6011891427542273e-06	1.2792995110443799e-06	0.0032260406164394254	7.710821399352953e-05	-1.1535155973912052e-05	7.387340889347334e-05
Xe	-9.771820761282613e-08	1.4416053923681933e-07	0.002742033189798224	4.4017468626670584e-06	-8.404339940443868e-06	-6.591983404313657e-06
2
129000
Ar	2.5882625699768267e-06	1.0042488186240324e-06	0.0032261280749203832	-9.460802726800785e-05	-4.069162130535947e-05	-7.253192163303634e-05
Xe	-6.777642516022686e-08	-1.8441936932948333e-08	0.0027423230843961898	3.328150178853818e-06	-1.7362584115639755e-05	5.4677766570299356e-05
2
129200
Ar	1.150541474833078e-06	3.378840767734161e-07	0.0032248109565538897	-0.0001750092641537268	-0.00011590333661556023	-0.00015185388648074872
Xe	4.167342422668995e-08	-1.7347452109554706e-07	0.0027430722030436228	1.4110026663446908e-05	-1.1364044052226407e-05	5.245217297525369e-05
2
129400
Ar	-6.884221543307056e-07	-6.965020742878861e-07	0.0032238066663992032	-0.00018310937131485932	-7.84918245766726e-05	-4.822424654206259e-05
Xe	3.451035767570357e-07	-2.137527899372124e-07	0.0027431346994690325	3.557372512049622e-05	-8.796027679641814e-06	-1.0445893478000223e-05
2
129600
Ar	-2.2292687367305186e-06	-1.2880617371618521e-06	0.003223739113579085	-0.00011105329544371215	-5.495538501558742e-05	4.02376614940078e-05
Xe	5.792194267497907e-07	-1.0163314510383712e-07	0.0027431490585381126	2.858143638829556e-05	-6.731389822385525e-06	-7.293176170751575e-06
2
129800
Ar	-3.0992527359955812e-06	-1.385835386783653e-06	0.0032248243568609547	-4.364378025311525e-05	2.0553988240924706e-05	0.00012909908068316922
Xe	7.805531520575894e-07	-1.1555395641213819e-07	0.002743059070001317	6.520101355874266e-06	8.858705946191085e-06	-3.3502354575434794e-05
2
130000
Ar	-2.90837056288102e-06	-8.728955290167108e-07	0.0032255617338778704	0.00010348687555501852	6.230376070274685e-05	3.5593944878165215e-05
Xe	8.761864625170295e-07	-8.007236283481511e-08	0.0027426630118234374	-2.1292372502939666e-05	6.519093364093166e-07	-3.433150176249659e-05
2
130200
Ar	-1.5620281603301573e-06	-7.893051060118143e-08	0.0032253942778853488	0.00014513658134577732	0.00011083875212264749	-7.338269022542159e-05
Xe	9.507770405191351e-07	2.1662846786402157e-07	0.00274234735334852	1.4972875786174628e-05	2.5325136449158442e-05	-7.67432292403987e-06
2
130400
Ar	6.421255864656359e-08	6.375903819963409e-07	0.0032244387217300265	0.00015389140863961918	3.3014540441810633e-05	-9.509234842165576e-05
Xe	1.0019415727588743e-06	3.8681216356622826e-07	0.002742677351991844	-2.3566092073398298e-05	3.5860012992007957e-07	4.0723299285564765e-05
2
130600
Ar	1.078807838476737e-06	7.354221066052473e-07	0.003223850613480726	5.942535175831649e-05	-2.901448560486294e-05	-9.903507420302387e-06
Xe	6.01290959110208e-07	1.614672779088128e-07	0.0027429627135811493	-4.970742076003409e-05	-3.6774147575762914e-05	2.125151665231278e-05
2
130800
Ar	1.6073627012159207e-06	1.1774921226618092e-07	0.003224684435639163	6.559612991370912e-05	-8.560878841470395e-05	0.0001282134689061611
Xe	4.9485117744682274e-08	-2.114174541723024e-08	0.002742978823365273	-5.9049727272638966e-05	-5.184056878069721e-06	8.962884964049946e-06
2
131000
Ar	1.8175288286391405e-06	-1.1064784309877986e-06	0.0032257252984339785	-9.944712354198463e-06	-0.00014559994771908455	9.21978707896616e-05
Xe	-5.676455321345986e-07	-9.656968649800993e-08	0.00274302486323122	-5.674559570977214e-05	1.6368669206723763e-06	1.1945720032339975e-05
2
131200
Ar	1.3353908193547493e-06	-2.09853733658215e-06	0.0032262473055860693	-9.449153025294783e-05	-4.9196181218445626e-05	3.219964777215466e-06
Xe	-9.613638838295006e-07	-1.238526833774458e-07	0.002743226280180726	-3.0008020309086974e-05	-7.088207500956672e-06	8.8025121543955e-06
2
131400
Ar	2.513221896826298e-07	-2.111726283439845e-06	0.003225769069075714	-0.00011130218260405606	4.448223715056874e-05	-0.00010422705626350657
Xe	-9.124099601403865e-07	-2.7957299269041323e-07	0.0027434987286679073	3.325560873129552e-05	-2.072339249488376e-05	-2.9973181634154375e-06
2
131600
Ar	-8.652248869317844e-07	-1.13536310927258e-06	0.0032245549734747697	-9.074556617531036e-05	0.00013956371035742568	-0.0001273114904071165
Xe	-4.2558822801050794e-07	-2.0713392884921761e-07	0.002743438983725073	5.432110503348959e-05	4.28384027713017e-05	-3.153393011488688e-05
2
131800
Ar	-1.3569654461375492e-06	4.3985546926362217e-07	0.003223673037277845	-5.253596538336784e-06	0.00017449111811629477	-3.5017827071964735e-05
Xe	-1.4022678371768147e-07	2.063817204823448e-07	0.002742983956019117	2.778531460458553e-05	3.130198102579642e-05	-4.7578795716819215e-05
2
132000
Ar	-1.2588065138114475e-06	1.8855959941095822e-06	0.003223877580166312	2.195405922353248e-05	0.00012131743265246144	6.440753401142816e-05
Xe	1.2084397211166893e-07	2.2389632274550995e-07	0.0027424416752089343	3.4891779764138664e-05	-1.907028657920198e-05	-5.0545876755430773e-05
2
132200
Ar	-8.385427863471551e-07	2.5539061344039947e-06	0.0032246263734468724	6.29252366750028e-05	2.763678360596091e-05	6.5129382526817e-05
Xe	5.614505286067744e-07	3.132356700971272e-08	0.002741967468986666	4.683299354445792e-05	-1.5703805937737525e-05	-3.1564483867646984e-05
2
132400
Ar	-1.8825240193419797e-08	2.2355031880809176e-06	0.003225212243685822	9.308627164646348e-05	-8.388169371926045e-05	3.724805016355425e-05
Xe	9.800014336681334e-07	-7.799103472128011e-08	0.0027420803390434973	2.7188602713617528e-05	7.5831640637705e-06	5.625061131024454e-05
2
132600
Ar	8.240565621320059e-07	7.297219221208e-07	0.0032254637813704675	6.374852415737806e-05	-0.00018504280792539738	-1.7537202241052493e-05
Xe	9.174773314435379e-07	-1.8848866621587066e-07	0.0027426260181636344	-2.7879920391129652e-05	-3.7633701029672638e-06	5.407888056353069e-05
2
132800
Ar	8.722677276135855e-07	-1.1744338648844453e-06	0.003225040071237835	-2.674806646922379e-05	-0.0001892694158742348	-4.570834767180367e-05
Xe	3.5757264871419797e-07	-5.469167554204305e-08	0.0027431496112049533	-7.277259751076203e-05	1.4114329597428659e-05	3.530314488048865e-05
2
133000
Ar	4.4265953278277027e-07	-2.4977246104855853e-06	0.0032246967482158404	-3.837197976713868e-05	-8.468835270138727e-05	-7.456849332983786e-06
Xe	-2.9140496082805615e-07	-2.3749611424213234e-08	0.002743123062206711	-6.173254162716124e-05	-2.5092367556249278e-05	-1.340289872369855e-05
2
133200
Ar	2.8772047537056216e-07	-2.711984448094565e-06	0.0032244840274914884	2.1560066523983966e-06	2.844307317555736e-05	-1.9353729964906994e-05
Xe	-8.616227852265787e-07	-3.6557933609286323e-07	0.0027429170915109487	-4.306242747589731e-05	-2.5982080808823242e-05	9.033698533347564e-06
2
133400
Ar	2.9280336427573157e-07	-1.7232673576305493e-06	0.003224431576857038	-2.1336614439806815e-05	0.0001623403183369935	7.919581002197907e-06
Xe	-1.120571201527484e-06	-4.679526059693747e-07	0.0027430386531530934	8.842703213282263e-06	3.4261008388410122e-06	1.6652393009546946e-05
2
133600
Ar	3.903254325739744e-07	1.3667897183506882e-07	0.003224518331392943	1.2946816016865925e-05	0.00018246567228212153	1.257643024308308e-05
Xe	-6.93250017976509e-07	-4.806138115019445e-07	0.0027430685783393334	6.164475513161645e-05	-1.6645426318693503e-05	-2.027045223389543e-05
2
133800
Ar	2.723591443800168e-07	1.8332904542803615e-06	0.003224727255509979	-1.947771542789453e-05	0.00015472762790173347	1.2715824970268686e-05
Xe	-1.0395733737334955e-07	-5.060126107513467e-07	0.002742973690343013	4.266709118162819e-05	-6.591225157808912e-06	-5.928722372149816e-06
2
134000
Ar	-2.2754493631927117e-09	2.8673623738414434e-06	0.0032248399959796843	-4.096886091417331e-05	6.462833169704615e-05	-1.576665208621606e-05
Xe	2.5664449464086036e-07	-4.7272437022133324e-07	0.00274271800609925	3.8729211716453134e-05	7.974364411905825e-06	-3.388037664938431e-05
2
134200
Ar	-2.3102225112569844e-07	2.7007857269777315e-06	0.0032244527702575527	-2.5157621634717687e-05	-0.00010996878780262832	-6.921294589589357e-05
Xe	6.619553122493832e-07	-2.4216158893446145e-07	0.002742457046422756	6.688839152909464e-05	4.2554042420816384e-05	-2.984497371293071e-06
2
134400
Ar	-3.7213309206741147e-07	1.2657314133818244e-06	0.003223950863288837	1.1167464437203746e-05	-0.00017968480609131967	-1.4711597038063675e-05
Xe	8.650461188167867e-07	4.900996951343013e-08	0.0027423644955019296	-2.362648273784807e-05	2.3875337153862806e-05	1.4429756340950265e-05
2
134600
Ar	-2.820020429919383e-07	-7.004542800679793e-07	0.003224007623873017	1.4459290690486503e-05	-0.00018605123139023926	2.5766911249984457e-05
Xe	3.9540278791230346e-07	2.7926866449535017e-07	0.0027425478263365345	-7.537638941964131e-05	9.821856739222773e-06	2.9797230034742163e-05
2
134800
Ar	1.5573836330477023e-08	-2.1071735770761395e-06	0.0032245342155515374	5.522535074365612e-05	-0.00010287283168017446	6.57697665384463e-05
Xe	-4.480132193018444e-07	3.12385290452504e-07	0.0027429431177441845	-8.463530832341645e-05	-1.6506480860306798e-05	4.602208520006516e-05
2
135000
Ar	5.813092007736369e-07	-2.5694468866978695e-06	0.00322537959052249	4.794213486233111e-05	1.2101726759926594e-05	9.091798863579084e-05
Xe	-1.143958730148232e-06	3.1552317512224e-07	0.002743292563204919	-5.067419496275945e-05	1.790922449093354e-05	1.526343134107067e-05
2
135200
Ar	1.1006908618637344e-06	-1.951946929369827e-06	0.003226078751858446	3.235209855283766e-05	0.00010129456341063557	2.3628395905314017e-05
Xe	-1.467991470510556e-06	2.6944710927021676e-07	0.002743309467785434	-2.1403463960822403e-05	-1.2756027604370226e-05	-1.96014004002451e-05
2
135400
Ar	1.317872811420547e-06	-6.056234009331532e-07	0.003225945496127947	7.345937152910069e-06	0.0001563535204717924	-7.76363368685855e-05
Xe	-1.6606990965454216e-06	1.5467100548207386e-07	0.002743001797377553	-1.3638513860812697e-06	-1.8347422295947254e-05	-4.6871150705186576e-05
2
135600
Ar	1.5476344020186043e-06	8.514043582066803e-07	0.0032248888102161866	1.1321415432127632e-05	0.00011419830007746585	-0.00010996014081556572
Xe	-1.198097339642056e-06	-1.1024967288656936e-07	0.0027425225834486876	9.53397598227414e-05	-5.008735524783453e-05	-6.0418110784089235e-05
2
135800
Ar	1.2490402555244168e-06	1.882818087933126e-06	0.0032237258880924106	-4.8486718647750754e-05	9.997736841315832e-05	-0.0001077035926867638
Xe	6.001569945180134e-09	-5.992747775439373e-07	0.002742023557067787	0.00012145174413878548	-1.9517617904940047e-05	-3.235952855304332e-05
2
136000
Ar	6.006300071025375e-07	2.471604969719488e-06	0.00322333314416222	-7.51124203549073e-05	4.135317036058102e-06	1.8514708651399103e-05
Xe	1.1357210509805477e-06	-4.926224104234248e-07	0.002741656984432573	8.827138999701208e-05	3.705862166570793e-05	-2.5354953539297995e-05
2
136200
Ar	-5.410135840887267e-07	2.0623709003161155e-06	0.0032239581023592403	-0.0001197849099201445	-0.0001075221287471379	0.00011123892705283727
Xe	1.545382533898994e-06	-1.10018883356123e-07	0.0027416439875740813	-1.3328113970031024e-05	4.212417651704064e-05	2.5557574003324828e-05
2
136400
Ar	-1.6461901660185595e-06	5.20920781180539e-07	0.003225028237118346	-8.177502200132564e-05	-0.00019434092019322057	0.00010283284613645267
Xe	1.0789713543126236e-06	6.510828270705358e-07	0.002741900388691928	-7.628522364736536e-05	8.25212437473098e-05	2.318124177895455e-05
2
136600
Ar	-1.8420805467128331e-06	-1.4454984237267586e-06	0.003225547897820709	3.078532694385558e-05	-0.00015956212507916868	1.7060595731760349e-06
Xe	2.0884215578911198e-07	1.304823829137213e-06	0.002742330256682459	-0.00010924507503396553	3.331384852748907e-05	9.960478173695157e-05
2
136800
Ar	-1.0048077176813775e-06	-2.527525549061297e-06	0.0032253200622845567	0.00012146373573299701	-6.247031541925876e-05	-5.330303160128199e-05
Xe	-1.0086921937793433e-06	1.0195872657017291e-06	0.002743289488557068	-0.00011566691220553531	-5.383591979693568e-05	9.960642500689268e-05
2
137000
Ar	4.2331395250301606e-07	-2.376003789394094e-06	0.003224737155965198	0.0001682250494813462	7.771403257920274e-05	-3.4458855546020945e-05
Xe	-1.6351419341656257e-06	3.674434337041241e-07	0.0027438380445661387	-2.3176979102510204e-06	-8.032877767863038e-05	-1.2327319773835868e-05
2
137200
Ar	1.98907560061673e-06	-1.0345666738486132e-06	0.003224516918654924	0.00011633909717404485	0.00016914276016754916	2.11912069290414e-05
Xe	-1.2555428113994009e-06	-6.812811826562666e-07	0.0027431354449629656	0.00010486544185593938	-0.00011179667159405367	-0.0001287848464632369
2
137400
Ar	2.7388746449156334e-06	6.685131593970859e-07	0.0032250040088487976	3.400983236833015e-05	0.00018115373152909024	6.019746609628616e-05
Xe	-4.9427897110434926e-08	-1.6056810142807947e-06	0.002741771875920422	0.00013443195168053414	-8.439205001413169e-05	-0.00011315864165236716
2
137600
Ar	2.52532628201879e-06	2.0923740580747098e-06	0.0032252287352542717	-7.215975272263028e-05	0.00010349397859810192	-2.9270098130930468e-05
Xe	1.2121217239295074e-06	-2.0111180035359536e-06	0.0027411376576066933	8.870183893124585e-05	-9.004481768408753e-06	-8.576395744612235e-06
2
137800
Ar	1.1358627619313785e-06	2.7839163813155267e-06	0.003224738926670203	-0.0002007729970102553	-7.789187618425366e-06	-4.60766914620819e-05
Xe	1.829569155572237e-06	-1.4709143894569552e-06	0.002741534968607362	1.5851032528180356e-05	0.00010078022917306806	7.920475589623541e-05
2
138000
Ar	-9.72132850463827e-07	2.05862063855675e-06	0.0032243240401326205	-0.00018656657940604941	-0.0001223118693137843	-1.0111540711008715e-05
Xe	1.3659032349900496e-06	-2.3304032254935638e-07	0.002742524143096952	-8.653759395160468e-05	0.00015548425208865074	0.00011710670776729804
2
138200
Ar	-2.4635885607397855e-06	6.05331141447893e-07	0.0032244822301985554	-9.569373508906052e-05	-0.0001829456600888	2.0832197355408e-05
Xe	5.572618766336006e-07	1.1355737250286488e-06	0.002743258464540584	-7.82014032308148e-05	0.00011315025869954966	2.7720815173177507e-05
2
138400
Ar	-2.817156947338263e-06	-1.165277910229227e-06	0.0032250894164986854	3.02416448903508e-05	-0.00018649158400366102	5.705408032860401e-05
Xe	-2.7743157749351233e-07	1.911347069343006e-06	0.0027433316612769975	-7.951094219775096e-05	3.941898639666612e-05	-3.564759342843144e-05
2
138600
Ar	-1.7471027862086589e-06	-2.638140614540482e-06	0.0032254750554234165	0.00016326884939615492	-0.00011470970831793747	3.2348331555268795e-06
Xe	-8.910954210803991e-07	1.6064421616144923e-06	0.0027427762152481398	-5.326396516784946e-05	-7.105509057989305e-05	-5.4394248332368816e-05
2
138800
Ar	2.717013430407503e-07	-3.154462974455782e-06	0.0032251428267161646	0.00021207313310858702	1.3855556513800072e-05	-5.1363299508223455e-05
Xe	-1.0828899695771877e-06	4.829224707612746e-07	0.0027422592726443515	1.3973881535398186e-05	-0.00011282874458901653	-3.8897641302063717e-05
2
139000
Ar	2.274744310302406e-06	-2.189499153614238e-06	0.003224671946143796	0.0001683059067450009	0.0001492736363445457	-5.523881336098396e-05
Xe	-8.80575044887705e-07	-7.665446333523873e-07	0.0027419563086807015	5.314182343656206e-05	-0.00010044787182843722	-3.2066044851546015e-05
2
139200
Ar	3.3790229303669954e-06	-5.853494930126119e-07	0.003224169183278321	4.440533151842205e-05	0.00017615310255090095	-2.4589408345308157e-05
Xe	4.2441195993783776e-08	-1.540266466800243e-06	0.0027419360283049746	0.00013335581669646223	-2.6996690126430832e-05	1.9258539454272442e-05
2
139400
Ar	2.9838109955380034e-06	1.0668273860804568e-06	0.0032239476407907464	-0.00014734842702767638	0.00018251328562959737	-1.1446355159357797e-05
Xe	1.3766642104047562e-06	-1.5212213171231864e-06	0.0027423286913801645	0.00012738499871916038	3.3409847733864285e-05	4.936749789392367e-05
2
139600
Ar	7.131318160197465e-07	2.7548111486664752e-06	0.0032242289854390407	-0.00030188237934936237	0.00013918704913078707	4.716890513380354e-05
Xe	2.362585288489658e-06	-9.953780877558376e-07	0.002742934914239976	6.385353176250469e-05	7.371377005275651e-05	7.49395152736553e-05
2
139800
Ar	-2.3095655285683182e-06	3.3879378320253676e-06	0.0032249037237528262	-0.00028241253184177185	-4.499051396625507e-06	7.00767531691204e-05
Xe	2.460042415913793e-06	-2.48454587141201e-07	0.0027432393093076634	-6.402729684515801e-05	8.468727786654782e-05	-1.6534061775702366e-05
2
140000
Ar	-4.212871430329277e-06	2.5944939907679627e-06	0.0032255424803965937	-8.905924335572132e-05	-0.00016760152540410444	4.21508194415971e-05
Xe	1.2717381944769584e-06	5.441124226681122e-07	0.0027428959488185376	-0.00016117799747877772	7.108831188834644e-05	-4.9873386760166504e-05
2
140200
Ar	-4.230517507502661e-06	4.622281386435228e-07	0.003225536297275514	9.548790498812227e-05	-0.00023086354205351686	-2.720689000671722e-05
Xe	-3.087811664338183e-07	1.2645002557995257e-06	0.0027426222683043637	-0.00013498701211282923	4.525571273214046e-05	1.2092867333026977e-05
2
140400
Ar	-2.4383710805734946e-06	-1.909778670007844e-06	0.0032250171670689686	0.0002489289134863188	-0.000247066457660785	-6.4223663630501e-05
Xe	-1.4051552014627035e-06	1.5627411791515885e-06	0.002742633898386533	-0.0001026293880929143	2.6134302007436594e-05	-2.05018644724305e-05
2
140600
Ar	5.674231190313675e-07	-3.7560177883874785e-06	0.0032242292622655347	0.00031949407771005923	-0.00010159698186219076	-8.55038202816585e-05
Xe	-1.9413101677002545e-06	1.4497611165790794e-06	0.0027423379589121867	-9.895685251769645e-06	-2.1241892896479172e-05	-3.282358305407848e-05
2
140800
Ar	3.5247055759559744e-06	-4.044238869153451e-06	0.0032236500476966394	0.0002409513913474361	6.332296906295079e-05	-3.090259541140249e-05
Xe	-1.5113962759839816e-06	1.0145771815123026e-06	0.0027419534719317295	7.250474598855726e-05	-5.348316366406092e-05	-3.3925309345078366e-05
2
141000
Ar	5.078050453165333e-06	-2.584337539561803e-06	0.0032236278871356897	3.3664706462123584e-05	0.00021564522098479197	4.167066530014406e-05
Xe	-5.664991293425029e-07	5.45213557843612e-07	0.0027418149143638793	0.00010378949568602359	-5.2921561893762154e-05	1.4473254580178743e-05
2
141200
Ar	4.087462267396658e-06	-3.902532494360526e-08	0.003224213224765193	-0.00021819430752714265	0.00029597466841953024	5.562959726775455e-05
Xe	6.21033735380569e-07	-2.621733561822899e-07	0.002742092916754124	0.00011206827611662533	-8.136979883482168e-05	3.2156127041480805e-05
2
141400
Ar	1.1442442256709064e-06	2.485280436995544e-06	0.003225037377068115	-0.0003262212762987419	0.00019112230730892308	8.32551997061915e-05
Xe	1.4275746665284714e-06	-1.0019016490606618e-06	0.0027425927040199355	2.2997953530355535e-05	-4.647660763435135e-05	4.980900171459706e-05
2
141600
Ar	-2.2514586146279783e-06	3.7137237430305067e-06	0.003225466476292776	-0.00032738631889578715	3.999307811254681e-05	-7.024699532329207e-06
Xe	1.3954776320179977e-06	-9.99160171158399e-07	0.002743189569674971	-5.117921960494751e-05	3.811913866484624e-05	6.308127082985786e-05
2
141800
Ar	-4.759146201928983e-06	2.964788266699785e-06	0.003225322240449671	-0.00013771203387349135	-0.00018131637625132323	-3.056455593766975e-05
Xe	5.931150211482144e-07	-5.94995351109274e-07	0.0027435018205346482	-0.0001251574580152156	4.940297699708897e-05	1.8629804423748337e-05
2
142000
Ar	-5.1452435270323045e-06	8.53413784028389e-07	0.0032247207418116867	6.464732224307372e-05	-0.0002590838922082786	-5.5166305507284055e-05
Xe	-6.315864117516468e-07	2.0182066990760253e-08	0.0027434132499551856	-0.0001096484148560981	4.665608792177449e-05	-4.136731190276633e-05
2
142200
Ar	-3.3901375487159434e-06	-1.65647942165568e-06	0.0032241321325272893	0.0002611038043630779	-0.0002329784387034941	-2.5075428882768306e-05
Xe	-1.5130638080716816e-06	6.273351040014662e-07	0.002742946515805257	-5.728136967730994e-05	6.918068108471917e-05	-5.0844456436056814e-05
2
142400
Ar	-3.805295948802354e-07	-3.273042264855968e-06	0.003224255539462458	0.0003125526959034176	-9.664197822643205e-05	3.4093512675382514e-05
Xe	-1.7098407837536513e-06	8.751510865666572e-07	0.002742203413338116	3.9520702356516975e-05	5.775270879523998e-06	-8.61239117157156e-05
2
142600
Ar	2.668821569341401e-06	-3.2869698642506807e-06	0.003224782250352664	0.00027678131667200826	8.651019706604813e-05	4.45570657553938e-05
Xe	-9.169200160573103e-07	7.457905282389632e-07	0.002741672874502309	0.0001107965146991334	-3.0257616064031944e-05	-3.167097708539287e-05
2
142800
Ar	4.853765124135318e-06	-1.801536485491351e-06	0.003225147554502631	0.00014822442216503868	0.0001997177806933202	7.680346481361305e-06
Xe	3.2321576569270185e-07	1.6150842349188126e-07	0.0027418114890078375	0.00010947911571650051	-5.8994192728125185e-05	5.8515992812681436e-05
2
143000
Ar	5.059836830271843e-06	4.1155745597466863e-07	0.0032250252364550715	-0.00010538801616262641	0.0002249656553771445	-1.0339208273326957e-05
Xe	1.2509899535066786e-06	-3.2793664857674275e-07	0.002742854526698772	6.488358012443019e-05	-2.52167935428724e-05	0.00011602168705112395
2
143200
Ar	2.844625929729951e-06	2.442229251211666e-06	0.003224871741025268	-0.0003229316761607395	0.00016960931373217607	-4.951636392643297e-06
Xe	1.6062033180502862e-06	-5.155007020679046e-07	0.002743595824052529	-5.937658426071756e-06	-2.329030205679999e-05	3.547161608010716e-05
2
143400
Ar	-8.710254763734219e-07	3.4475548505586027e-06	0.003225120156375603	-0.00036816971746650754	3.896970507412894e-05	3.8843966413982735e-05
Xe	9.957043031906568e-07	-7.51626691200391e-07	0.00274360682108756	-9.285479494086001e-05	-3.147984334798322e-05	-3.209731899929287e-05
2
143600
Ar	-4.1330001624132475e-06	3.0003711055986204e-06	0.003225400821152234	-0.00024261798972052362	-9.581077205908521e-05	-3.794140848440409e-06
Xe	-1.2725970671194658e-07	-8.703407087263528e-07	0.0027431848079123313	-0.00011593447819184912	5.162733605435001e-06	-5.12525757947613e-05
2
143800
Ar	-5.188647143137202e-06	1.5059955740313469e-06	0.003225201996573818	2.273529066919113e-05	-0.00018108524160328132	-4.37354054599175e-05
Xe	-1.1820445343667812e-06	-6.181019268307078e-07	0.002742862722653866	-7.468284802134976e-05	2.6503569435099016e-05	-8.313158268381021e-06
2
144000
Ar	-3.706669427240593e-06	-2.611852311886949e-07	0.003224682620576736	0.0002702324491768347	-0.00017009627853483097	-7.388047103921484e-05
Xe	-1.5252587192652258e-06	-2.7378889630827757e-07	0.0027426295241257323	2.378501818573716e-06	2.1004554024932604e-05	-2.571992398364933e-05
2
144200
Ar	-1.387204539797376e-07	-1.9849847844450158e-06	0.0032243278931207544	0.0004082303200691399	-0.00014722079081171442	-1.3755128314133337e-05
Xe	-1.3608259914040835e-06	2.5977716068844398e-08	0.0027425371411552487	2.6588139984404727e-05	4.454941434556429e-05	-6.319615283527777e-06
2
144400
Ar	3.480129805153243e-06	-3.085876105721567e-06	0.003224211906304048	0.00029376130574761697	-5.230937485556541e-05	1.2767921305644362e-05
Xe	-8.481856523131602e-07	5.295152982675627e-07	0.0027424161860610976	8.624497108568392e-05	3.777497977690893e-05	-1.6860304959634847e-05
2
144600
Ar	5.348135192551464e-06	-2.8785044364479085e-06	0.0032244023226024802	8.428146482813714e-05	8.996093673708253e-05	2.7641901389224605e-05
Xe	2.731283393175225e-07	7.052519896330151e-07	0.002742490768852553	0.00010318078579644065	-1.4235523322898715e-05	2.1660738478599505e-05
2
144800
Ar	4.728031191394784e-06	-1.480265648993887e-06	0.0032248730791465817	-0.0001836363884343696	0.0001816464280147442	5.530037865586262e-05
Xe	1.036131621549879e-06	5.865414543700838e-07	0.002742880252634134	5.2389154036712384e-05	-1.546770133276466e-05	2.4799960208259357e-05
2
145000
Ar	2.1645028049181327e-06	6.358205987412359e-07	0.003225419930450646	-0.0003068095288420492	0.00020516519870129385	1.950654075549506e-05
Xe	1.2755750560657997e-06	3.3464920901388254e-07	0.0027430422377238625	-3.5342327698050613e-06	-3.445288312849711e-05	2.2885850933032586e-05
2
145200
Ar	-1.5257958257031363e-06	2.5318502999248317e-06	0.003225202733605768	-0.000403220656476903	0.00014584713893389968	-4.144850891786179e-05
Xe	9.806718975225535e-07	1.8312677946240573e-07	0.0027433734503340274	-6.30126778978335e-05	-1.0331416363519295e-05	4.568335253097795e-05
2
145400
Ar	-4.6734463287509145e-06	3.3197744604299887e-06	0.003224755441299532	-0.00021034792804426546	2.760279454811043e-05	-4.085501409920845e-05
Xe	2.538521185931023e-07	-5.466313162193377e-08	0.002743604059105676	-9.157158976193746e-05	-4.2052734969950585e-05	-8.983782539227091e-06
2
145600
Ar	-5.450122031086478e-06	2.871602329878044e-06	0.003224489084491365	3.904475797563882e-05	-0.00014712724361460786	-1.9787556596653633e-05
Xe	-6.982099545560448e-07	-5.376156000276954e-07	0.002743588534013494	-9.000525162113242e-05	-5.283505102005836e-05	-9.302482996935148e-06
2
145800
Ar	-3.777160045992532e-06	1.2037305025834938e-06	0.003224690537121966	0.00028360461921123233	-0.00019494670800500885	5.08014245589169e-05
Xe	-1.4085818373215263e-06	-1.2585123809915873e-06	0.0027430980566149135	-2.7089683545149046e-05	-6.132951089295611e-05	-7.830281204651827e-05
2
146000
Ar	3.6369405744102985e-08	-7.216783728623383e-07	0.003225212496924782	0.00044539061136717	-0.00016849103950686048	3.634366158515794e-05
Xe	-1.5877636192505048e-06	-1.5913597348347812e-06	0.0027423960011265596	3.7640190167507857e-06	-8.602240013331199e-06	-6.66694954147908e-05
2
146200
Ar	4.008108437963762e-06	-2.205205895371331e-06	0.003225579589024357	0.0003083529251316715	-0.00011059769104174565	1.999731040418062e-05
Xe	-1.338993137719972e-06	-1.2665017536553479e-06	0.002741983110876887	4.472785538487989e-05	5.207254018847311e-05	2.0299294880525688e-05
2
146400
Ar	5.8882517139341305e-06	-2.7900686968572246e-06	0.0032252184180183215	4.427844991493747e-05	-1.0366189345187175e-05	-8.209604201731964e-05
Xe	-4.911893689425426e-07	-4.565171556451866e-07	0.0027423000061607365	0.00010161216583162015	0.00010857613663351383	2.6648258561139397e-05
2
146600
Ar	5.210499543845071e-06	-2.3229251686053584e-06	0.003224457161847394	-0.000170596320934167	0.00011205307300276741	-4.656769417443302e-05
Xe	7.674721428541851e-07	6.945373719861818e-07	0.0027427639669552937	0.00014686055995931656	0.0001272480135601346	4.899473465652499e-05
2
146800
Ar	2.397177621651153e-06	-1.0139608272701934e-06	0.003224098389988808	-0.0003791897831231135	0.00013762176825893047	-5.90868742105663e-06
Xe	1.911736368972115e-06	1.6921845002508905e-06	0.002743251032456186	8.637097068034805e-05	9.090690092073088e-05	5.7267300316165896e-05
2
147000
Ar	-1.787172563558366e-06	3.6513358139578134e-07	0.0032241601670806447	-0.00042698283319170054	0.0001185320218881504	3.7510213753358944e-05
Xe	2.7077535135745195e-06	2.2269624528958743e-06	0.00274361757069531	3.348077757365521e-05	-2.669301508422921e-06	-1.6209362624962207e-05
2
147200
Ar	-5.249194052611087e-06	1.5067656999947787e-06	0.0032248684711776304	-0.00023555452856657542	6.189584655229806e-05	9.913433631200939e-05
Xe	2.4997249955136904e-06	1.5813492211924278e-06	0.0027430672143121293	-5.106090054034434e-05	-0.00010047670733476993	-7.7709910895596e-05
2
147400
Ar	-6.329619811207472e-06	1.927524948520274e-06	0.003225870269910611	3.112363347348369e-05	-4.3984309081951505e-06	2.410717590846187e-05
Xe	1.4438691634167134e-06	5.129500222981754e-07	0.0027421806052754555	-0.00015448234143908206	-0.00011272514643601444	-6.70240948700988e-05
2
147600
Ar	-4.765777037762496e-06	1.474869459016912e-06	0.003225708406557671	0.000261283432805989	-0.00011049297305675975	-6.408644157061133e-05
Xe	-3.9110728132627545e-07	-7.293260787333909e-07	0.0027418010977489356	-0.00017401006391959043	-0.0001142170373093885	-1.1382477895681363e-05
2
147800
Ar	-1.1157674064911551e-06	2.027776904554116e-07	0.0032246009210613593	0.00043640511842634626	-0.00012680783165396178	-0.00013578989459664184
Xe	-1.6334310740116556e-06	-1.4816398667257828e-06	0.002742146061398671	-6.343316846791154e-05	-4.184196389066556e-05	7.602209372367697e-05
2
148000
Ar	3.1370928769517525e-06	-8.686671394226672e-07	0.0032236112867805333	0.00037483442103424013	-7.7252705634881e-05	-5.1726441415556904e-05
Xe	-1.8998471844542028e-06	-1.73690111751834e-06	0.0027429966573854067	1.6441710067881488e-05	1.945701446862392e-05	7.451624956489946e-05
2
148200
Ar	5.98773980596597e-06	-1.3245759530712798e-06	0.003223912590327629	0.00015337805662594397	2.5797591070154086e-06	7.328098441497803e-05
Xe	-1.2591151825684141e-06	-1.3424801780088735e-06	0.0027434817682924066	0.0001218180175112877	6.826112330564486e-05	1.155419549464072e-05
2
148400
Ar	6.0154745746680216e-06	-1.0316311470955805e-06	0.0032251783889185345	-0.000130703665136595	5.6506777470858754e-05	0.00014139026224519054
Xe	2.477552823685134e-07	-3.4848889635368055e-07	0.002743306645177073	0.00015417676346485824	0.0001231817590330784	-3.255627650949719e-05
2
148600
Ar	3.5198838096574543e-06	-1.920061778521298e-07	0.003226148737603883	-0.00031497020145940675	0.00010476631685750434	4.283767048550301e-05
Xe	1.565212928567493e-06	9.369043737731744e-07	0.0027429830470312106	7.658391975764141e-05	0.00011408644297798275	-3.704329694904532e-05
2
148800
Ar	-2.544341736551644e-07	5.676138514029267e-07	0.0032259966743776415	-0.00041153967465257387	5.6554883227379804e-05	-6.272587651321924e-05
Xe	1.985923862031098e-06	1.7125691697422154e-06	0.0027426381989768688	-1.09389843986735e-06	5.949294741867127e-05	6.594827632464841e-06
2
149000
Ar	-4.150902233183074e-06	8.821960073660498e-07	0.003224890765459475	-0.00032282723441433953	1.9101261435915426e-06	-0.00013681531773009447
Xe	1.5697661698291995e-06	1.9593042208991865e-06	0.0027427820728070625	-6.954585448278325e-05	-6.599008425958302e-06	1.3705872114496725e-05
2
149200
Ar	-6.131616472324269e-06	5.969790838400892e-07	0.003223743069134407	-5.4424059247899284e-05	-3.4512017279575114e-05	-4.487021477224591e-05
Xe	7.971368668713893e-07	1.6577278323233648e-06	0.0027431064784518644	-0.00010352637110274093	-3.409324012775409e-05	2.33235021438349e-05
2
149400
Ar	-5.210258231030036e-06	1.1397702580587282e-07	0.0032236915232148346	0.0002427910560998768	-3.641517559972789e-05	2.1399678051774643e-05
Xe	-4.624716478723381e-07	9.967219067965061e-07	0.00274318446258831	-0.00011110162026385923	-8.554478567602948e-05	-1.3127797424867893e-05
2
149600
Ar	-1.6360150223608116e-06	6.722176028911169e-08	0.003224497254265587	0.00043169435919252614	5.292536624415477e-06	0.00011381132452557786
Xe	-1.0675499144012905e-06	-4.602037735753215e-08	0.002742846548148702	-1.8848749065494504e-05	-0.00010865418476602802	-5.3129907135650104e-05
2
149800
Ar	2.0740334642863495e-06	2.4372892501255323e-07	0.003225641772663549	0.00032229220566897806	4.38174876710014e-05	0.0001125541953767006
Xe	-1.0355928955156144e-06	-8.207097129613149e-07	0.0027423296574132544	1.3694293742244751e-05	-1.7116387475300367e-05	-2.7326336894394935e-05
2
150000
Ar	4.695155328113007e-06	3.6254008153756564e-07	0.0032259715410468243	0.00016245503963091223	-1.1421370851329015e-05	-2.889823353893378e-05
Xe	-6.704756278859505e-07	-8.545421883696033e-07	0.0027424914671160565	4.487679393215115e-05	2.8576778373675673e-05	4.160510059318993e-05
2
150200
Ar	5.083948049178482e-06	9.369082836119093e-08	0.003225186244846699	-8.782677531188488e-05	-2.4101347118317022e-05	-0.00012520233004794572
Xe	-1.1306449886809464e-07	-4.33997959447596e-07	0.0027432387506705373	6.283966689499013e-05	5.599414475350744e-05	6.111279879754443e-05
2
150400
Ar	3.215289772889248e-06	-3.081518367244863e-07	0.003223787891520088	-0.00029328892749355787	-4.7381165839959637e-05	-0.00011681357478634583
Xe	1.7591160354604488e-07	1.6094277779650113e-07	0.002743426445121909	1.645343119068408e-08	5.8384982007129295e-05	-9.94218397910237e-06
2
150600
Ar	-1.709678060813772e-07	-6.197899296197858e-07	0.003223061664524448	-0.000350463532248727	-2.07663741782931e-05	1.7308996162056519e-06
Xe	2.0243644844980886e-07	7.458411278549359e-07	0.002743016084679092	3.376729537331129e-05	4.610664785113325e-05	-6.841657533034419e-05
2
150800
Ar	-3.563499101346362e-06	-8.090280015962308e-07	0.0032239121929498356	-0.00027772324202278827	7.632524878821044e-07	0.00011602466388263056
Xe	6.650756135325216e-07	7.924440611990517e-07	0.0027422757787496713	4.622857884204668e-05	-2.1953512827949165e-05	-6.57025977297861e-05
2
151000
Ar	-5.426611668057945e-06	-5.452246796974652e-07	0.0032253096005492427	-9.906844504500352e-05	5.494444235687572e-05	0.0001496794692457897
Xe	1.0723779581991495e-06	4.896889492203733e-07	0.0027416902068679062	4.226422053196915e-05	-1.9517901632719305e-05	-4.3583254795940436e-05
2
151200
Ar	-5.0690687978444195e-06	-6.740977731921144e-08	0.003226203965317975	0.00015294702880973908	4.415916502739011e-05	3.814165757976588e-05
Xe	1.1560003656942826e-06	2.6996986247275073e-09	0.002741929236935748	-9.286829344491844e-06	-5.442414644200231e-05	6.897125245828097e-05
2
151400
Ar	-2.5779291740458063e-06	3.8500582275500993e-07	0.00322590875910163	0.00032972442631675944	5.525251529235895e-05	-8.540261123270367e-05
Xe	9.370365365958253e-07	-6.446188464520097e-07	0.0027430453500207007	-3.8510786890840975e-05	-6.013100737693471e-05	0.00012564060942638582
2
151600
Ar	7.81582113986015e-07	8.301548421693194e-07	0.0032249116521693992	0.0003089405190661094	7.491309443518366e-06	-0.00011242162444052571
Xe	2.0618207698292898e-07	-7.902578205251441e-07	0.00274397378283497	-7.555795404399738e-05	1.6294271838151985e-05	4.333541305480325e-05
2
151800
Ar	3.4197165357719803e-06	8.597541338386148e-07	0.003223975072382809	0.00020871520246968855	-7.79967425261325e-06	-4.6343710506283914e-05
Xe	-6.586932478500398e-07	-4.0178269136295654e-07	0.002743873894338288	-9.531619219608174e-05	7.94510854462108e-05	-6.458156902006507e-05
2
152000
Ar	4.779231884260726e-06	6.278910158512068e-07	0.003223933591046959	5.650265277283674e-05	-2.9755501154858012e-05	2.9303773003160146e-05
Xe	-1.4228215308353288e-06	4.872506266969869e-07	0.0027429430524168225	-2.848344214077255e-05	8.475786701720219e-05	-0.00011363238755488147
2
152200
Ar	4.29069560199452e-06	1.5010321286380508e-07	0.0032246221508532504	-0.00013943542648292405	-4.024438743447503e-05	7.627982143564504e-05
Xe	-1.5591099868339406e-06	1.2077155562271632e-06	0.0027419672796658114	3.0009700294431673e-05	5.589197583333809e-05	-7.153309579478489e-05
2
152400
Ar	2.3417766690621914e-06	-1.1295010578931215e-07	0.0032249691999799023	-0.00024617944261166717	-3.0923325074060445e-05	1.3096060996481901e-05
Xe	-9.094382138106063e-07	1.492923248344519e-06	0.002741408665158735	8.28416578776039e-05	2.5476274533233953e-05	-3.245522823135119e-05
2
152600
Ar	-4.052441669559872e-07	-3.910726692274837e-07	0.0032249388388706575	-0.00028812905595086447	-4.426723911709154e-05	-1.978349846867645e-05
Xe	1.6252401437151284e-07	1.2806230991252672e-06	0.0027416427372576797	9.77224478443362e-05	-6.728392884792197e-05	6.690900232589063e-05
2
152800
Ar	-3.017504506927435e-06	-9.911180552225019e-07	0.003224646267793376	-0.000207032081711926	-5.201063399524734e-05	-3.5246364144024295e-05
Xe	1.321057318929683e-06	4.781333315906283e-07	0.0027422051780447362	0.00010468955497094584	-8.828168718634605e-05	4.483637818151842e-05
2
153000
Ar	-4.297365046137312e-06	-1.1345825330780356e-06	0.0032244337050216245	-4.327405107175092e-05	2.4074460341912844e-05	-8.705005585607718e-06
Xe	1.8457090429185536e-06	-6.433343088430172e-07	0.0027425046257557504	-4.087626283697464e-06	-0.00011054140673089679	5.808730824578063e-06
2
153200
Ar	-4.105634544283575e-06	-5.90435764126882e-07	0.0032247057603839203	0.00011370537973365348	5.9530731628679706e-05	5.138577964513454e-05
Xe	1.4187362789319998e-06	-1.3673088804310314e-06	0.002742607977486439	-6.747599936053385e-05	-2.9493158984395416e-05	3.729969512554069e-06
2
153400
Ar	-2.1273739886085604e-06	6.564415706691931e-08	0.003225109954081689	0.0002558310951274477	6.500498063155109e-05	3.0282989205372606e-05
Xe	5.66846921155301e-07	-1.3265779820865605e-06	0.002742503901137389	-0.00010640610701852467	5.8767707354483426e-05	-2.2681653794552273e-06
2
153600
Ar	4.6663507291878523e-07	7.743739700574082e-07	0.0032249733216996547	0.00024150975788046064	5.481779200864381e-05	-3.2632780191738256e-05
Xe	-6.156384884055127e-07	-4.850604020049918e-07	0.002742441491148967	-0.00010234876121125651	0.00010688808263141726	1.4690025868432127e-05
2
153800
Ar	2.649189842259437e-06	9.163870216012128e-07	0.0032245274020617047	0.000188257286226578	-2.4070450230821353e-05	-4.6932299280124e-05
Xe	-1.2798147871683558e-06	4.7667173245872036e-07	0.002742667676935308	-3.192471105857842e-05	9.634149285388451e-05	2.9679144263878162e-05
2
154000
Ar	4.0729214604532235e-06	4.7234559989062946e-07	0.0032242313228465205	6.018033806790043e-05	-4.860548019114344e-05	-1.4926392593097897e-05
Xe	-1.2757223421023202e-06	1.409635429629927e-06	0.0027426372381932976	2.463095104500079e-05	6.228954302234105e-05	-1.809992034277348e-05
2
154200
Ar	3.958297882304777e-06	-2.2557600976243933e-07	0.0032243253404684482	-8.280789907377236e-05	-8.324923652617456e-05	3.386699669692958e-05
Xe	-8.195259122610419e-07	1.7529341652616685e-06	0.002742542372148842	7.453137459796455e-05	1.586089139007988e-05	-1.6599621598335086e-06
2
154400
Ar	2.3472060381469744e-06	-1.0298258922056981e-06	0.0032248480112922	-0.00022096050070329065	-6.0274338499046324e-05	4.7097356725349916e-05
Xe	2.1324010287125234e-07	1.3598772510876966e-06	0.0027428805824744455	0.0001110997293776328	-5.812557953265434e-05	4.986745821535724e-05
2
154600
Ar	-7.355006970116594e-08	-1.424394342546924e-06	0.0032250105271986623	-0.0002581032761520471	-7.3513478901181426e-06	5.880656291459621e-06
Xe	1.1300442942959386e-06	4.901185731874803e-07	0.0027433225533515233	7.211719727012964e-05	-0.00011632401801260238	5.2789301957355765e-05
2
154800
Ar	-2.425693552154397e-06	-1.400031138528169e-06	0.0032252180129450857	-0.00019073435941386314	-6.199895346587573e-06	1.6383598779956538e-05
Xe	1.8486106773336122e-06	-8.8998165260961e-07	0.0027438233785506343	6.302462068941164e-05	-0.00013337148908263395	4.0912272164141326e-05
2
155000
Ar	-3.731441876056496e-06	-1.2643229971960843e-06	0.003225356540286075	-7.19303134438152e-05	4.643311443332282e-05	-5.979868678217633e-06
Xe	1.9299175631106003e-06	-1.9092608758837537e-06	0.002743974650158155	-2.989693325570533e-05	-5.2811449204259544e-05	-7.937158379716338e-06
2
155200
Ar	-3.5411522332425186e-06	-3.208877902193101e-07	0.00322537050334678	0.00010192979601445401	0.0001328813749698598	1.999434752090107e-05
Xe	1.3924136921922779e-06	-1.9973295099051654e-06	0.0027439330033896714	-6.151712974712006e-05	3.894652977451327e-05	-3.374369677797594e-05
2
155400
Ar	-1.9029430288238942e-06	1.0056667898216873e-06	0.0032254487084650385	0.0002001928605370332	0.0001322088699992307	-1.621089769861868e-05
Xe	7.379638531753134e-07	-1.533723865572932e-06	0.002742998815879746	-9.21345709704274e-05	6.303229655533509e-05	-0.00011809406906366357
2
155600
Ar	5.319981673817546e-07	2.007338078402372e-06	0.003224991343766957	0.0002688743532942044	6.606128973119816e-05	-7.267060446039807e-05
Xe	-2.2220260025495263e-07	-8.121254115695549e-07	0.002742042384583652	-9.20888937174117e-05	7.61606764480861e-05	-5.647225844914058e-05
2
155800
Ar	2.7917095154532657e-06	2.019320184717483e-06	0.003224338991829801	0.00017201364842624878	-4.654301776343649e-05	-6.908083810971838e-05
Xe	-1.1279271298513662e-06	-3.62833573132719e-09	0.0027418962610448153	-7.972250529992267e-05	6.948320982821314e-05	2.3037931077132585e-05
2
156000
Ar	3.6026866023309025e-06	1.3263456817344656e-06	0.0032240608504393547	-1.0175498676906016e-05	-7.903136295184381e-05	4.8798664101998175e-05
Xe	-1.6412889070864846e-06	8.183423138060998e-07	0.0027423126928232183	-7.485515237082027e-07	7.776294344714421e-05	4.196860425502793e-05
2
156200
Ar	2.7913518129911333e-06	3.661866202229677e-07	0.0032248010207427315	-0.00016432341882158035	-0.00014312898619869225	9.027890770250244e-05
Xe	-1.2510715625237217e-06	1.404847808371762e-06	0.0027428736618807775	8.310090619638292e-05	2.011650148615637e-05	6.398735108035445e-05
2
156400
Ar	8.289827427687095e-07	-9.574617755223352e-07	0.003225566874218345	-0.00022157368776576806	-6.983361050800698e-05	5.3651531371409817e-05
Xe	-3.032980979552615e-07	1.3183692862571388e-06	0.002743546638991971	8.906747966304971e-05	-3.553327763512858e-05	4.288620586581459e-05
2
156600
Ar	-1.3411034131819865e-06	-1.3578701890406295e-06	0.003226016181800433	-0.0001899168988738561	7.746248039329213e-07	1.8854212424234855e-05
Xe	5.578645938962052e-07	4.5526844966321156e-07	0.0027436118892863264	8.483217839763146e-05	-0.00011075309505464155	-1.932646818999884e-05
2
156800
Ar	-2.8757140137027745e-06	-1.1634579098075287e-06	0.0032256017371516486	-9.781558253600556e-05	4.627067244251183e-05	-7.284270120386492e-05
Xe	1.028643191024228e-06	-6.844661792121104e-07	0.0027433233375847455	4.682303237498212e-06	-0.00012228148484647126	-6.145328966763379e-05
2
157000
Ar	-3.220910062138258e-06	-5.513261609714031e-07	0.0032247518559383338	2.8484022536455887e-05	7.376909372536191e-05	-4.3959638385772776e-05
Xe	8.48775478673212e-07	-1.5230635245138772e-06	0.002742636060888376	-4.51578599974576e-05	-4.9899594103305964e-05	-7.452707039070226e-05
2
157200
Ar	-2.2471204732364388e-06	3.271813037975381e-07	0.0032241453646537285	0.00017085705091303608	9.12842133291918e-05	-5.551514265683975e-05
Xe	3.0942149792630994e-07	-1.6729751789738567e-06	0.0027420869696529134	-7.556497122636879e-05	3.757415244818927e-05	-5.7706834955934456e-05
2
157400
Ar	-2.898773510991983e-07	1.0945047986886934e-06	0.003223874145326876	0.00022646342942106302	4.8062120201527614e-05	-6.357806704957133e-06
Xe	-5.739268794516935e-07	-9.505305288717092e-07	0.0027418353445429118	-7.396867170025898e-05	9.38288509136266e-05	-1.0867453346322704e-05
2
157600
Ar	1.6266320507914687e-06	1.1454672677017867e-06	0.0032240099545593555	0.00017284870225643917	-2.8180891811922417e-05	1.1563169097665577e-05
Xe	-9.889272806684103e-07	7.100933869324662e-08	0.002742152832628165	-2.1190371072970577e-05	9.727539162128235e-05	6.550813840425839e-05
2
157800
Ar	3.071605157785593e-06	6.170116686030309e-07	0.003224483720672179	0.00010626092987119904	-7.280612783917053e-05	7.275482391417885e-05
Xe	-1.0299543190952148e-06	9.046066945201668e-07	0.0027427799897862936	2.403025474421816e-05	6.474780803010356e-05	6.429765830309689e-05
2
158000
Ar	3.429008710879381e-06	-1.6951413062118028e-07	0.0032252622597380896	-3.648681902354201e-05	-8.678049240729783e-05	8.731507541018241e-05
Xe	-4.714947581584522e-07	1.3310107704898054e-06	0.0027435252606334507	8.168840957346761e-05	3.431968954447728e-05	5.090053086287906e-05
2
158200
Ar	2.324877690475495e-06	-8.142958673607703e-07	0.003225946470920608	-0.0002059076797293704	-3.6159456382039755e-05	3.279048230179675e-05
Xe	4.0677309362413097e-07	1.2125542845527604e-06	0.0027437831838663107	7.79521422602631e-05	-3.356510124144069e-05	2.1226565448499386e-06
2
158400
Ar	-3.1067691487342254e-08	-1.02230025271724e-06	0.0032260076650698567	-0.0002507024392003841	2.3189355150265843e-06	-3.5737484489169724e-05
Xe	9.394419213008077e-07	8.509353346809415e-07	0.0027434503937112287	1.5972651688882026e-05	-6.18564038073888e-05	-4.9771814038682885e-05
2
158600
Ar	-2.3963601877306635e-06	-7.488230979550666e-07	0.0032251467102419307	-0.0002028334457350756	3.803667481428152e-05	-0.00011510372967649617
Xe	8.6604545878508e-07	1.1719339153456666e-07	0.002743188253485479	-7.213601203891582e-06	-6.0667108845849455e-05	-2.001750636338322e-05
2
158800
Ar	-3.8007849175464556e-06	3.71178384898662e-08	0.0032242279990704237	-7.383093098754186e-05	8.468008981556895e-05	-4.99980639312096e-05
Xe	4.520833439756194e-07	-5.956833691813752e-07	0.002742898128879125	-6.376318945196938e-05	-4.3659411614276765e-05	-3.868885343129905e-05
2
159000
Ar	-3.582495661097489e-06	9.529577797667188e-07	0.0032238423466191333	0.00010957140967019422	9.165354560726038e-05	-4.1781963923222666e-05
Xe	-1.910234816077289e-07	-9.131768312021412e-07	0.0027423192874281616	-5.9931036289004536e-05	-4.998506136980557e-06	-6.988776411603614e-05
2
159200
Ar	-1.732760828963455e-06	1.609103336601698e-06	0.003223785425266252	0.0002334522477956276	4.2532907846944314e-05	4.984749952902652e-05
Xe	-5.658002873203443e-07	-6.800998378647695e-07	0.00274169113665545	-4.800512178310667e-05	7.514610186727162e-05	-5.720506432562059e-05
2
159400
Ar	8.663954488682511e-07	1.5397412726183409e-06	0.0032243868515542604	0.00025623376682962966	-7.157551080828667e-05	7.529640343789791e-05
Xe	-6.4781312521514e-07	1.3011221321107164e-07	0.002741639944766307	1.6937431569877237e-06	7.401168941113536e-05	3.7641019334678594e-05
2
159600
Ar	2.9682256646940115e-06	4.842410769841882e-07	0.0032252750496088774	0.00014012435132567264	-0.00012293231002471683	8.498599803992898e-05
Xe	-7.32450632866173e-07	6.026428607363825e-07	0.002742419758208406	1.8980160335064217e-05	1.5467549501650866e-05	9.683645641558038e-05
2
159800
Ar	3.304949663565465e-06	-6.162796110303557e-07	0.003225680796849618	-3.8398019080157566e-05	-7.853783569521367e-05	-5.651630806070203e-06
Xe	-3.211060401254153e-07	3.186438584921887e-07	0.002743396629516848	4.858731161116663e-05	-4.9863565905576455e-05	9.594915717678243e-05
2
160000
Ar	2.2283022049814336e-06	-1.4025875018921546e-06	0.0032253168014059414	-0.00013839656706056904	-7.036955479920986e-05	-4.684015109141105e-05
Xe	2.124441099302892e-07	8.062391568532437e-08	0.0027441174122758974	5.174454358631878e-05	-2.1821498311032896e-05	2.2955036473388816e-05
2
160200
Ar	3.6336401994574883e-07	-1.7364674850031814e-06	0.0032248745613449523	-0.00018907459542776432	1.0592564621636845e-05	-3.6975201742739584e-05
Xe	6.098685248733329e-07	-1.5334488426245732e-07	0.0027439839106310096	1.4204760806854961e-05	-8.575770382674974e-06	-6.15317442908985e-05
2
160400
Ar	-1.686463617815171e-06	-1.1048581289499404e-06	0.00322486872896994	-0.00020925204560509925	0.00011326612214481267	4.28640708360693e-05
Xe	7.61868667744931e-07	-1.235951359946527e-07	0.002742921071250933	-2.3997463246133125e-05	6.478142902325261e-06	-0.0001255549187018771
2
160600
Ar	-3.2701464081932896e-06	1.4046064436919472e-07	0.0032252637725824597	-8.15090330537909e-05	0.00011618421465275394	2.072658189676036e-05
Xe	3.3735368589245166e-07	2.227794277770462e-08	0.002741562801665437	-3.125702071142914e-05	1.678269442233734e-05	-0.00012509384260007896
2
160800
Ar	-3.2276238209698835e-06	9.668810932563542e-07	0.0032249851322294185	8.766397893502505e-05	4.862029404139709e-05	-7.698986180301384e-05
Xe	-2.33396085141278e-07	1.4349656270371773e-07	0.0027408209350302908	-9.42263061705724e-05	4.189228234048277e-06	8.536040262170843e-06
2
161000
Ar	-1.692532065910275e-06	1.504782015548361e-06	0.0032238919902599352	0.0002229958483683832	3.76237629943707e-05	-0.00011600672819282588
Xe	-9.05693539142264e-07	3.9215505154455196e-07	0.0027416397981639257	-4.325494702463481e-05	2.637043140001806e-05	0.00014678577871731288
2
161200
Ar	7.195450248899637e-07	1.2401791881548858e-06	0.0032231397158667624	0.00021714630018723462	-6.87189145642272e-05	-1.3079086835061316e-05
Xe	-1.139913060517309e-06	8.032212073262987e-07	0.0027432396694455283	5.8390548986414074e-06	6.11815052014023e-05	0.00014847308978501868
2
161400
Ar	2.6339799193416933e-06	4.809503191168211e-07	0.003223820423526902	0.00012264311924079128	-8.191496084638957e-05	0.0001339047276575283
Xe	-7.88427031350922e-07	7.413186648797219e-07	0.0027442354180473977	5.633289423047196e-05	-5.1330912661536506e-05	5.7483357047256166e-05
2
161600
Ar	3.1712146941865175e-06	-2.7384802746681677e-07	0.003225483317313621	-9.507381091767417e-07	-5.780484984292154e-05	0.00016564908101430713
Xe	-1.8324017586740384e-07	7.1481128715898194e-09	0.002744253391597298	5.694407968386736e-05	-8.435431467255528e-05	-4.193393581508926e-05
2
161800
Ar	2.4006796608815733e-06	-7.077747628048825e-07	0.003227051868236635	-0.0001533307227019561	-1.459629590393906e-05	0.00010328682539452202
Xe	5.358754331973776e-07	-8.960342929057258e-07	0.002743503963374853	8.022616799466953e-05	-6.872941270835996e-05	-9.722521958212999e-05
2
162000
Ar	2.625041444401647e-07	-3.926153975068385e-07	0.0032270885879097013	-0.00024825578943404186	5.587394210400698e-05	-9.077699954804844e-05
Xe	1.334207909405971e-06	-1.2925838580932319e-06	0.002742711997407714	5.6578956590223326e-05	-1.738072992649732e-05	-7.025573355457159e-05
2
162200
Ar	-2.259425388336267e-06	1.7237936420943534e-07	0.0032255577399786487	-0.00021204636645016911	2.8738968183579334e-05	-0.00017023128305752324
Xe	1.4914412482168025e-06	-1.3253672009465268e-06	0.0027425238261350325	-2.778554716964417e-05	1.996336663356326e-05	-1.9153849122019943e-06
2
162400
Ar	-3.442654808487537e-06	3.9460540524123744e-07	0.0032237421029094257	-4.837453666493975e-05	2.0844940600945675e-05	-0.0001830621072411864
Xe	7.033398370604702e-07	-9.637278310333126e-07	0.0027423298042375953	-0.00010663943684970404	5.669730110380663e-05	-3.569344013397405e-05
2
162600
Ar	-3.3030501929420967e-06	4.2645285989359843e-07	0.0032224782425897196	8.808678581396675e-05	-3.10015041548298e-05	-4.0672204545228994e-05
Xe	-3.740880781789712e-07	-4.700570844660512e-07	0.0027421094837998265	-9.800847249446174e-05	6.435647934544235e-05	-1.5743844720049417e-05
2
162800
Ar	-1.6702258215616185e-06	7.01674480190645e-08	0.0032231002070844702	0.00022965862960181707	-4.5478619085267236e-05	0.00014014425022861152
Xe	-1.204301940707822e-06	2.477913321742902e-07	0.0027419502405488247	-5.217020769079142e-05	7.498176650143058e-05	-2.7540383307296938e-05
2
163000
Ar	8.438772614477228e-07	-3.540632987729034e-07	0.003224565190819629	0.00025139510985772504	-3.883295977995977e-05	0.00019050508401839502
Xe	-1.3099288127526771e-06	7.822225884991847e-07	0.002741905275088966	3.2755521029289545e-05	2.4218768088230196e-05	1.6798464150304902e-05
2
163200
Ar	2.91858084090691e-06	-9.112973727323918e-07	0.0032260783639903806	0.0001415470086747145	-5.8277189769688914e-05	0.00010535942550791054
Xe	-8.007545474326073e-07	8.503330254333745e-07	0.00274241997800973	6.780211767770494e-05	-2.9500303299463737e-06	8.239836841060296e-05
2
163400
Ar	3.4235219521498545e-06	-1.545881684769436e-06	0.00322641895018689	-3.993122201044548e-05	-4.223110385272419e-05	-2.8243701477375895e-05
Xe	2.293472279137498e-08	7.795844775584917e-07	0.0027433277083506367	9.310796948897547e-05	4.921081938826236e-06	9.474203902903637e-05
2
163600
Ar	2.0998136729126753e-06	-1.6006722672435953e-06	0.003225754550286732	-0.00020303563419191717	8.649615515958138e-06	-0.00010048978201034737
Xe	8.630668188523415e-07	7.004107631455519e-07	0.0027442033715049533	6.713503523707141e-05	-9.299426623855699e-06	6.59703103108004e-05
2
163800
Ar	-3.043593360664867e-08	-1.5336547075715598e-06	0.003224589116650953	-0.00021808006334313992	2.5201852351435337e-05	-0.00012207268332945713
Xe	1.192171648007721e-06	3.046070296809799e-07	0.0027441791233864636	-8.504212427171904e-06	-7.546905777618225e-05	-5.574770924177277e-05
2
164000
Ar	-2.092067118202253e-06	-7.73849373148157e-07	0.0032238530319407574	-0.0001616007232624678	0.00011808036574358052	-2.5152608456908886e-05
Xe	7.500996259873135e-07	-4.103797546348518e-07	0.0027432572352305913	-6.4975742842079e-05	-4.673511984305399e-05	-0.00013182007695531714
2
164200
Ar	-3.1974603268526845e-06	5.619469873549993e-07	0.003224104189744652	-5.064923355462063e-05	0.0001471809073391416	7.162297270266249e-05
Xe	5.12512198030622e-08	-8.011735657472347e-07	0.0027420790254518777	-7.489773645640875e-05	-2.9087170893176103e-05	-0.00011800385165894873
2
164400
Ar	-2.8082208873631422e-06	1.7869833449337633e-06	0.003224819011185813	0.00014621000100986954	9.598042515154618e-05	3.9661399003635354e-05
Xe	-5.83602698334061e-07	-9.97417889405293e-07	0.0027413614798645286	-3.9757257300872475e-05	-7.88656739433807e-06	-3.478043351572334e-05
2
164600
Ar	-9.023818612504115e-07	2.205056164109202e-06	0.0032251762969157404	0.00022300573473013703	7.381883898488254e-06	2.288556197874263e-05
Xe	-8.788954151208148e-07	-7.646095902948846e-07	0.002741555683177738	-6.827179961723924e-06	4.744435487826506e-05	6.567363802207521e-05
2
164800
Ar	1.4243502130624907e-06	1.9713234635274954e-06	0.00322512659950433	0.00022791754167621268	-6.550022085107284e-05	-3.0324670164774067e-05
Xe	-6.315776985193847e-07	-1.3125216613367205e-07	0.002742688762274637	5.9934817810223566e-05	8.466193111142819e-05	0.00014446555146220894
2
165000
Ar	3.250902862223793e-06	8.936529803327568e-07	0.0032248416405790455	0.00010067644709200052	-0.0001364080565603115	-1.8520878418361222e-05
Xe	-1.559930825778105e-07	6.374529596693904e-07	0.0027440687860784537	4.908770746864405e-05	7.682994206237844e-05	0.00010726318740635284
2
165200
Ar	3.5869544077695125e-06	-3.869659873590903e-07	0.0032247900007519714	-4.803930830635709e-05	-0.0001131911427187718	7.510198449274244e-07
Xe	1.512763599359285e-07	1.135263222801869e-06	0.002744703734103681	4.8232135414133135e-05	1.07259769858662e-05	2.929749650860202e-05
2
165400
Ar	2.3491355845390043e-06	-1.4703011899582572e-06	0.003225154696866248	-0.0001810714577222969	-8.081274693142304e-05	5.164880933757056e-05
Xe	3.911663714647037e-07	9.460318547641769e-07	0.0027441535676083454	4.1216065165024235e-06	-5.888471845024939e-05	-0.00011317706103900582
2
165600
Ar	2.373543868682667e-07	-1.7401558912383263e-06	0.0032254650969944353	-0.00023239056906471824	1.6051623835401576e-05	-1.1302499541553918e-05
Xe	1.2862777886584012e-07	-7.039583306363812e-08	0.0027426162070868553	-3.564155265577609e-05	-0.00010355974088276912	-0.00014885121492791122
2
165800
Ar	-1.675292406297297e-06	-1.2276982500833516e-06	0.0032251643023163594	-0.00014295749475101485	8.909852991554746e-05	-4.526097963111342e-05
Xe	-2.0471609763022457e-07	-9.826553578051218e-07	0.002741239879208249	-3.057469279890827e-05	-7.461913864294112e-05	-0.00013325194277939365
2
166000
Ar	-2.5020019172509606e-06	6.101304494000981e-08	0.003224380153446331	-1.0025635259853945e-05	0.0001515723615282785	-0.00011470341858531821
Xe	-3.7749472761551817e-07	-1.5145905240929386e-06	0.002740656619188332	1.5659323907934336e-05	-4.42589956138504e-05	8.675764894367007e-06
2
166200
Ar	-1.675699998325965e-06	1.5519231218054458e-06	0.0032229438507287295	0.00012723641152599847	0.00013396530101552676	-0.00011658564836042096
Xe	-1.2356744668390475e-08	-1.450946826864875e-06	0.002741553937912733	3.904474324075288e-05	5.9561408745650175e-05	0.0001392122694251274
2
166400
Ar	-3.3439775528906057e-07	2.614766021597559e-06	0.003222705523382005	0.0001366456716150265	5.446697904186139e-05	9.71119465628219e-05
Xe	2.6659418671995116e-07	-8.489980372681205e-07	0.0027431006704853565	1.5658811657809094e-05	4.869805448327284e-05	0.00013150439223698693
2
166600
Ar	8.869716042083257e-07	2.406537022245829e-06	0.0032244591810743975	7.482187207274565e-05	-6.457574904297822e-05	0.00022784129365793307
Xe	2.665484128672601e-07	-2.8538492426815247e-07	0.0027440725335242584	-3.212668159100439e-05	7.50628574125042e-05	4.114212672454597e-05
2
166800
Ar	1.3196904397597451e-06	1.352562713107207e-06	0.0032265235035092714	1.373619508057863e-05	-0.00012137523844845286	0.00016009591439734093
Xe	5.789739542125932e-08	2.177594814919788e-07	0.002744061554398966	-2.168203572960679e-05	3.7924042426451144e-05	-4.250899874120866e-05
2
167000
Ar	1.2202692517178388e-06	1.5004077577662515e-08	0.003227507990070238	-4.474553659600038e-05	-0.00015641353144720655	-9.64824728251147e-07
Xe	-4.212937527780701e-07	6.760666094481244e-07	0.0027434741176110473	-5.9529673755854404e-05	4.7438950711010685e-05	-5.565055206179638e-05
2
167200
Ar	6.529039158052697e-07	-1.440332723138803e-06	0.003226535104631866	-6.352784158992026e-05	-0.00013765511157609315	-0.00019178189386366096
Xe	-8.669947565534674e-07	9.870906479905922e-07	0.0027428174317357845	-2.6130885477094797e-05	1.1868818853180353e-05	-6.299999036766237e-05
2
167400
Ar	5.744445985431732e-08	-2.423451589402054e-06	0.003224146942326914	-5.611415729174779e-05	-6.0124280180316104e-05	-0.0002598508648141156
Xe	-9.671432954913734e-07	1.1304526132450938e-06	0.0027424723434033385	1.3762105844406847e-05	-5.611572966044967e-06	-4.3104689938761354e-06
2
167600
Ar	-3.9921996543315357e-07	-2.7234713299029125e-06	0.0032223925136056434	-3.1093892481376964e-05	7.3558970155158e-06	-6.947531983552106e-05
Xe	-4.5112165630698206e-07	9.257823304990634e-07	0.0027423548621385847	6.531795783955008e-05	-5.8908176246164025e-05	-8.708131725146563e-06
2
167800
Ar	-4.3734359149249214e-07	-1.8812746323756722e-06	0.003222744401699826	1.8659828380221821e-06	0.00015152184018896392	0.00014109386828612587
Xe	5.88853009501592e-07	8.483248007357067e-08	0.0027420664345282016	9.186671533004329e-05	-0.00011228456042618404	-4.246394655030086e-05
2
168000
Ar	-4.6070322469644493e-07	9.018795318446929e-08	0.003224508594133623	-2.5617314342346403e-08	0.0002150134456308751	0.00020672660246413092
Xe	1.239747162779817e-06	-7.868638239369566e-07	0.0027416759631945288	5.740378039663217e-05	-4.8100636223414145e-05	-3.0649187353178325e-05
2
168200
Ar	-2.8881984278483354e-07	2.0826901108244285e-06	0.0032262663257995984	4.750726763111998e-05	0.00015323041583326585	0.00011607412863278814
Xe	1.4319875751203754e-06	-1.1515901080765009e-06	0.002741926671413512	-7.857435421765415e-06	-1.5525237192277685e-05	8.855795097096594e-05
2
168400
Ar	-2.3272896475728163e-08	3.152215281496304e-06	0.003226668028221996	-4.2393035219878e-06	5.3109532343504086e-05	-4.13641140060583e-05
Xe	9.65545389924042e-07	-1.0215260560238454e-06	0.002743027596615801	-7.191577292347851e-05	5.489863403569156e-05	0.00010148490671435974
2
168600
Ar	4.26527711785903e-10	2.895262447187843e-06	0.0032253730980826125	7.627278198070842e-06	-0.00010009578169646485	-0.00019337228463791478
Xe	-3.508277548205519e-08	-3.659807607423471e-07	0.002743942118367446	-0.00011321065917411573	6.503056210503196e-05	6.363323411742543e-05
2
168800
Ar	-2.5828647516718443e-09	1.2815064661154124e-06	0.0032236620103740445	5.827963695618062e-06	-0.00019802887171529123	-0.0001203488141406526
Xe	-1.1088849999108884e-06	3.3811326566057547e-07	0.0027441080096747145	-0.00010415179787284227	7.93014917696261e-05	-2.237267554907881e-05
2
169000
Ar	2.4077209459613165e-07	-8.154305532368474e-07	0.0032232773132764487	2.4817938270486205e-05	-0.00021365076597475489	4.128191132130551e-05
Xe	-1.8598325778230313e-06	1.1384524739608158e-06	0.002743228211201032	-6.975819512493913e-05	7.285385587223329e-05	-0.0001444872175823906
2
169200
Ar	5.655179789784606e-07	-2.4878062936313174e-06	0.003224226347672028	1.700541045320008e-05	-0.00012450063467305266	0.00012233732644645657
Xe	-2.1315287283743664e-06	1.2984211677355837e-06	0.00274188376934258	2.5453336764924637e-05	-1.5413717456944233e-05	-0.00011469821047608473
2
169400
Ar	6.096008168091015e-07	-3.189275519242134e-06	0.003225281332407846	1.7347211394343966e-07	-2.163954027676327e-05	7.661655008404047e-05
Xe	-1.339669867214813e-06	7.479373652468357e-07	0.002741276683148241	0.00012306830393643228	-8.663522782752665e-05	-3.151538371151255e-05
2
169600
Ar	3.719168151305697e-07	-2.815278987186451e-06	0.003225515911459044	-2.459207177662277e-05	9.470838833228488e-05	-2.5737375431665835e-05
Xe	3.6813578413781164e-07	-3.0932885518082545e-07	0.0027417771521170754	0.00017991193597966486	-0.0001395288443425771	8.405295219898705e-05
2
169800
Ar	8.141788475245708e-08	-1.1536864515195954e-06	0.0032247914178741466	-4.074356877691539e-05	0.00022300817734960377	-9.048323625407473e-05
Xe	1.8875533252804513e-06	-1.2512806483804255e-06	0.002742934024654779	0.00012444206671518318	-3.7797134551789284e-05	0.00013080126804073815
2
170000
Ar	-6.058013917722424e-07	1.1422374627628336e-06	0.003224210192010015	-6.820046248598988e-05	0.0002485794857462674	-3.449124138669632e-05
Xe	2.6911952204235196e-06	-1.1880593622783455e-06	0.0027440920896418717	2.2023523683434103e-05	4.127560306433708e-05	7.968840686549542e-05
2
170200
Ar	-1.0445206596782542e-06	3.268092127747459e-06	0.003224377298039001	-2.5223497673447706e-05	0.00017753534319521494	5.3919312762643356e-05
Xe	2.334141800306326e-06	-5.58729495499916e-07	0.0027441424910154234	-9.008423599000767e-05	7.469716995550366e-05	-5.016044232387653e-05
2
170400
Ar	-1.23415993234557e-06	4.306916576839709e-06	0.0032252978943761944	2.1193552441703235e-05	2.721778312654488e-05	0.00010231695483785096
Xe	9.635268562572672e-07	1.4468557875803875e-07	0.0027432708537492244	-0.00017224159618349654	5.1904600315029955e-05	-0.000123077259550505
2
170600
Ar	-7.127418965793481e-07	3.442024721546996e-06	0.0032258236627701925	9.240713657599079e-05	-0.0001946980206447666	1.0745758304396732e-06
Xe	-8.100160982610269e-07	4.4655178547960345e-07	0.002742141017036799	-0.00016145642128492758	1.7136541087911825e-05	-9.000061299761514e-05
2
170800
Ar	2.8966622371757686e-07	7.648290524796792e-07	0.0032251130565707415	0.00010738858659772067	-0.00030147722783260513	-0.00010692075483726744
Xe	-2.067180937161873e-06	7.941159548913919e-07	0.0027415623743223126	-9.850450102518243e-05	5.184109979452925e-05	-2.224758445548766e-05
2
171000
Ar	1.2774605918369125e-06	-2.3753390626517427e-06	0.0032239243323406988	0.00010416792839821541	-0.00029007465426381893	-0.00012266702688958908
Xe	-2.8466421366134204e-06	1.0088833779421013e-06	0.00274180421686131	-2.7547523440691527e-05	9.616201922971725e-06	4.111209996430214e-05
2
171200
Ar	2.234965017724954e-06	-4.651410104141328e-06	0.0032232466260738103	5.259252878755805e-05	-0.00014817941710869447	-6.911907044341207e-06
Xe	-2.6442527242732785e-06	8.344988424187294e-07	0.0027424195213800197	0.0001054954367450962	-6.581053412232773e-05	0.00010147017164722588
2
171400
Ar	2.0727996781229568e-06	-4.998997544793885e-06	0.003223952642338367	-6.945618777254451e-05	6.539598238319487e-05	0.00011092524183353689
Xe	-1.177784193340085e-06	-1.2225706273618865e-07	0.002743420339876888	0.000202669120791055	-0.00011231838276273015	9.253491385443212e-05
2
171600
Ar	9.657011850938433e-07	-3.3176428967807395e-06	0.0032253600412312697	-0.00013725860929822802	0.0002487481065777418	0.00013056506636851308
Xe	9.307735184554718e-07	-9.812387155649781e-07	0.002744099391373011	0.00018905776770866025	-5.172600543154398e-05	3.9325397718973946e-05
2
171800
Ar	-7.280632104072313e-07	-5.292058141268939e-07	0.003226525998343899	-0.00017503175096943017	0.00030732408770737087	5.0927061838582935e-05
Xe	2.3813418144188114e-06	-1.020378725136047e-06	0.0027439453286494156	9.873120593260822e-05	1.7890387578182804e-05	-3.731369022632828e-05
2
172000
Ar	-2.361181148404929e-06	2.427399929860707e-06	0.003226540295975032	-0.0001460557035454836	0.0002734908784403585	-8.04854510438388e-05
Xe	2.6048125868215226e-06	-7.291721332723079e-07	0.00274320168960387	-5.846549418313223e-05	3.678945076625066e-05	-7.390609646556077e-05
2
172200
Ar	-3.342332474214597e-06	4.448718743392815e-06	0.0032252605356831478	-4.3079056582625086e-05	9.506476882723691e-05	-0.000154937292576472
Xe	1.576855101562793e-06	-2.308294846785062e-07	0.002742228369339247	-0.0001598926773501344	5.065543355462432e-05	-7.8855113093232e-05
2
172400
Ar	-2.902290485112557e-06	4.6423526802217525e-06	0.0032236550488326326	0.00014136374742023641	-5.67598635386223e-05	-0.000129143897552198
Xe	-2.472726909270961e-07	2.714816814663656e-07	0.002741681533045411	-0.0001778876647816184	5.432069614618013e-05	-3.127869432238606e-05
2
172600
Ar	-6.314833509867969e-07	3.2145626278917886e-06	0.0032228656820363173	0.00027227045946327203	-0.00022406527016126713	-1.07335579034925e-05
Xe	-1.8095968041433826e-06	8.737744938257508e-07	0.002741764962077575	-0.0001084301127253291	6.604051695411257e-05	2.6176679586746752e-05
2
172800
Ar	2.055406080701024e-06	5.073062233442005e-07	0.003223686508689664	0.00025220672022981745	-0.00029202412955364835	0.00017432315089458737
Xe	-2.356542407768055e-06	1.2836310958444496e-06	0.002742325081915263	-4.696628232888563e-06	-7.869145057287688e-06	6.0498156166439205e-05
2
173000
Ar	3.835210749519588e-06	-2.316957802573485e-06	0.0032254474461824367	0.0001093249644659511	-0.00026561167739326346	0.00015251805941071962
Xe	-1.9252952320784603e-06	9.737514051435796e-07	0.00274271139747115	8.85535538007113e-05	-4.077396675554961e-05	3.463939633228925e-05
2
173200
Ar	4.1938622216703205e-06	-4.267354307000233e-06	0.00322651078409827	-6.0536848536506655e-05	-9.50363787704708e-05	4.321962164382215e-05
Xe	-7.001459324280044e-07	4.2877024946247755e-07	0.002743133283528925	0.0001475295954639009	-6.793549409302126e-05	5.126290262921406e-05
2
173400
Ar	2.7627887380483656e-06	-4.0106579198563705e-06	0.003226439987256132	-0.00024627786776055757	0.00014119357406675343	-6.101626697065823e-05
Xe	8.989834262418756e-07	-2.2152245842187234e-07	0.0027438189968193175	0.00014990057438099	-7.473000356360397e-05	4.958246554933716e-05
2
173600
Ar	6.284001520533749e-08	-1.8458618803299123e-06	0.0032255201908178424	-0.00027272325450846134	0.00027653585841762746	-0.00011350113880179463
Xe	2.204302557085827e-06	-8.773200524314225e-07	0.0027440580659154894	6.852726165412312e-05	-3.544482944084024e-05	-6.068834548449655e-06
2
173800
Ar	-2.6267284130483646e-06	1.2183017458836886e-06	0.003224371309126966	-0.0002543579773852495	0.00031854608016067786	-8.247779213268383e-05
Xe	2.278630028525762e-06	-7.432492421409221e-07	0.002743513715529212	-4.421074306199493e-05	3.945487707274911e-05	-8.957195924237184e-05
2
174000
Ar	-4.739068560732746e-06	4.062731813164965e-06	0.0032237898070160867	-0.00012432218733026196	0.00024218584225622555	-2.5049373904050456e-05
Xe	1.1951086945787494e-06	-2.540604821053561e-07	0.002742527745438837	-0.00014688495687516448	4.872467177047697e-05	-7.772167108365175e-05
2
174200
Ar	-4.834820004571866e-06	5.224037273289691e-06	0.003224041156157759	0.00011005792866594093	-3.527357585487851e-06	7.855460429635454e-05
Xe	-5.759386018114786e-07	3.3486921353605966e-07	0.002742093646462159	-0.00018334597233362533	6.801288450125797e-05	-3.2677838803208206e-05
2
174400
Ar	-2.594841855936524e-06	4.010058383493855e-06	0.0032247566633097106	0.000311767942093634	-0.0002230524054719858	6.135526007004215e-05
Xe	-2.2124539413037046e-06	9.717669248485513e-07	0.0027421065857099907	-0.00010381593035323222	4.633273581741446e-05	1.9257894014137218e-05
2
174600
Ar	7.721734364182532e-07	8.734717098316086e-07	0.003225172367936547	0.00036398064932440275	-0.0003582284888032379	3.2553682898005754e-05
Xe	-2.617769128214974e-06	9.337153462089292e-07	0.0027426228532329055	3.191734372879848e-05	-3.110950223179594e-05	7.505770240984446e-05
2
174800
Ar	4.1503752579149595e-06	-2.666028097998504e-06	0.003225231925811247	0.00027830259498405515	-0.0003179047237471806	-1.2393715129601137e-05
Xe	-1.7527271412198631e-06	5.191293255174422e-07	0.002743414103384218	0.0001483370977747415	-4.7787568543725115e-05	7.245160479983565e-05
2
175000
Ar	5.888479460585413e-06	-4.946841048985708e-06	0.0032252044077055834	4.550141692173215e-05	-0.00011215060594617929	1.6689064572762124e-05
Xe	1.8775175865840405e-07	4.812251884916777e-08	0.0027437898593309687	0.00022027138505245397	-3.8797064275302855e-05	2.3895113838263247e-06
2
175200
Ar	5.160440100666431e-06	-4.607068944945718e-06	0.0032253263932603216	-0.00020773567576194978	0.00014948603983180016	-9.572507534869798e-06
Xe	2.3580662374335578e-06	-5.581506321646475e-07	0.0027435662129187857	0.00016552454123303412	-8.373061721550184e-05	-5.0359594559871365e-05
2
175400
Ar	1.8466866362580935e-06	-2.1923473291670605e-06	0.003225210025344458	-0.00042430356933868406	0.0003077201725055781	-3.280016229777738e-06
Xe	3.166547267057939e-06	-1.1702086730601788e-06	0.0027430780904385142	-1.5011536326536855e-05	-1.9751439619232515e-05	-5.242909949180116e-05
2
175600
Ar	-2.5103661505973695e-06	1.0872304552061612e-06	0.0032250818008532334	-0.0004159824124343217	0.00031418112846408997	-2.5406062868668432e-05
Xe	2.2251483530243006e-06	-1.4370567391054726e-06	0.0027425521954122793	-0.00013556326362950386	-3.270925587982983e-05	-4.1654651514986164e-05
2
175800
Ar	-5.625323396184029e-06	3.8054915674710607e-06	0.003224859828338052	-0.00019429342167489287	0.00022619322069549524	1.8366926451981786e-06
Xe	7.064873471354261e-07	-1.3699252948054088e-06	0.0027421601320573794	-0.0001736666734065317	1.804260137441658e-05	-1.8329410871253043e-05
2
176000
Ar	-6.289311447703799e-06	5.041512543389088e-06	0.0032248123548379716	6.426546187621322e-05	-1.1400883290328949e-07	-5.094859795564794e-06
Xe	-1.205564907990142e-06	-7.110641244565255e-07	0.0027423114413946004	-0.00016648514745653363	8.403649331572465e-05	4.06282573865408e-05
2
176200
Ar	-4.21221951095001e-06	4.032905434141186e-06	0.0032247977875531496	0.0003350748320260602	-0.00019498008086172935	9.972354028400233e-06
Xe	-2.5257176840763338e-06	1.7970162916817334e-07	0.0027426560832954894	-7.824312209051805e-05	5.3552072223854676e-05	3.0182181956865316e-05
2
176400
Ar	9.176460182967712e-08	1.40550766830582e-06	0.0032249170812630084	0.0004853614819784129	-0.0003047876543516125	-8.943171517482992e-06
Xe	-2.6929538627672844e-06	8.149670357484078e-07	0.002742764362340786	5.319160304060818e-05	6.533385612613158e-05	2.9898532394439106e-05
2
176600
Ar	4.6558087955986755e-06	-1.7684577081463226e-06	0.0032246787788805637	0.0004134622191561402	-0.00030184644696404865	-4.411759884064876e-05
Xe	-1.5733826591632143e-06	1.1396914883727668e-06	0.0027429427989941707	0.000156371677355995	-7.506451448465665e-06	1.447766364677203e-05
2
176800
Ar	7.384308023082646e-06	-4.195061043128911e-06	0.0032243066431406095	0.00010763119734939094	-0.00017853051484754433	-3.0389956173444224e-05
Xe	2.0145445449038917e-07	1.0904118118691834e-06	0.0027430026264365624	0.00019334779048419724	-4.685831389423909e-06	7.6449255524232e-06
2
177000
Ar	6.8468244514971085e-06	-5.2024617934511615e-06	0.003224146471699658	-0.00021425044900707797	5.541728931579644e-06	2.0029728031363857e-05
Xe	1.9033931625445088e-06	7.810623850252357e-07	0.002743027862974129	0.00012435775270281654	-5.659651736035103e-05	-4.180938943859374e-06
2
177200
Ar	3.2829928158746437e-06	-4.116993932595703e-06	0.0032246003353836048	-0.0004701727239725331	0.00020989275603490324	7.091913345491845e-05
Xe	2.522178064851583e-06	6.802395796600119e-08	0.002742792427394781	-1.2401024528791242e-05	-7.106114389846988e-05	-4.614863439702496e-05
2
177400
Ar	-2.03815856989829e-06	-1.2256520893296497e-06	0.0032255105025259267	-0.0005408650287246039	0.0003362288669717935	7.722615403711437e-05
Xe	1.7506085795613443e-06	-4.398272893942798e-07	0.002742242649300555	-0.00013933751761374447	-4.474751516001152e-05	-3.99613351169698e-05
2
177600
Ar	-6.713611860353322e-06	1.964991661844864e-06	0.003225515597126616	-0.00033465515467316235	0.00030355813820197346	-6.91883524036717e-05
Xe	2.7157037051201295e-07	-8.463403391926006e-07	0.002742442761062557	-0.00014924315293912569	2.1957300151822257e-07	6.760290621051671e-05
2
177800
Ar	-8.34375353487559e-06	4.0676122485048e-06	0.00322458413046295	1.5319816493116486e-05	0.00012565158653462223	-8.02314138010887e-05
Xe	-1.2238063865260266e-06	-4.880743868370588e-07	0.0027434318019409747	-0.00011889148890124995	6.495537560636181e-05	8.393255186834275e-05
2
178000
Ar	-6.566516218424747e-06	4.240414381003739e-06	0.003224047604892448	0.0003522381855618723	-6.976647615090998e-05	-2.3859911437719886e-05
Xe	-2.114867428491618e-06	1.86126319557679e-07	0.0027439791365344883	-2.763263417994954e-05	5.4169880763431876e-05	1.913028122918709e-05
2
178200
Ar	-1.5310643248222085e-06	2.5567111358633784e-06	0.0032239932464404523	0.0005829255099337062	-0.00024582031425982715	2.904258036451874e-05
Xe	-1.8278887879069101e-06	5.471047834927823e-07	0.002743744080551142	6.537553866648943e-05	1.384440560096595e-05	-8.055154281625095e-05
2
178400
Ar	4.0053443237939294e-06	-4.4461520758818015e-07	0.0032247403293103136	0.0004928312848569531	-0.00033080138940217276	0.00010146193490361012
Xe	-8.846565878921035e-07	5.765579308312779e-07	0.0027425774718804617	0.00011813120422136799	-2.3978771176822484e-05	-0.00014381879015284488
2
178600
Ar	7.41009588963377e-06	-3.345609742503903e-06	0.003225543185647324	0.0001537797175933829	-0.0002204922041985006	5.3430489483649856e-05
Xe	4.4851113571616336e-07	1.6787031179104952e-07	0.0027416236046484866	0.00013720781143683038	-5.6025508387513666e-05	-3.695250929817497e-05
2
178800
Ar	7.131882577362783e-06	-4.7545732398939156e-06	0.0032256001252555936	-0.00022695204127908	-3.608058717145842e-05	-4.533872165316836e-05
Xe	1.7322336727834645e-06	-5.158805934411403e-07	0.0027416885390665214	0.00010161644253755478	-3.8608803078808884e-05	4.716614781197518e-05
2
179000
Ar	3.296073832909595e-06	-3.940566640781809e-06	0.003224725851244704	-0.0005008486599422254	0.00019949808528032612	-9.451069267071155e-05
Xe	2.3344715330175105e-06	-5.611277804888262e-07	0.0027425852182920677	1.092356387683825e-05	1.7974785743655322e-05	0.00012247071923805327
2
179200
Ar	-2.0253338459896527e-06	-1.124090117799151e-06	0.0032239452706789603	-0.0005332659641461827	0.00033946364288477956	-7.430816428933113e-05
Xe	1.7915751083121507e-06	-3.212488544335898e-07	0.0027437110232602095	-9.017261936743796e-05	2.2815092873677533e-05	6.840336176565963e-05
2
179400
Ar	-6.703875725087411e-06	1.976921669404645e-06	0.0032237497812439703	-0.0003556024872285701	0.00025771184626303983	2.8782180151172453e-05
Xe	5.593313514267075e-07	2.7733677085966875e-09	0.002743805194016548	-0.0001396997666083097	5.2939545246451575e-05	-3.603711062775373e-05
2
179600
Ar	-8.527136378762526e-06	4.097310328065047e-06	0.0032244775927654443	9.077159121404376e-06	0.00014942740923552802	0.00010580566234744109
Xe	-9.148887517043998e-07	4.627109193867662e-07	0.002743154880947291	-0.00011179592660926162	5.598675660468653e-05	-7.166651083163248e-05
2
179800
Ar	-6.587366201295361e-06	4.680937086714795e-06	0.003225656852231086	0.00035437307313948834	-3.763152277859875e-05	9.420758657145325e-05
Xe	-1.7156473681324878e-06	8.179975738352897e-07	0.0027425161697189754	-4.3424645581662005e-05	1.1659181398420834e-05	-4.94904772711209e-05
2
180000
Ar	-1.7194861690549114e-06	3.24526858962811e-06	0.0032263766893862018	0.0005696262622682213	-0.00023058774463388556	3.0840976026187866e-05
Xe	-1.678264386710537e-06	7.199788208395584e-07	0.002742596019061521	6.402415956358008e-05	-1.844046608972089e-05	5.114364394950818e-05
2
180200
Ar	4.054724300855837e-06	2.8561901601039904e-07	0.003226140030653409	0.0005366173894827482	-0.0003319771654810771	-5.336423336696821e-05
Xe	-6.996477998819437e-07	2.4233636464127237e-07	0.0027431913538784936	0.00013204018723671733	-5.870901656976994e-05	7.241793407647321e-05
2
180400
Ar	7.9766940872716e-06	-2.721746434240664e-06	0.0032252634286125026	0.00020937047256099366	-0.00024226347523959553	-9.357348008237871e-05
Xe	5.418142252765284e-07	-2.6502134526071524e-07	0.0027437620952904763	0.00011039666163001818	-4.200662284170251e-05	3.817556535399793e-05
2
180600
Ar	8.158851356877202e-06	-4.392234904463369e-06	0.003224378594874999	-0.00018291878937290397	-8.225936808381138e-05	-0.00010191155758989938
Xe	1.319442066041541e-06	-5.258654996806018e-07	0.0027437948948897165	3.7156594375011836e-05	-3.309590705691181e-05	-4.448645736699289e-05
2
180800
Ar	4.639065424493296e-06	-4.066181555036332e-06	0.003223674233608224	-0.0004877873420494919	0.00015577097488125258	-3.1434821826682395e-05
Xe	1.3750291714647547e-06	-7.878484373622694e-07	0.0027428913508718115	-7.868681792223088e-06	6.5305932368364e-07	-0.00011911615916586406
2
181000
Ar	-8.553475888024402e-07	-1.493565563295903e-06	0.003223960788915995	-0.0005670121488706803	0.0003168162529985685	5.074124707737747e-05
Xe	9.345112340993089e-07	-4.720460861176126e-07	0.0027418300752152943	-7.737979285254503e-05	5.356024250991269e-05	-0.00011436856139880944
2
181200
Ar	-6.028441324779805e-06	1.7156355328345456e-06	0.0032246200200524862	-0.00042976299479910966	0.0003143970391659232	4.30091376530026e-05
Xe	1.5549500016127217e-07	2.2897820483434408e-07	0.0027410130549098406	-7.483706640085876e-05	6.137824791232459e-05	-1.1652848437346349e-05
2
181400
Ar	-8.509279671831024e-06	4.288157444516422e-06	0.003224822483772828	-3.5711470319543006e-05	0.00018695913881306792	6.59147232662035e-06
Xe	-7.03412299521691e-07	6.984065072069917e-07	0.002741824697728832	-9.335284266381944e-05	1.6230839744685276e-05	0.00018154483064972634
2
181600
Ar	-6.746283481795607e-06	4.879708993591292e-06	0.0032246702594784034	0.00040108098100117927	-6.676723155128676e-05	-3.1212249241877733e-06
Xe	-1.4185525623782876e-06	5.659202778523798e-07	0.002744001215039047	-1.9325094027174924e-05	-4.103920969794967e-05	0.00019138944899199127
2
181800
Ar	-1.5088937991093555e-06	3.214664541079899e-06	0.0032248805000120425	0.0006187261597830282	-0.00022767956795407705	5.163517636640632e-05
Xe	-1.2815884107490812e-06	1.6106873945840564e-08	0.002745200513816243	4.0034011033367725e-05	-4.972054504086003e-05	3.718332884297029e-05
2
182000
Ar	4.501835140124915e-06	3.371954959686859e-07	0.003225361805120368	0.0005454250604444748	-0.00031793654144542994	3.562234637831778e-05
Xe	-5.263194214440097e-07	-6.170171759753599e-07	0.0027447155440259406	8.866965089292002e-05	-7.582435803828797e-05	-0.00014142151363105742
2
182200
Ar	8.42399006890311e-06	-2.6110723133030783e-06	0.003225586120121992	0.0002081221465937934	-0.00024638544396446936	1.4673745511408998e-05
Xe	5.047407627199806e-07	-1.1341180157630785e-06	0.002742946409967639	9.238225880944009e-05	-3.54778847530995e-05	-0.00019369879283744428
2
182400
Ar	8.385017862506569e-06	-4.042144048807525e-06	0.0032254077580325196	-0.00022015137013155556	-2.7818595119525908e-05	-5.323191133116639e-05
Xe	1.1551742060357334e-06	-1.1929503140565793e-06	0.0027411705123532733	-1.2020905820903698e-05	3.1250130249461526e-05	-0.0001260872923175552
2
182600
Ar	4.353423861848681e-06	-3.233069359691309e-06	0.003224649064146301	-0.0005349900508039838	0.00018311534522491067	-8.551067485502248e-05
Xe	5.774062159874852e-07	-5.816840157879805e-07	0.002740701293288957	-9.534795303542185e-05	8.627529287418267e-05	4.341876568470077e-05
2
182800
Ar	-1.4225263848931574e-06	-1.0102098919720233e-06	0.0032238037801791963	-0.0005696642074457301	0.00025552098841073945	-6.227924975068413e-05
Xe	-5.055442415805827e-07	1.389367414277911e-07	0.002741551872132483	-0.00010782424627931437	6.870777843988305e-05	0.0001366386483148998
2
183000
Ar	-6.138889382848674e-06	1.652402935160588e-06	0.0032236810822578736	-0.0003454327846291127	0.00026132118128184084	5.1558909790853395e-05
Xe	-1.2473387863867737e-06	8.226399802316823e-07	0.0027428144292782433	-2.770028527175223e-05	5.6951534684982824e-05	0.00012075668442141616
2
183200
Ar	-7.68304337276603e-06	3.621797162748819e-06	0.0032246423481388105	4.76519286532831e-05	0.00010203281340991523	0.00015777441613532513
Xe	-1.1625482303328415e-06	1.173480942850413e-06	0.0027438437606905216	3.029289140770571e-05	-1.074218746073637e-05	9.244661574004421e-05
2
183400
Ar	-5.757300148912958e-06	3.4489192804300397e-06	0.0032263020080111	0.00032203110332959187	-0.00013965675542172633	0.00015927861194552366
Xe	-6.587893490522301e-07	7.496401630786646e-07	0.0027440756048788626	8.353108100265796e-05	-7.753288157884497e-05	-1.5745897205387342e-05
2
183600
Ar	-1.3021018697335946e-06	1.517913894012543e-06	0.003227412734119923	0.0005138427976944128	-0.00024002805806344003	4.464487097426232e-05
Xe	3.533214659523967e-07	-3.492285043111199e-07	0.002743711985814317	0.0001016078719407398	-0.00010547162306564718	-5.9842131350975866e-05
2
183800
Ar	3.5345699707028376e-06	-1.0050932241386918e-06	0.003226953601444063	0.00041998180239970006	-0.00023629094643873256	-0.00011748149751905794
Xe	1.072938701321274e-06	-1.3719624390970337e-06	0.0027432194247418327	5.334075178403726e-05	-9.277367507109954e-05	-2.4382839201485597e-05
2
184000
Ar	6.459691131540249e-06	-3.1926374945433716e-06	0.0032253946396162696	0.0001533079019383777	-0.00014462001964330094	-0.00018830200958931667
Xe	1.3798564660088887e-06	-1.7274995693006596e-06	0.0027426248859907026	5.41421667837345e-06	2.4764969741663986e-05	-8.470096510072106e-05
2
184200
Ar	6.409350006894522e-06	-3.678098899807236e-06	0.003223505091474479	-0.00015585409796643575	3.540566007433361e-05	-0.00014110058214212003
Xe	1.1462121381395952e-06	-1.2849135313676164e-06	0.0027418349498356336	-6.794515809142487e-05	6.378251752951481e-05	-5.625681478860011e-05
2
184400
Ar	3.4797890607098465e-06	-2.4426408750185024e-06	0.003222743167297171	-0.0004012026703388765	0.00017376127480482468	4.692461581044266e-06
Xe	1.5657433763212845e-07	-1.6636492704957064e-07	0.0027414972756479245	-0.00011800383323383966	0.00012141534740550672	-1.2639918967129065e-05
2
184600
Ar	-7.940325863816213e-07	-4.942898043159327e-07	0.003223718675735186	-0.0004188023556571449	0.00020383379377597895	0.00018095580902559928
Xe	-1.1911415101060366e-06	9.619698360636644e-07	0.0027416890888755374	-0.00012568204472301515	7.619762659472378e-05	5.4831506894487895e-05
2
184800
Ar	-4.552360144116229e-06	1.4886887986296706e-06	0.003225466271732809	-0.0002964428052478676	0.00017691552805982634	0.00015603711107044804
Xe	-2.2802469241436913e-06	1.648698943638238e-06	0.0027425905794700783	-5.06264791068694e-05	3.6801107816423136e-05	9.94312537743547e-05
2
185000
Ar	-5.989451980979506e-06	2.4842017114572333e-06	0.003226465455362187	-1.9526379616299667e-05	3.9470320517556e-05	2.6474251825390474e-05
Xe	-2.066827457956084e-06	1.4974581787027663e-06	0.0027435933374399296	7.507700220642082e-05	-6.016430851829068e-05	9.314246205275596e-05
2
185200
Ar	-4.719355746770234e-06	2.1780914208144507e-06	0.0032261252765830016	0.00026055599227050056	-7.077454653916233e-05	-7.01991482636615e-05
Xe	-9.948294551842356e-07	5.094180834420884e-07	0.0027445460234055193	0.00015830608875415727	-9.482464756632306e-05	6.589519988742887e-05
2
185400
Ar	-1.1154358871550106e-06	1.024854343380549e-06	0.003225382911331735	0.0004017384686692957	-0.0001505244304634803	-8.049507363208561e-05
Xe	7.085227235628502e-07	-4.939385249724098e-07	0.0027444906028225007	0.0001725979268134363	-9.776732523661034e-05	-7.265830606134644e-05
2
185600
Ar	2.5751439195274947e-06	-5.386916564512471e-07	0.0032246843134541396	0.0003078367544865441	-0.0001773852618548584	-5.063456785163165e-05
Xe	2.0082984538005835e-06	-1.2662292270414365e-06	0.0027433809310171346	9.264875448543577e-05	-4.71928131175036e-05	-0.00013482849782447552
2
185800
Ar	4.6377250509082045e-06	-1.883035788255711e-06	0.0032242865150789975	9.0538753131325e-05	-9.223226836751226e-05	-3.71432730777341e-05
Xe	2.3905190321298936e-06	-1.5130208717351987e-06	0.0027419789247827933	-1.126874850732103e-05	1.6741062176718104e-05	-0.00013220115691780048
2
186000
Ar	4.150690276597081e-06	-2.305141834293504e-06	0.0032242302230218204	-0.0001926753560837811	1.4821264067723156e-06	1.0701570291614149e-05
Xe	1.6806244175355292e-06	-9.253064688209306e-07	0.002740975254885551	-0.00011977168852969358	9.854082776557312e-05	-4.894902630357477e-05
2
186200
Ar	1.4050265049631937e-06	-1.8357622823744686e-06	0.003224570480440443	-0.0003284355860330488	0.00010077893668532036	5.0394314852966845e-05
Xe	5.624043253586541e-07	3.969083527519271e-07	0.0027411838076181654	-0.00013036544880393614	0.00014698370221008584	7.603453781933132e-05
2
186400
Ar	-1.8372021675631447e-06	-3.636258663891043e-07	0.003225045403329608	-0.00028923077349671375	0.00015988700275989845	2.6980842989588534e-05
Xe	-6.699064356479779e-07	1.6821457485904286e-06	0.0027422937205407636	-9.216104631052388e-05	8.952948383271315e-05	0.00011978978753434983
2
186600
Ar	-4.000443480989852e-06	1.15475197455387e-06	0.003225199030439181	-0.00012903577854178353	0.0001282290199770519	-1.639450231770668e-05
Xe	-1.263219809088793e-06	2.0799267594660735e-06	0.0027433823162234215	-1.8195926127956098e-05	1.0155455144319533e-05	8.911535770787481e-05
2
186800
Ar	-4.164159857169972e-06	2.0408501211130243e-06	0.0032248492206387105	0.00011033891001710079	2.835197764589538e-05	-4.017696668451227e-05
Xe	-9.504167534581554e-07	1.615186033742122e-06	0.002743970802438831	8.608388927830289e-05	-0.00011241610817854174	2.228600819436317e-05
2
187000
Ar	-2.120808579908564e-06	1.8548320459105425e-06	0.003224636554620231	0.0002679963723995443	-8.003830694805539e-05	-2.307979999643472e-06
Xe	1.310116119206438e-07	1.5537487641439152e-07	0.0027437185438107512	0.00012011001627153323	-0.0001612826618036032	-6.834369318955333e-05
2
187200
Ar	5.755829032465374e-07	7.13904723359248e-07	0.003224925698891018	0.0002438443644764094	-0.0001244640975846752	4.955276821158906e-05
Xe	1.0888491635110779e-06	-1.5252004028523756e-06	0.0027427667517597107	7.275017926041263e-05	-0.0001611681675813859	-8.043884492249328e-05
2
187400
Ar	2.7078077448659555e-06	-4.0977755807254206e-07	0.003225069460655614	0.00013852637737981566	-8.92941363745376e-05	-1.055043687541594e-05
Xe	1.7782222151358774e-06	-2.6108312993526776e-06	0.0027419388716353253	4.008071056131934e-05	-4.562866909682068e-05	-6.264235766562706e-05
2
187600
Ar	3.1973646528590466e-06	-9.41401159165883e-07	0.003224615432236913	-4.4965768922731314e-05	-8.172838340898032e-06	-6.339860982244076e-05
Xe	1.965945523008493e-06	-2.4543390802505645e-06	0.002741601513718504	1.4309672626026704e-05	6.195845657899798e-05	-1.6278191169885612e-05
2
187800
Ar	2.100730201099039e-06	-6.934528669654305e-07	0.003223970880901232	-0.00016854974484055188	6.116946149249321e-05	-4.056321476709311e-05
Xe	1.2675149549482095e-06	-1.4893477022919643e-06	0.002741848038005839	-0.00012892561198211709	0.00012784360177688854	6.060595833682189e-05
2
188000
Ar	1.6432246828416752e-07	-1.5571239593466972e-08	0.0032237524089084434	-0.00022136583668284663	6.747060664216241e-05	1.1846383634481395e-05
Xe	-8.925924151912838e-08	-2.700746175442689e-07	0.002742576310821314	-0.0001421043750680457	0.00010938039936267569	4.9622561883140445e-05
2
188200
Ar	-1.8875861509951456e-06	3.7133706614179415e-07	0.0032244407421711395	-0.00017717656711865775	8.59696023491888e-06	8.874439703925156e-05
Xe	-1.570185826360171e-06	9.383107771543459e-07	0.002743068233274982	-0.00014463571558481867	0.00011486233686211646	6.979806629329118e-05
2
188400
Ar	-2.8876871613957743e-06	1.7815757954900375e-07	0.0032254974666061633	-2.774134658573124e-05	-4.711402318282745e-05	7.443741957855057e-05
Xe	-2.4404821365571577e-06	1.8477905759320902e-06	0.0027435101468243663	-2.4390837774694875e-05	5.978489546420655e-05	3.5041767027571685e-05
2
188600
Ar	-2.619848123111251e-06	-5.695352577764349e-07	0.003225844893245179	8.668132338109426e-05	-6.679158103848178e-05	6.122592130510827e-06
Xe	-2.1208110031496786e-06	1.8880959776148367e-06	0.0027436121202252645	7.338487460941762e-05	-6.35005495294368e-05	1.0862938521195552e-05
2
188800
Ar	-1.2334537200898551e-06	-1.0414067491282703e-06	0.003225501075779702	0.0001828003197904399	-9.04082306052363e-06	-6.238833165175815e-05
Xe	-8.561854306035594e-07	8.12446300109572e-07	0.002743648165518837	0.00017473266871273355	-0.0001401584315900738	-2.904605334626822e-05
2
189000
Ar	4.77423833598085e-07	-8.208038068520679e-07	0.0032249817698836157	0.00016806074319574031	3.298137699515865e-05	-2.858951326262018e-05
Xe	1.0502984948577055e-06	-6.880331582881586e-07	0.002743102580666252	0.00018668951377352546	-0.00010859398279099131	-7.153225550942444e-05
2
189200
Ar	1.8599980277720181e-06	-2.6149889043135174e-07	0.003224790627470694	8.157283352664222e-05	7.547577173965434e-05	-1.1004364239676752e-05
Xe	2.4055303651042147e-06	-1.6949545686529095e-06	0.0027424602003769836	8.076444195300788e-05	-0.00010321720254107424	-0.00010342160542345094
2
189400
Ar	2.242151906190237e-06	5.814695733600854e-07	0.003224786017057914	-1.1055652069470915e-05	9.211675776740646e-05	-1.092179171682589e-05
Xe	2.4237832555968477e-06	-2.1631998103121116e-06	0.002741665029138461	-6.370941535393634e-05	1.1250289359037276e-05	-2.8949809653513637e-05
2
189600
Ar	1.4807486416293648e-06	1.4719219900666748e-06	0.003224575558552374	-0.00011801001407312875	7.193080739229648e-05	-1.9784026100393604e-05
Xe	1.2863835798255112e-06	-1.6907626016424115e-06	0.002741916996634875	-0.0001576756313058054	6.201437048446114e-05	6.774681881438252e-05
2
189800
Ar	1.5559828747634613e-07	1.98891604032266e-06	0.003224524838093482	-0.00011705190000140018	3.462952747782989e-05	1.042951166470568e-05
Xe	-4.1425823741485325e-07	-7.205167267672372e-07	0.0027425726842179214	-0.00017104976547358607	0.0001255578713230964	6.182833304957244e-05
2
190000
Ar	-8.502067104668104e-07	2.099793044209516e-06	0.0032245955662285383	-7.266474783662107e-05	-4.783978104109659e-05	1.788797713423238e-05
Xe	-1.8333841094712116e-06	4.798410828401624e-07	0.002743171637695635	-0.00012221662386904626	7.770050012016652e-05	4.166116700153114e-05
2
190200
Ar	-1.3076675814485616e-06	1.0068681337028645e-06	0.0032249810767164076	8.912079551049132e-07	-0.00015889325323950918	3.469413289355997e-05
Xe	-2.6276727492722423e-06	9.756521375435306e-07	0.002743408686018311	-3.1154913169427526e-05	2.6866415351392982e-05	2.378986112316689e-05
2
190400
Ar	-8.906845914123451e-07	-7.901353539620571e-07	0.0032254471450615238	8.589121909470938e-05	-0.00017516121796772252	2.2429695654916713e-06
Xe	-2.1999413062125896e-06	9.369254015000434e-07	0.0027437179974590573	0.00011180598004185846	-4.6908262892868924e-05	2.6480181079099957e-05
2
190600
Ar	7.123663147133989e-08	-2.3210986573428775e-06	0.0032254275219755096	0.00013372383865092565	-0.0001087308188683039	1.0665617400859836e-05
Xe	-4.790608181399824e-07	2.7849709385432114e-07	0.0027438625867503568	0.00021143121975358934	-9.618622992064732e-05	8.200755345893824e-07
2
190800
Ar	1.343391224839292e-06	-2.7912549120842194e-06	0.0032255559536478995	0.00011457923624206416	1.2145097539595902e-05	1.8959540601823482e-05
Xe	1.5359721020032376e-06	-5.919303365308346e-07	0.0027436987810929717	0.00017678293348880029	-6.282252648972732e-05	-3.5403303119208275e-05
2
191000
Ar	1.6333827737062198e-06	-1.8002228831617912e-06	0.003225726059863991	-3.156492340088267e-05	0.00015077623687155336	-5.634318705721424e-06
Xe	3.0616588001228624e-06	-8.789796211812044e-07	0.002743059545929291	0.00011143880189139562	-6.696889848607777e-07	-8.178980863659822e-05
2
191200
Ar	9.486325538823362e-07	-1.0384504030124392e-07	0.0032253630845897182	-9.987069783680828e-05	0.00016876171907271705	-7.253009589919252e-05
Xe	3.2401005499671235e-06	-7.795796678536805e-07	0.0027421046904201976	-7.615157278250583e-05	1.955025071897075e-05	-8.230991554419596e-05
2
191400
Ar	-3.565109406896893e-07	1.6509217677826172e-06	0.0032243714974427838	-0.0001446863746558331	0.00016036402728209322	-0.00010250366650525319
Xe	1.6665994607819364e-06	-6.156736537818528e-07	0.0027419005223953035	-0.0002074705604592408	4.912216129919714e-06	1.9103512640804965e-05
2
191600
Ar	-1.6571008517045012e-06	2.755471502715452e-06	0.0032236205565991612	-9.1303974308397e-05	3.0347315258760282e-05	-4.718857657687917e-05
Xe	-5.375575135503661e-07	-2.7474799963463646e-07	0.0027422673509765127	-0.00021380452255204246	4.028082238187288e-05	2.6754792859728184e-05
2
191800
Ar	-2.2564033435222924e-06	2.4180776574975738e-06	0.0032237369458459415	-1.2323558410320429e-06	-9.635755547324594e-05	6.0767661730791266e-05
Xe	-2.3412076884857307e-06	-1.6412446969795528e-07	0.0027427267921984787	-0.0001365247284893811	5.520029426161952e-06	6.904452732397418e-05
2
192000
Ar	-1.6671403647416152e-06	1.1672500523779655e-06	0.0032245690880483954	0.00010657916188736859	-0.00015184531083750657	9.6468420393131e-05
Xe	-3.2492838807319753e-06	1.2864428083045538e-07	0.002743311901218576	-3.736034037164924e-05	1.4165790260551096e-05	3.8937211115643186e-05
2
192200
Ar	1.81857447145908e-07	-7.139095437472728e-07	0.003225667165659043	0.00021639996519708557	-0.00020593217386221242	0.00011791518990690324
Xe	-3.0638125575995544e-06	1.947900091438595e-07	0.0027433379269917587	9.42642602268324e-05	2.5106666750767373e-05	-1.884921054477445e-05
2
192400
Ar	2.167272923885017e-06	-2.4412793840348245e-06	0.003226507441978841	0.00017745839306523254	-0.00012403137151267547	1.266799092467268e-05
Xe	-1.3502862716718812e-06	5.368849468507557e-07	0.002743142200864586	0.00021770445455601594	2.995146133366867e-05	1.679501143427452e-06
2
192600
Ar	3.270676773216451e-06	-3.125765325689235e-06	0.0032260713951844933	4.389742177342344e-05	-9.338645687803107e-06	-8.964521810822862e-05
Xe	9.005676027235793e-07	6.5559572992099e-07	0.0027431719372527064	0.0002013222340546236	1.50893097273296e-05	5.078326741378675e-06
2
192800
Ar	2.8843778016415497e-06	-2.632427585387583e-06	0.0032246694724681357	-0.00012786605036152994	0.00014018846991698366	-0.0001323700329261516
Xe	2.3505904486751565e-06	5.319566799977523e-07	0.0027431676752140807	7.132735778852119e-05	-1.5225402366947186e-05	-1.2410414059610085e-05
2
193000
Ar	1.1166551487606394e-06	-9.550138788539067e-07	0.0032235415912285383	-0.00022777893084807593	0.00020534461768943345	-8.194309102716088e-05
Xe	2.3174350977661415e-06	3.386557354024827e-07	0.0027427486855079093	-4.3622795447079546e-05	1.1975043905938213e-05	-4.239624847063917e-05
2
193200
Ar	-1.2467536316000368e-06	9.088241407247688e-07	0.003223452274066306	-0.00022990570752429157	0.00016638379219310377	3.9880780376803824e-05
Xe	1.3357928163653583e-06	3.8933695015304537e-07	0.0027426098416920034	-0.00012976779711168534	1.598558187506832e-05	1.2566805868431978e-05
2
193400
Ar	-2.8865037387826204e-06	2.16633726699097e-06	0.0032245757255551194	-8.901841331541361e-05	7.60427431922925e-05	0.00016343701748446836
Xe	-4.144140973662513e-07	5.994612580409114e-07	0.0027428678804400615	-0.0002176041117990417	1.612117257898724e-05	2.0933740063970834e-05
2
193600
Ar	-3.0516078072647607e-06	2.5004349840001348e-06	0.0032259491828265786	7.668497938059286e-05	-1.946568098005052e-05	8.885202852541659e-05
Xe	-2.261421039084238e-06	5.965196386276574e-07	0.0027430023641985177	-0.00013255474102737337	-2.1768579875112e-05	-1.4317802878172576e-05
2
193800
Ar	-1.7075825255559232e-06	1.8521424706261538e-06	0.0032260965301789835	0.00019013480959277526	-0.00010309947843921915	-3.434071504129218e-05
Xe	-2.926604661708547e-06	2.758903117790143e-07	0.002743184172639187	-8.156586780710262e-06	-3.135983856037033e-05	2.4003346742718577e-05
2
194000
Ar	6.756265668875378e-07	5.492111042523093e-07	0.0032253794187397144	0.00025838796606171197	-0.00011285872513361098	-9.018190998518636e-05
Xe	-2.3161253665725846e-06	-1.7876457845775477e-07	0.0027435313986907996	0.00011843800830591194	-4.375808259276512e-05	1.1564699608257074e-05
2
194200
Ar	2.991442531737265e-06	-5.500106470051166e-07	0.003224746545542492	0.0002124542654668741	-0.00010842343767371197	-4.791967292153837e-05
Xe	-8.698335586459213e-07	-4.610708303854067e-07	0.002743366730611776	0.000158822742400536	-1.1085805584053813e-05	-3.833536399251067e-05
2
194400
Ar	4.188927175368025e-06	-1.524077199874219e-06	0.003224514971709633	4.1221279598466935e-06	-5.224735655257149e-05	3.919918644840092e-06
Xe	7.6722386817439e-07	-3.9917966659461804e-07	0.00274261087287863	0.00015386137714989772	1.196258195318348e-05	-0.00012602284118934506
2
194600
Ar	3.142432105431529e-06	-1.464395760447751e-06	0.003224679059199091	-0.0001853588707021234	7.152962413214283e-05	4.343200330723033e-05
Xe	1.8031791903167228e-06	-6.99239383259021e-08	0.002741669521582818	5.3931744148785746e-05	3.450800820830621e-05	-4.478278232373625e-05
2
194800
Ar	4.6607108336327237e-07	-7.211426986951725e-07	0.0032246976029124304	-0.0003195383579394734	7.642428781137946e-05	-2.994451564919247e-06
Xe	1.7720923386975538e-06	1.4865397392736588e-07	0.0027415691872077355	-2.7393386176738123e-05	1.654183219278158e-05	3.112968568877262e-05
2
195000
Ar	-2.8057181992028573e-06	1.7591420063025652e-07	0.003224758446719743	-0.00028699150779272346	8.968382476197267e-05	1.2750369871863465e-05
Xe	1.2034143054043472e-06	2.9733335549699655e-07	0.002742531088262893	-8.128867877939491e-05	1.0074952021834786e-06	0.00011718959169347048
2
195200
Ar	-4.985916201168658e-06	8.092555311382991e-07	0.0032247869010065553	-0.00011813505570670079	2.3321512737995287e-05	-8.674981771625733e-06
Xe	2.9594400887190466e-07	5.6509206169808804e-08	0.0027435258794802366	-9.770761483815621e-05	-5.9238418409366186e-05	7.061585755600848e-05
2
195400
Ar	-5.080047278668106e-06	1.000005873049074e-06	0.003224919263795876	9.823260168635306e-05	-6.716580012485164e-06	1.728101789869733e-05
Xe	-6.08194004932915e-07	-3.5751898465949557e-07	0.0027437645869701275	-7.933881034008097e-05	-1.2535923533753513e-05	-1.308616472090381e-05
2
195600
Ar	-2.9546973681747103e-06	8.857092296048637e-07	0.0032252504550977783	0.00028808368114199823	-2.0724600403362532e-05	-1.0112663218354947e-06
Xe	-1.1177803969515167e-06	-4.907266378176854e-07	0.0027433372679016724	-2.6927507893615858e-05	-1.238282467830032e-05	-6.255204828543839e-05
2
195800
Ar	2.864056307498884e-07	5.953219955628209e-07	0.0032250241021839275	0.00033304044778641786	-4.4740009395320813e-05	-4.330385099980247e-05
Xe	-9.910266000467296e-07	-4.798552150340776e-07	0.0027427726297548412	2.54847919908759e-05	-1.4077173276739097e-05	-4.1921061735356065e-05
2
196000
Ar	3.2592094057027343e-06	-3.440950138447971e-08	0.0032247704600163176	0.00024174113616372246	-7.413012748704684e-05	-2.6634854514959378e-05
Xe	-7.654840835032062e-07	-5.91590819148836e-07	0.002742497870010614	3.3978053977835865e-05	-8.935676176723796e-06	-4.414330964894508e-05
2
196200
Ar	4.795423276935584e-06	-6.912660042074426e-07	0.003224703298467099	4.671315490684248e-05	-5.815364558512676e-05	2.6513214133462476e-06
Xe	-2.3822846306038765e-07	-5.492592415428025e-07	0.002742342329917365	7.05255817491154e-05	-2.65943881325938e-05	5.98152899775679e-06
2
196400
Ar	4.194926999379405e-06	-1.3105359273606393e-06	0.0032246589631902216	-0.00017044037685116936	-3.970247328599929e-05	-2.82666191441409e-06
Xe	5.068578577879517e-07	-8.046224810805281e-07	0.0027423856073701776	6.328254844431903e-05	-2.2195923032908187e-05	2.2569868051194273e-05
2
196600
Ar	1.5487590241943883e-06	-1.4275361957948926e-06	0.0032246304491781773	-0.00033107583436448225	2.642668029874324e-05	-2.3768076283654097e-05
Xe	7.226192356560393e-07	-1.0553404312542542e-06	0.0027426429421862778	4.3338456346465153e-07	-2.1901680792251812e-05	3.664246387818754e-05
2
196800
Ar	-2.143027275157481e-06	-7.497564993412214e-07	0.0032246514994525594	-0.00035897996937610726	0.00011766250305577951	8.042827051607267e-06
Xe	4.728643769511076e-07	-8.002366078480958e-07	0.0027430074712162197	-4.7439820933670697e-05	5.448590018398897e-05	2.13705679820068e-05
2
197000
Ar	-5.111608189428149e-06	7.50484025024206e-07	0.0032248981512802448	-0.00019587822374846656	0.00014722227673379953	1.959073187130286e-05
Xe	1.0916613586232734e-07	-1.8881133660931454e-07	0.0027431494709748063	-2.1552306045647466e-05	6.292468660545631e-05	-1.3174324036170347e-05
2
197200
Ar	-5.915718894710943e-06	2.089348138070756e-06	0.003225225224339282	4.321703016185964e-05	9.236593583765642e-05	2.9566539768267705e-05
Xe	-2.3589008225365485e-07	3.214310993513471e-07	0.00274288538629907	-2.692407108915975e-05	5.306904840170785e-05	-1.1237703531817443e-05
2
197400
Ar	-4.345549730642971e-06	2.3096430890238904e-06	0.0032253155595318417	0.00027276033444299043	-5.205534303776498e-05	5.099970723115647e-06
Xe	-4.0818709374865425e-07	7.527582930752789e-07	0.0027428709726238297	-7.928188435308341e-06	2.5732827238630068e-05	2.231031041604912e-05
2
197600
Ar	-7.933315414403081e-07	1.3161769172826543e-06	0.003225099263105499	0.00040664621040451367	-0.0001136631463734467	-9.374915053502655e-06
Xe	-3.308534516803186e-07	8.311428673517412e-07	0.0027431846441793688	2.8477560202232003e-05	-2.3469094606958278e-06	4.264284613291479e-05
2
197800
Ar	2.956631276639729e-06	-6.977744557345427e-08	0.003225001073690642	0.0003183104256324902	-0.00013816999570365066	-1.0119765885640364e-05
Xe	1.1520250450971076e-09	6.239264413851071e-07	0.002743443757925688	3.279262320307513e-05	-3.932241266331842e-05	1.3587650109345913e-05
2
198000
Ar	5.01844807056901e-06	-1.3690148502763856e-06	0.0032248510552681567	5.9503864082502296e-05	-0.00010761795563550138	-3.972534355627423e-06
Xe	1.4163267153818965e-07	2.536767573226457e-07	0.0027433726146611323	-3.6203611843064103e-06	-3.565970303471821e-05	-1.9641199324456958e-05
2
198200
Ar	4.452969631274202e-06	-2.155016770527921e-06	0.0032250900388399867	-0.0001641482303940005	-4.833629862437247e-05	3.293840858606754e-05
Xe	2.3954836882172483e-07	-3.147819966793381e-07	0.0027429326600812215	-3.541067304772512e-06	-3.9837484238048685e-05	-6.208479114832468e-05
2
198400
Ar	2.0013428453485537e-06	-2.2136472520527983e-06	0.003225401265542758	-0.00032100633612626504	3.5506122976987326e-05	1.3246911039111083e-05
Xe	4.272053826499591e-08	-6.763595068197419e-07	0.002742332736245738	-2.933941431329038e-05	-3.486612298027484e-05	-6.747648955011716e-05
2
198600
Ar	-1.3008571721328308e-06	-1.0526252043425971e-06	0.003225252471709494	-0.0003196654713507786	0.00015671723457119584	-4.0815375585864725e-05
Xe	-2.595601450594879e-07	-7.932356926563209e-07	0.0027418647738411085	-1.2348953788413883e-05	1.1945307986065713e-05	-1.7281350414894895e-05
2
198800
Ar	-3.887513689536274e-06	6.560359696040999e-07	0.003224711267126433	-0.0001899243066982796	0.00019127352827922077	-5.53661143708535e-05
Xe	-2.295933669882748e-07	-6.339340882542051e-07	0.0027421563211915915	-5.7226887418696115e-06	3.600982985837507e-05	5.6477297160762775e-05
2
199000
Ar	-4.8683975490178006e-06	2.3757401307508766e-06	0.0032242372429872796	1.0983683596136951e-05	0.00012282600606331996	-4.5313557728612805e-06
Xe	-4.0350013515427635e-07	-2.1573093816171966e-07	0.002742868885602511	-1.1811547071878635e-05	2.4964981273849652e-05	6.940155530068266e-05
2
199200
Ar	-3.656195284039338e-06	3.2795525919701305e-06	0.0032245632643012785	0.0002392294611555098	3.2765616328828084e-05	6.46041963727638e-05
Xe	-4.716375901288835e-07	1.296018431535411e-07	0.002743303969548839	2.1829491495498526e-05	4.071686428315159e-05	2.3678579062884962e-05
2
199400
Ar	-7.514165253593551e-07	2.9456405551224916e-06	0.0032252751296167823	0.0003320687284257178	-0.00012074359769414128	5.172778046295916e-05
Xe	-3.373104416592033e-09	2.678023058080923e-07	0.002743283126883665	5.468462425739576e-05	-4.656469206450276e-06	-2.9088293174693557e-05
2
199600
Ar	2.227640380499447e-06	1.1346341347329055e-06	0.003225643753371341	0.00023747743692675377	-0.00023758256738636585	-1.23266315504704e-05
Xe	5.537906595317738e-07	1.8052811684731473e-07	0.002742897990429978	4.3897221167650156e-05	-1.1054864790045571e-05	-4.152183871703673e-05
2
199800
Ar	3.8632950302596985e-06	-1.3370432007182997e-06	0.003225187790226491	8.120019753304478e-05	-0.000249038972901932	-6.960687137374117e-05
Xe	5.922407026725782e-07	1.0097954011718627e-07	0.002742735908511332	-1.5045458575664338e-05	-1.0646300977219038e-05	-2.194934824480206e-05
2
200000
Ar	4.005867861541832e-06	-3.231166307658103e-06	0.0032244871626292263	-7.236121128994894e-05	-0.00011835661391739999	-6.561316343950584e-05
Xe	2.9479330265458804e-07	-1.0726103296250612e-07	0.0027425659268636438	-2.6227489644944854e-05	2.4696889879378783e-06	-2.299600508373206e-05
2
200200
Ar	2.318373403839263e-06	-3.835162605516788e-06	0.003223734046724172	-0.00023672971224395577	1.1221395080568246e-05	-3.51207698525464e-05
Xe	1.429142750174945e-07	1.3884874099884254e-07	0.002742321071727373	-1.203935497837299e-05	4.289406085517536e-05	-1.1530163939815312e-05
2
200400
Ar	-2.8797353284622234e-07	-2.9162366270389577e-06	0.00322391895882143	-0.0002781867398864947	0.00015958990735495936	7.720379253465525e-05
Xe	1.2538264955701027e-07	4.355142353855679e-07	0.0027421840080342373	7.14370704609991e-06	1.949707576266919e-05	-1.052953135911507e-05
2
200600
Ar	-2.765484409205789e-06	-8.30578192576111e-07	0.0032247951856439086	-0.0002021424424218608	0.00024013930678712123	9.085889314997857e-05
Xe	2.8304869097827355e-07	4.052354046213383e-07	0.0027422125578324685	1.7577799989728e-05	-3.552969056384287e-05	1.7829953705047852e-05
2
200800
Ar	-3.78107249521537e-06	1.375927646051446e-06	0.0032253901277652414	1.5134943788822298e-06	0.00020296330180335763	4.1694639379511844e-05
Xe	4.878960485456273e-07	1.172234310013754e-07	0.002742699750659752	2.997562795356404e-05	-4.078649389773466e-05	6.406916605537954e-05
2
201000
Ar	-2.942458910477793e-06	2.6120926489796537e-06	0.003225576966687862	0.0001607270709813632	6.1666705560026e-05	-4.0647573222087125e-07
Xe	7.688270188361822e-07	-2.712738914103176e-07	0.002743321954227399	3.9666331206667204e-05	-5.3944735747800396e-05	5.380356017339976e-05
2
201200
Ar	-8.888621996122067e-07	2.7307526720809315e-06	0.0032256365335730708	0.0002175407039867255	-5.291955289055992e-05	-1.9950017683706272e-05
Xe	9.322526000979342e-07	-5.525876224277217e-07	0.002743616274510497	1.2872648957013662e-05	-1.5485352347506692e-06	1.799836640741795e-05
2
201400
Ar	1.1881427589198388e-06	1.7343407527156038e-06	0.0032252561556411208	0.00020802860076369917	-0.00016366083922386392	-5.915793718635976e-05
Xe	7.422124993833152e-07	-5.133991547006317e-07	0.002743631544140344	-6.45309872087907e-05	4.150636581217788e-06	-2.649247017722684e-05
2
201600
Ar	2.6718758940098614e-06	7.252609378391015e-08	0.0032246060401174815	0.00011782709222540695	-0.00015894573811782664	-6.109914227861216e-05
Xe	-1.1290905158236555e-07	-1.7167230644045774e-07	0.002743276275564448	-9.219099613526543e-05	5.1417377040311576e-05	-5.706667100770115e-05
2
201800
Ar	3.30929416682881e-06	-1.34623162595371e-06	0.0032244237203844592	-5.453421496753326e-06	-0.00012885362121911994	2.9278164945153256e-05
Xe	-1.3425211276080192e-06	1.671342757006247e-07	0.002742532029899779	-0.00014024143117517658	8.416504777911053e-06	-8.246768900281371e-05
2
202000
Ar	2.817162991137075e-06	-2.126216296664626e-06	0.0032246467706717923	-8.781495677328207e-05	-1.0759171839357314e-05	2.05915230591547e-05
Xe	-2.5707511111313183e-06	3.2028870892584824e-07	0.0027419458638796267	-9.202306787327281e-05	1.2442438240996115e-05	-3.578097459728999e-05
2
202200
Ar	1.5165822232132704e-06	-1.8515316558251915e-06	0.00322472167071254	-0.00015515497786939967	7.215338940260894e-05	-2.1576481217347408e-05
Xe	-2.5995914136585814e-06	2.586185185220367e-07	0.00274196417314518	6.03327609780332e-05	-3.499413176693782e-05	2.577199188454746e-05
2
202400
Ar	-1.357273463594631e-08	-6.779637303605925e-07	0.003224202534536727	-0.00012399169037662723	0.00012850989181187872	-6.98822113605932e-05
Xe	-1.794437118377434e-06	1.2134478310974708e-07	0.002742459718047891	0.00012961163610475057	1.9293163486761045e-05	5.0471206419757235e-05
2
202600
Ar	-9.572255477639692e-07	7.67990748520699e-07	0.003223977876513764	-5.656402020371692e-05	0.00015217952279914112	3.0081119779831553e-05
Xe	-3.8256552264053926e-07	2.2505546013367691e-07	0.0027428941217032747	0.00014648788024500272	-5.320914808930145e-07	2.192245836151736e-05
2
202800
Ar	-1.5381916520522708e-06	2.0375712954822632e-06	0.0032245657107083355	-4.844231585596259e-05	9.218718672266328e-05	9.15144869297177e-05
Xe	1.1509835983252965e-06	3.0243309053332093e-07	0.0027430076030006273	0.00014127838462497244	1.8441431549510426e-05	6.43164751229085e-06
2
203000
Ar	-1.9195798878366883e-06	2.5096325085260717e-06	0.0032254608170291296	1.4952272791878646e-06	2.50088346510788e-06	6.048485062746169e-05
Xe	2.2158781722240066e-06	-3.1119682501218255e-08	0.0027431634348657813	6.629742018665528e-05	-3.741190496113378e-05	3.884843965286453e-06
2
203200
Ar	-1.601026945470816e-06	2.020078808382795e-06	0.003225833023814621	5.764352426623671e-05	-8.19025589445213e-05	2.7010264407967167e-05
Xe	2.142804093836616e-06	-4.456947009429925e-07	0.002743043006928452	-6.43383785594075e-05	-4.0146463559992826e-05	-1.520884588764275e-05
2
203400
Ar	-9.543382607245765e-07	8.197842624550192e-07	0.003225794423712792	8.252905523561472e-05	-0.00015145926677382365	-1.9326971988851064e-05
Xe	1.0411619550813402e-06	-6.171355989576282e-07	0.0027428980928818963	-0.00013213554333869922	5.900991662918749e-06	-1.9216560794579977e-05
2
203600
Ar	7.72315622859941e-08	-6.994450799320956e-07	0.0032254302945540266	0.00012095671578181999	-0.00013284557571648916	-5.656429479095439e-05
Xe	-4.297445951759701e-07	-2.9235496680226684e-07	0.0027425645032634685	-0.00015517232828796403	5.7956595236117854e-05	-1.677622040528314e-05
2
203800
Ar	1.3949713219094267e-06	-1.794738205005512e-06	0.003224413147848419	0.0001221530519587236	-8.247167042082327e-05	-0.00011274185172440896
Xe	-1.8844253969428837e-06	2.284799924544663e-07	0.002742684348696166	-0.00012274230366990884	4.067585422419572e-05	3.6139903180056834e-05
2
204000
Ar	2.4275695355357343e-06	-2.307325831378195e-06	0.003223783830230337	7.658774822243314e-05	-5.937790954129538e-07	-1.735585121800119e-05
Xe	-2.618510024007355e-06	4.290666163074861e-07	0.002742952718459909	-8.110732221037367e-06	5.060549326832934e-06	3.0661384547275686e-05
2
204200
Ar	2.5480680598766364e-06	-1.950704732854888e-06	0.003223988853588295	-4.593914969984355e-05	9.812110346497421e-05	4.2838741531562654e-05
Xe	-2.229635267776426e-06	3.772416552354469e-07	0.0027430493713497565	8.870398994247754e-05	-5.753510763343741e-06	-1.0725086043538688e-05
2
204400
Ar	1.5029194570763064e-06	-7.271618646558381e-07	0.0032244783231994917	-0.0001736961380138618	0.0001416018369748728	5.417762644315842e-05
Xe	-1.1945521474838973e-06	1.2372686228333642e-07	0.002742911123916731	0.00011998652049231667	-1.734708010795677e-05	-1.7508603743431086e-05
2
204600
Ar	-2.872612487205916e-07	9.735942877721974e-07	0.0032249131062787456	-0.00015236799307186025	0.0001673064461933713	2.9216784396961788e-05
Xe	1.3736672431210475e-08	-2.1650985132912065e-07	0.0027428318669286663	0.00011342021722967526	-3.3197965809733384e-05	-8.958536488343262e-06
2
204800
Ar	-1.5341367162330084e-06	2.4202712277044738e-06	0.0032251725019058516	-0.00010245407300569079	0.00010303822185083719	2.5122411884778153e-06
Xe	1.1387512590791736e-06	-4.117453938718863e-07	0.0027427543586266167	8.361861330315946e-05	1.2912028452066965e-05	-1.202253871209381e-05
2
205000
Ar	-2.0742971915600847e-06	2.9428866237114506e-06	0.003224954418761567	1.8872772665841652e-06	-1.573431060859728e-05	-4.338376609882922e-05
Xe	1.6999206049271362e-06	-3.778691508255635e-07	0.00274287919211465	1.1268830126288664e-06	1.154210541558163e-05	3.848799427888156e-05
2
205200
Ar	-1.6788021449535544e-06	2.0321073056027517e-06	0.0032247155837232273	7.234398489962302e-05	-0.00013582057097214005	-7.505587615861013e-06
Xe	1.3231097191051554e-06	-1.9818458143455508e-08	0.0027430184016986607	-6.791835399830834e-05	4.517955731812749e-05	1.1240990053714488e-06
2
205400
Ar	-5.954476484300813e-07	2.435417349987321e-07	0.0032246902185170453	0.00012309079191670681	-0.00021355787208451066	1.5363063111160465e-05
Xe	3.009734140526491e-07	2.6472074601643944e-07	0.002743076607471451	-0.00010912752166285904	2.773332488541826e-06	-5.084338704249453e-06
2
205600
Ar	5.407171379161458e-07	-1.8280354907889683e-06	0.0032248088115951136	7.702940073607237e-05	-0.00017692229783835618	2.73193741550246e-05
Xe	-7.764810506187254e-07	2.005197418095806e-07	0.002742797006389189	-8.86193336478072e-05	-2.4552127661254717e-05	-5.017295388510995e-05
2
205800
Ar	1.298252607350193e-06	-3.370071857934982e-06	0.0032250770329476015	6.276308503137438e-05	-0.0001099351623613273	1.9589360871454306e-05
Xe	-1.3377586476974994e-06	1.7692964829170042e-07	0.002742353807635101	-3.6667351542550834e-05	-1.768958504533384e-06	-2.9213586365445676e-05
2
206000
Ar	1.7705161538226224e-06	-3.369171619454378e-06	0.003225002248416913	1.180624280672878e-06	0.00011168565331530568	-2.8367164960643823e-05
Xe	-1.434592481478303e-06	3.899237509450722e-07	0.0027421638729712714	1.6241702655775933e-05	2.6865694648380644e-05	5.481992633703949e-06
2
206200
Ar	1.2396707824324002e-06	-1.4537766540547289e-06	0.003224660522499313	-7.401975290963195e-05	0.0002287419312813953	-3.668229324583795e-05
Xe	-9.862083620521203e-07	5.373970176321176e-07	0.002742319171790098	9.765222350840382e-05	1.7046761640015663e-05	4.70781222555583e-05
2
206400
Ar	3.8722938596035876e-07	9.022438965044884e-07	0.003224300536968384	-0.00010189273302645439	0.00022699614044529995	-2.176806550337135e-05
Xe	1.6105685709182406e-07	6.111466524336814e-07	0.002742934840510697	0.00012908413185955698	-1.0257530275988684e-05	5.767385959197909e-05
2
206600
Ar	-6.549608124172094e-07	2.7042857042891414e-06	0.0032243572740921593	-0.00011161660685079804	0.00011529110117944417	4.33437608989366e-05
Xe	1.106540974092346e-06	3.5855153454237695e-07	0.0027433283534004996	7.216369012715198e-05	-5.160869366108314e-05	1.4459900623868018e-05
2
206800
Ar	-1.5431545543023266e-06	3.349875514262864e-06	0.0032248753391854457	-4.80447753074759e-05	-2.627483277113174e-05	5.752976719008176e-05
Xe	1.5360541475239058e-06	-3.921156814325933e-07	0.002743343241194683	-1.2138173725586925e-05	-8.183104775424818e-05	-1.4620079423085458e-05
2
207000
Ar	-1.5281472502327502e-06	2.430883114252104e-06	0.0032253305678262676	4.972668116672424e-05	-0.0001454078480183073	3.1681384101696294e-05
Xe	1.025590148903437e-06	-7.899190260743515e-07	0.0027431399138581457	-6.77296777535363e-05	6.591175894292761e-06	-1.1874770532463962e-05
2
207200
Ar	-8.341507024117157e-07	3.4242008255080276e-07	0.0032253832251998684	7.375515426298276e-05	-0.00023695214214526354	-4.0477441252991955e-05
Xe	2.0022312331648187e-07	-4.952490018547194e-07	0.002742965204380034	-7.560901507983377e-05	4.6580708911329966e-05	-2.3902566469356847e-05
2
207400
Ar	-1.7913503700356418e-07	-1.7752559431232426e-06	0.003224791546356067	5.827404587185589e-05	-0.0001675486580004519	-8.087146179948513e-05
Xe	-4.998549064280882e-07	7.252200733072987e-08	0.002742765392639021	-7.086196621799472e-05	6.59494695371975e-05	-2.358054192817654e-06
2
207600
Ar	4.988137318688809e-07	-2.94665138765091e-06	0.00322409073655705	8.498156660387789e-05	-5.965135887806145e-05	-3.291451287135935e-05
Xe	-9.067562081881902e-07	7.139422263654658e-07	0.002742695257403043	-2.1326063182836806e-05	4.06856516822111e-05	-2.9413737644562854e-05
2
207800
Ar	9.378488035193474e-07	-2.756977682039897e-06	0.003224109465029486	2.513091260606915e-06	6.3358901320351e-05	2.5317593624176838e-05
Xe	-9.84827122797075e-07	9.370101550648152e-07	0.0027424330402656123	-3.287534517213155e-06	-2.2046302595090873e-06	-2.7467380680867142e-05
2
208000
Ar	8.991807549709111e-07	-1.79826829117453e-06	0.00322458776840953	-1.5112634016212657e-05	0.00012942902168537937	7.584799350575213e-05
Xe	-5.719366802225072e-07	7.584296271256594e-07	0.002742446860970451	6.254458955780834e-05	-4.358071916734245e-05	2.3140943191668443e-05
2
208200
Ar	4.0111379703512887e-07	-3.0116451000199474e-07	0.0032252595055486245	-5.3297750246771665e-05	0.000165225207939307	5.763423780697233e-05
Xe	2.2658682071179246e-07	2.386173171706924e-07	0.002742763479076942	7.662709954872187e-05	-7.503858477327998e-05	4.2396742865753034e-05
2
208400
Ar	-6.873458334679972e-08	1.413333315361922e-06	0.003225782960143749	-5.267438429014384e-05	0.00015865652876137962	1.2547893189529078e-05
Xe	1.1646795601421724e-06	-3.453205980568649e-07	0.0027431060916510417	0.0001103645777543128	-3.310858126354483e-05	6.932189508324674e-06
2
208600
Ar	-6.902679045008211e-07	2.825358022596112e-06	0.003225470610281126	-7.062536011992125e-05	9.754342579939951e-05	-5.8457843493184146e-05
Xe	1.9473774968462756e-06	-9.233259431727722e-07	0.0027430084642661606	3.353974721921087e-05	-5.336721313042245e-05	-4.852195657873384e-06
2
208800
Ar	-1.1335137733486922e-06	3.3105027239059332e-06	0.003224742411619907	-2.9605480680267833e-06	-6.164296081600515e-07	-5.332665846319558e-05
Xe	1.8750096795010802e-06	-1.2278425715584517e-06	0.0027430066796767026	-3.3200523288207403e-05	-8.44717416265734e-06	1.1084020832605921e-06
2
209000
Ar	-1.095053576709443e-06	2.7285082082009212e-06	0.003224241875948228	1.3188938216921049e-05	-0.00012130564601484132	-4.514937719165728e-05
Xe	9.803438904591907e-07	-1.286252568364789e-06	0.0027429745845774503	-0.00011147646449834218	1.757486051177516e-05	9.846715153331894e-06
2
209200
Ar	-6.974938910652177e-07	1.1322418894214272e-06	0.0032240892851874074	5.9976912305160876e-05	-0.00016335704035762497	3.621978301766841e-05
Xe	-1.423974195111965e-07	-9.43314994700855e-07	0.002742985385691175	-0.00011675589100709803	5.123251570728093e-05	-1.275692644477736e-05
2
209400
Ar	3.262038235689272e-07	-5.130154816321756e-07	0.0032247590238551746	0.00014859814314010578	-0.0001747346132301389	8.034708451931365e-05
Xe	-1.136265108335684e-06	-2.2419995197890596e-07	0.0027426329233153092	-7.696023571069587e-05	8.475103077397881e-05	-4.130279933140907e-05
2
209600
Ar	1.5292303936479268e-06	-1.883424853762253e-06	0.0032252911226648712	0.00010710351669575149	-5.9607813500893195e-05	4.4095981097184895e-05
Xe	-1.3750330942227738e-06	9.233708399149088e-07	0.0027423352098558127	1.539727444141878e-05	0.00012342548723464584	-7.133808992367277e-06
2
209800
Ar	2.1559110014429978e-06	-2.2150444958648068e-06	0.0032254952577054348	1.5057071141621899e-05	1.52147876011323e-05	-1.8228843580589144e-05
Xe	-9.33680262972956e-07	1.8456779684466916e-06	0.0027427454950610633	3.6574368950687804e-05	4.270430243482245e-05	5.6586788817356984e-05
2
210000
Ar	1.896301120836761e-06	-1.6548500498195035e-06	0.0032252790824086057	-6.743570875508592e-05	8.114011520157668e-05	-3.297854863538547e-05
Xe	-5.027027951205429e-07	1.7877463491352156e-06	0.002743313191269294	5.582760252312614e-05	-5.589813350868011e-05	5.515331386311114e-05
2
210200
Ar	9.348181802654764e-07	-5.641537812612128e-07	0.0032249136140078856	-0.00012023938435430178	0.0001169070241978692	-6.40523951547945e-05
Xe	3.3915890475645476e-07	7.828513168716846e-07	0.0027436128808465713	9.015847413094338e-05	-0.00012191175000700247	7.92091235848952e-06
2
210400
Ar	-4.4655847173739084e-07	8.380299249280216e-07	0.003224516817508798	-0.00013780170482380455	0.00014326975631346976	-3.0438440021701217e-05
Xe	8.377432207632414e-07	-4.76504122355823e-07	0.0027436244995053573	9.140128603071132e-06	-0.0001448040318734592	-3.415385856033252e-05
2
210600
Ar	-1.6037458649234014e-06	1.9424912460183127e-06	0.003224432212475097	-7.97715682843358e-05	8.257601134186846e-05	1.3071154164416746e-05
Xe	9.711399621431336e-07	-1.4924084784094616e-06	0.0027429926511750194	-2.2067143459459092e-05	-7.183281152883602e-05	-0.00010644547696655042
2
210800
Ar	-1.8507874874408988e-06	2.3542565899313958e-06	0.0032247136424257807	2.252624141645824e-05	8.841435655905504e-06	2.9855436502063012e-05
Xe	6.162305632917335e-07	-2.0187635095045315e-06	0.0027418996258653464	-4.81537441965719e-05	-1.976872547223277e-05	-9.154606414857631e-05
2
211000
Ar	-1.3155106945547888e-06	1.9111204602159535e-06	0.003224702285543109	5.257469039926041e-05	-7.542243736056421e-05	-1.9432681346326608e-05
Xe	1.514340697575733e-07	-1.6747336935836461e-06	0.0027414875984334733	-5.185658925023154e-05	6.879512335683754e-05	2.0291290508373155e-05
2
211200
Ar	-5.712982612305677e-07	9.20371141904432e-07	0.0032243194797112905	8.660207042255197e-05	-0.00013039158385864537	-4.3148264035275774e-05
Xe	-2.6394731540738556e-07	-7.568852221444354e-07	0.0027419858764236534	-3.288904695506795e-05	0.00012139433999366522	6.76198744354902e-05
2
211400
Ar	5.125453413261868e-07	-4.6194817004848116e-07	0.0032241562899990167	0.00011659271430196291	-0.0001326125775638948	-1.0309010587146473e-05
Xe	-2.961826893694805e-07	6.181517115734089e-07	0.002743007124171291	1.7902119432913906e-05	0.00014034874421111688	0.00011467685429965605
2
211600
Ar	1.4465433716439586e-06	-1.465377164834919e-06	0.003224589956106453	7.647462736817255e-05	-7.07059176117792e-05	8.830496507753526e-05
Xe	-9.624261814493269e-08	1.7149171441216435e-06	0.0027436704895828735	1.0174021328685106e-05	9.223672171604579e-05	4.357336734087959e-05
2
211800
Ar	1.8419601403982249e-06	-1.915708363115687e-06	0.003225631137659028	1.4040821158104204e-05	-2.0490042228661515e-05	0.0001058107633896196
Xe	7.392597155275222e-08	1.7944449003666896e-06	0.0027437890106882163	3.824198345046128e-05	-5.406386099121887e-05	-1.1981129548417493e-05
2
212000
Ar	1.6240961461581813e-06	-1.513597420030737e-06	0.003226314701669819	-4.962063172103107e-05	9.19189491034171e-05	2.6992419709331012e-05
Xe	3.676161611411701e-07	1.2385620210661445e-06	0.002743535504715471	2.3302481663220473e-05	-7.458051002407379e-05	-2.368660939273216e-05
2
212200
Ar	8.368224949213978e-07	-1.8097929297143318e-07	0.0032259374231343617	-0.00012593172186646997	0.00015051063262155743	-0.00010689785598831832
Xe	6.220449926341522e-07	5.625299164603515e-07	0.0027431429019044522	-6.684499911850659e-06	-5.759403576297644e-05	-4.685931348917408e-05
2
212400
Ar	-7.426251043814267e-07	1.1995683485507684e-06	0.003224592116246386	-0.00013785452760741495	0.00014029976081797728	-0.00013613233459093668
Xe	6.426089167896629e-07	-8.861417238729194e-08	0.0027426841076721056	8.664618596001668e-07	-7.640846811203576e-05	-4.7154989840278966e-05
2
212600
Ar	-1.8619568175657984e-06	2.27149479138645e-06	0.00322358565985317	-7.463670595878424e-05	7.419323498228157e-05	-7.435795074121975e-05
Xe	5.24393633776759e-07	-7.717363190222435e-07	0.002742282441125466	-2.6269495422774797e-05	-5.8231747282493066e-05	-2.354159023263617e-05
2
212800
Ar	-2.3572792195016345e-06	2.533678871800132e-06	0.0032233545608941995	9.693719883780422e-06	-1.8157199509787965e-05	2.3554235645126003e-05
Xe	1.90622537133815e-07	-1.1265203638406059e-06	0.0027423238335611442	-1.957643503429439e-05	-1.4603070763336386e-05	2.4560152252852367e-05
2
213000
Ar	-1.721476195262482e-06	2.142617549783915e-06	0.003224288863452772	0.00011124698873808358	-7.329355730576309e-05	0.0001386266459880415
Xe	-1.1866195025231757e-07	-1.1561555623765724e-06	0.002742713647639686	-3.700788103739051e-05	5.823278235696482e-05	1.5933610937695173e-05
2
213200
Ar	-2.293268649967107e-07	9.921983777113551e-07	0.0032255202895120063	0.0001788719453258171	-0.00014202683524359717	8.665871132512208e-05
Xe	-6.254555914665461e-07	-2.4199202018613034e-07	0.0027428891559582984	-5.9210939173154045e-05	9.689047347792664e-05	1.3699346035935625e-05
2
213400
Ar	1.5053428291447262e-06	-4.276192124714713e-07	0.003225949249860979	0.00017190477269419908	-0.00015523306166344145	-9.645558986908671e-08
Xe	-8.180507802354954e-07	6.674223977000298e-07	0.002743304597820466	1.2809244540621651e-05	7.037925613677845e-05	4.93354757525558e-05
2
213600
Ar	2.6647563375950904e-06	-1.9438431461745044e-06	0.00322557465523148	3.641077389724822e-05	-0.00013019887351008524	-8.360982544934078e-05
Xe	-2.7360363667161716e-07	1.2319036391209927e-06	0.002743765577478948	7.319193902430312e-05	2.8413299064287207e-05	1.7494529969789952e-05
2
213800
Ar	2.2767517079339413e-06	-2.7081446700531513e-06	0.003224640670410593	-8.174052645156574e-05	-1.0592640287470697e-05	-0.00011529819784766061
Xe	6.226158643471301e-07	1.3596200395481085e-06	0.002743828396240432	8.260852308470816e-05	-2.4066874607052996e-05	-1.1368803918464749e-05
2
214000
Ar	1.0972563791012318e-06	-2.325912503253596e-06	0.0032240111394887263	-0.00014817238049377526	6.819145819900398e-05	-4.603663220877444e-06
Xe	1.2357268350604006e-06	9.840925052128844e-07	0.0027436653988320322	2.8025148885542296e-05	-8.378271817822826e-05	-4.99379533960116e-05
2
214200
Ar	-4.870410733357163e-07	-1.3691067878051532e-06	0.00322446413595015	-0.00015889816478743083	0.00012558619494496754	6.597942240442096e-05
Xe	1.0111772898296822e-06	7.564096290962761e-08	0.0027429007971472995	-5.8583251944523164e-05	-0.00010191609308421637	-9.428829768305867e-05
2
214400
Ar	-1.6530552474368484e-06	1.799369305496219e-07	0.003225143674836579	-6.115009156635161e-05	0.000177496816088118	5.975993185570294e-05
Xe	2.6313637881651425e-07	-6.882882134108191e-07	0.002742079945231692	-8.682389979349905e-05	-6.275931436221404e-05	-7.825636755821598e-05
2
214600
Ar	-1.8613485951742705e-06	1.951820148155089e-06	0.003225399921758213	3.254645656251669e-05	0.00016008274023830406	-1.4898122254405167e-05
Xe	-5.484274225947895e-07	-1.1855765749077284e-06	0.0027417171692287693	-5.403985613595776e-05	-3.285762611346786e-05	-1.3581279884140786e-05
2
214800
Ar	-8.706033585615389e-07	2.9088803698384127e-06	0.003225046032028557	0.00015608487716574379	2.076151301467006e-05	-6.202565786063808e-05
Xe	-9.398297917420926e-07	-1.3299903270268286e-06	0.0027419358928520176	-2.0358325402955206e-05	1.749714047685582e-05	5.0676392346907825e-05
2
215000
Ar	8.874738572878187e-07	2.4233181138238273e-06	0.0032243753989885425	0.00016210845586792495	-0.00011525074288864343	-4.72422539193765e-05
Xe	-1.1167595643988158e-06	-8.763084252354903e-07	0.0027426437416062273	3.613365785764352e-06	5.5216711358222044e-05	8.056978119122473e-05
2
215200
Ar	2.2960619056795272e-06	1.1764449320256757e-06	0.0032242925192030518	0.00011277314878865845	-0.00014830251669650907	3.5881426902608984e-05
Xe	-7.253834663598685e-07	-1.9144414265479878e-07	0.0027431693972741968	8.164703207749704e-05	7.710434241437357e-05	3.899517896860944e-05
2
215400
Ar	2.803435078817117e-06	-4.0717056506580906e-07	0.0032245461862313654	-2.738205550220731e-05	-0.0001794633179364193	3.509254996716325e-05
Xe	3.7503434366063494e-08	4.1916064122467136e-07	0.002743273252705446	7.307933277250581e-05	5.569552643366087e-05	-3.2799076246415935e-05
2
215600
Ar	1.960917408788619e-06	-1.8192783195898101e-06	0.003224927130312525	-0.00014367114253630535	-0.0001068199566555876	5.276188781782104e-05
Xe	8.296027595784648e-07	9.594904532886475e-07	0.0027427563920593605	5.6936182741148106e-05	3.4137736373658504e-05	-4.812463357743163e-05
2
215800
Ar	5.723032361997784e-08	-2.5507303716655012e-06	0.0032254075053811085	-0.00022105848259277422	-3.553527697348357e-05	2.9204006899372736e-05
Xe	1.1064857313697165e-06	1.1711580664354616e-06	0.002742298652270892	-2.8330493990938466e-07	-7.242407251355187e-06	-4.741718147741397e-05
2
216000
Ar	-1.785058408455343e-06	-2.425584691723138e-06	0.0032254917511530794	-0.00015295653746287327	7.438173373930878e-05	-7.381215264450755e-06
Xe	8.189256024638009e-07	9.677954886133124e-07	0.0027419942439660017	-5.856370631327063e-05	-1.2061283394535647e-05	1.3874039535871301e-05
2
216200
Ar	-2.576945948397872e-06	-1.2375407188096668e-06	0.0032252034339508512	-1.0748717604555332e-05	0.0001403977671727696	-5.519001783164975e-05
Xe	2.7314341829425166e-07	7.961701705279844e-07	0.0027422953156112707	-5.445882174086952e-05	-1.0054963256845038e-05	5.386071479975442e-05
2
216400
Ar	-2.083880145987327e-06	9.483764763997293e-08	0.0032245784150124928	9.589567001504239e-05	0.00012048146384724425	-6.70931878266932e-05
Xe	-2.9425657531427067e-07	5.912936120890651e-07	0.0027427080763769325	-4.681829699980861e-05	-3.378124182406998e-05	1.958155264912463e-05
2
216600
Ar	-8.704963323749019e-07	1.0792763183452263e-06	0.003224019415706123	0.0001450141230314267	0.00010013061421476998	-2.4734334267059257e-05
Xe	-7.382886834141316e-07	2.320910867718337e-07	0.002742718328209405	-2.805094771014871e-05	-3.1665286113445425e-05	-8.597232582910985e-06
2
216800
Ar	5.211669625794656e-07	1.915722090039114e-06	0.0032241975768503165	0.00013190807144897185	3.874348694350938e-05	9.080838384470078e-05
Xe	-6.487106039907577e-07	-9.986572891327002e-08	0.0027426365392955237	3.215705010737818e-05	-2.583511083645372e-05	-2.0965730396626742e-05
2
217000
Ar	1.5386654919585828e-06	1.784665296593818e-06	0.0032253511235881263	6.343234388607356e-05	-7.137972463297264e-05	9.263872029869541e-05
Xe	-9.592304137017625e-08	-2.213959778566165e-07	0.00274255407217997	7.241437162220954e-05	1.1824439293470626e-05	2.4095363378180985e-05
2
217200
Ar	1.6823143300879892e-06	7.780722028541461e-07	0.0032256849555176667	-5.426432401446753e-05	-0.0001276897570820776	-1.792029796916152e-05
Xe	6.811806354227383e-07	-1.2152651387819093e-07	0.002743127736336883	9.06299810295505e-05	1.0438793448351263e-05	7.713615313094091e-05
2
217400
Ar	6.973253506056162e-07	-3.8745902796221706e-07	0.0032254333303359155	-0.00012910475535562636	-0.00010111442455022444	-5.930704014200741e-05
Xe	1.1957723605284333e-06	-6.968688031497538e-08	0.002743815832938695	1.6859106852310622e-05	1.077937498576091e-05	6.420981473462933e-05
2
217600
Ar	-6.225632608144708e-07	-1.3734158509185218e-06	0.003224975603322501	-0.0001254980109047386	-8.000506814656664e-05	-2.3886777167790867e-05
Xe	9.565659158040428e-07	1.1766711649587344e-07	0.0027439529166092434	-4.032640924300986e-05	1.3309465915020773e-05	-5.095811866573876e-05
2
217800
Ar	-1.6583402546905148e-06	-1.739951063714785e-06	0.003224917859396143	-5.192808442819465e-05	3.210446036844079e-05	8.883414646544027e-06
Xe	5.945751806534012e-07	3.2542134994721374e-07	0.002743185126513482	-3.5578906786415565e-05	1.7027647927366024e-05	-9.42086353955305e-05
2
218000
Ar	-1.8091379567934924e-06	-9.723873140662682e-07	0.003224807195317517	5.806639284950426e-05	0.00010623967682142278	-1.4045621367115149e-05
Xe	9.980738248865845e-08	6.438540756300149e-07	0.0027421051975758	-6.202012016306683e-05	2.7117573242537848e-05	-0.00010634668445684014
2
218200
Ar	-9.010822496435033e-07	5.541689375747914e-07	0.003224371330659722	0.00012983203634733107	0.00013776283060348032	-6.302009590779023e-05
Xe	-3.9151808830476304e-07	8.236506855841994e-07	0.0027414314200470075	-3.855681945349569e-05	1.3598800116974504e-05	-8.317381167290358e-06
2
218400
Ar	3.273840876026526e-07	1.647220820508775e-06	0.003223842791879883	0.00011597877759192754	6.0650193103748456e-05	-1.8822032243700562e-05
Xe	-4.468895243133591e-07	8.234174336386904e-07	0.0027418412663135568	-3.026130301045917e-06	-2.9828478733441066e-05	9.402500331236482e-05
2
218600
Ar	1.1738099011309849e-06	1.902094548840681e-06	0.003223984670893409	5.395815928376118e-05	-1.4413944585231883e-05	4.241623923685972e-05
Xe	-4.667416861652522e-07	2.220482257001911e-07	0.002742666501238874	-1.772991128522291e-05	-8.854733125300882e-05	4.908141050082045e-05
2
218800
Ar	1.4491311349523307e-06	1.1938493960066555e-06	0.0032246951402459694	-8.956481932069268e-06	-0.0001053056174490117	0.00010963878651235145
Xe	-5.30466251033138e-07	-7.724628699766252e-07	0.0027430508676147517	1.544538334370427e-05	-8.847306832331099e-05	2.0612569408425174e-05
2
219000
Ar	1.0088257730196355e-06	1.385865494916435e-08	0.0032256842763865256	-6.703097640672644e-05	-9.180570718696236e-05	7.374328205743786e-05
Xe	-1.6784099970757805e-07	-1.3443480336093606e-06	0.0027430717233450043	4.8582696405555784e-05	-3.439541273563132e-05	-3.336584674226018e-06
2
219200
Ar	-5.939081032924105e-09	-9.993787870048454e-07	0.0032260206079852433	-0.00013603148606677575	-7.912712778224571e-05	-1.7303510116461882e-05
Xe	3.4176392361392233e-07	-1.6376220503782933e-06	0.0027432942436908365	6.1104886341489e-05	5.799746341709917e-06	6.566678367729598e-05
2
219400
Ar	-1.3134610480823381e-06	-1.270994741445247e-06	0.0032255085646371597	-0.00010480932016903399	3.401065235320405e-05	-8.618248167553744e-05
Xe	9.408923318229391e-07	-1.131617446279094e-06	0.002743561658972962	4.442847912423546e-05	8.538164443389484e-05	-7.620658731201944e-06
2
219600
Ar	-1.6677265090446347e-06	-7.223722643393465e-07	0.003224497805284433	2.972132047192288e-05	8.536457367385568e-05	-9.494025677656168e-05
Xe	1.0245800687059418e-06	-2.7365876181933633e-07	0.0027431870280725467	-1.4162518814516563e-05	9.274721809324743e-05	-8.700323644283141e-05
2
219800
Ar	-8.680443222562016e-07	3.7541382969281177e-07	0.0032240171782977776	0.00011045571466495005	0.0001361889938509285	-1.5046217118338002e-05
Xe	6.252302153189477e-07	3.614871320148078e-07	0.0027422312861223523	-4.1179079255696915e-05	6.950555211741324e-05	-9.451581746213248e-05
2
220000
Ar	3.210487909077633e-07	1.4187415884067579e-06	0.0032242123140557633	7.828108782812692e-05	5.5887238334638025e-05	4.483737907980076e-05
Xe	2.43574249239445e-08	9.336140254196573e-07	0.0027417859177064348	-6.011492621497253e-05	6.0887541462818716e-05	9.010322579443416e-06
2
220200
Ar	1.1491345539028226e-06	1.5212891693130601e-06	0.003224696846469937	7.56961386531993e-05	-3.809507536636536e-05	4.80300506634298e-05
Xe	-4.997860410440145e-07	1.1397782573206853e-06	0.0027421779404330714	-4.8355217133778196e-05	1.201401239378267e-05	8.018976672904815e-05
2
220400
Ar	1.4827190510862995e-06	8.36790035367699e-07	0.0032250736995417637	-8.27188870092935e-06	-9.546321521031867e-05	2.170082173858299e-05
Xe	-8.048807007180558e-07	9.654173117782066e-07	0.0027429156320793588	-2.5848815995915935e-05	-3.897476911624441e-05	7.613274915706967e-05
2
220600
Ar	1.1422761515494102e-06	-2.174510739470088e-07	0.0032251928744303293	-7.375230175838871e-05	-0.00011898801283507372	5.920573217092587e-06
Xe	-7.792718211023905e-07	5.186572997783998e-07	0.002743554026647766	2.2639532676876286e-05	-7.821680029884671e-05	5.468483573406502e-05
2
220800
Ar	1.7110770384265888e-07	-1.3457987230062808e-06	0.003225092148119478	-5.7341468174661316e-05	-8.235472222937424e-05	6.369682987237166e-06
Xe	-4.1425967489305425e-07	-3.905243711174482e-07	0.002743761873860681	1.7957613116876318e-05	-9.659723816586184e-05	-4.067523643262214e-05
2
221000
Ar	-5.679434166945928e-07	-1.6534732001465544e-06	0.003224995678970472	-5.433214429211395e-05	2.800213690468251e-05	-1.322869185166951e-05
Xe	-2.223881409176314e-07	-1.0475007487559251e-06	0.0027429715019933725	1.287105594246863e-05	-4.183842054995012e-05	-9.500962982965158e-05
2
221200
Ar	-8.877485676169997e-07	-9.35446085581065e-07	0.003224836806643096	-2.959585312677913e-05	0.00011801249281277051	-1.6636786336497657e-05
Xe	7.092196123220479e-08	-1.0808099734284426e-06	0.002742323569370584	1.7846061431471538e-05	2.51992894088944e-05	-4.562922013569757e-05
2
221400
Ar	-8.028243846500334e-07	4.155111854043879e-07	0.0032247339321993824	2.186580577535853e-05	0.00013657938589579308	1.1894172785087331e-05
Xe	3.626065103661902e-07	-7.104909023785264e-07	0.002742035279135081	1.0045503101326061e-05	5.354496114941153e-05	-7.828396352766443e-06
2
221600
Ar	-4.32828675573401e-07	1.8468568748185397e-06	0.003224959190997398	6.128851718693386e-05	0.00012321034831962784	2.28636022417192e-05
Xe	2.1349048208282848e-07	-1.2867135825620915e-07	0.0027423209332697062	-1.963288848004677e-05	9.304114285496068e-05	5.445776705190914e-05
2
221800
Ar	2.7058663599900454e-07	2.24537933610404e-06	0.0032249784502611806	8.249987751615117e-05	-4.0873791913867225e-05	-3.7648258880189424e-05
Xe	-1.8595021547248248e-07	1.0670642634387683e-06	0.0027429526904520015	-2.901461366194963e-05	0.00013284330465751287	7.601785168003235e-05
2
222000
Ar	9.242974698538143e-07	1.2490524433804457e-06	0.003224751644254027	4.0387971503989334e-05	-0.00015136901201619513	-2.5820389163397407e-05
Xe	-2.959463743183805e-07	2.0069603917827944e-06	0.0027433797941145317	-8.542585568853611e-06	4.9556895590137707e-05	6.541545512017294e-06
2
222200
Ar	1.0935975662434234e-06	-6.055062511693935e-07	0.0032245455990451413	1.690697560520558e-05	-0.0001947179595441747	-1.0841886063635783e-05
Xe	-2.462502170006782e-07	1.971329369742791e-06	0.0027431147911323346	1.8302300413292663e-05	-5.287620715821772e-05	-5.5171046397624645e-05
2
222400
Ar	1.1018964888104781e-06	-2.2432629482845684e-06	0.003224600464619782	-2.773760680946028e-06	-0.0001519315932464425	1.1204255954669534e-05
Xe	-1.6486815993962685e-08	1.1889417979859316e-06	0.002742361735238984	2.208886402802543e-05	-0.00010206961446925835	-9.219504671048561e-05
2
222600
Ar	8.844556653040527e-07	-3.1252461983846506e-06	0.0032247018371348076	-3.481802358535457e-05	-1.0505354071700831e-05	-7.589698418972694e-07
Xe	2.0425280745622847e-07	1.0750068507914967e-07	0.002741829351277254	3.560204876582089e-05	-9.726554168763679e-05	4.701233945466421e-06
2
222800
Ar	6.246128197513949e-07	-2.646631337521932e-06	0.003224583515257814	-4.072985347024353e-05	0.000102865279910419	-3.5118689258092324e-05
Xe	5.480183681589567e-07	-1.0933226239599263e-06	0.0027422732202316896	1.4963063607029056e-05	-0.000123480271275275	7.583780158559955e-05
2
223000
Ar	6.633455684818978e-08	-8.056444189011362e-07	0.0032244316916641277	-6.05675633213536e-05	0.00023129100357530117	6.604774567537562e-06
Xe	4.361581379197378e-07	-1.9865742991863437e-06	0.002743283586056762	-1.085185553614671e-05	-3.616017974855923e-05	9.738950414514936e-05
2
223200
Ar	-5.910601942065114e-07	1.3625600137959122e-06	0.003224607425147302	-7.382006192844827e-05	0.0001972376953457714	2.899286647273503e-05
Xe	1.848689898512866e-07	-1.8433252525218664e-06	0.002743952426113563	-3.492461072818576e-05	5.5743081312812465e-05	2.7173060486863808e-05
2
223400
Ar	-8.966456404019542e-07	2.9956741046458233e-06	0.0032250598789078833	-1.2057251538067998e-05	0.00010080887961946304	4.9558359730203554e-05
Xe	6.400895315668683e-08	-9.554297055305906e-07	0.0027436446548887174	-4.112406850597067e-06	0.000126064654587662	-6.058759895341302e-05
2
223600
Ar	-8.586376980271599e-07	3.146588971701163e-06	0.0032255258530719815	1.6444527077018377e-05	-6.615511995768715e-05	3.792597102821499e-05
Xe	3.299058284497345e-08	3.804723228250035e-07	0.0027428449751691845	-3.111653448316755e-05	0.000146121340607812	-8.278925270060353e-05
2
223800
Ar	-4.992461870122362e-07	1.6824270449259714e-06	0.003225504958338297	4.9857810592397e-05	-0.00021071179165289234	-4.7259492781351345e-05
Xe	-8.422303648485297e-08	1.7343701966565085e-06	0.002742107978539117	-6.913146356952143e-06	0.00010135448659362643	-5.201193651001845e-05
2
224000
Ar	2.0250938696660843e-07	-7.877533742811641e-07	0.0032247423407802305	7.273437490842612e-05	-0.00025775098973155914	-0.00012222346909198417
Xe	8.070396710146222e-08	2.26129031954187e-06	0.0027420213169520964	3.232940913187489e-05	-3.928121910510384e-06	1.911134416579798e-05
2
224200
Ar	8.836393717670767e-07	-2.966021316355329e-06	0.00322356744975268	3.9420328262836535e-05	-0.00015353837090707965	-0.00010246434602511682
Xe	5.454285779405449e-07	1.7057449103471523e-06	0.0027424322888552318	5.207357354523107e-05	-0.0001035547361818022	8.113011167740654e-05
2
224400
Ar	9.095627398983236e-07	-3.7301399194702813e-06	0.003223136829336111	-3.2152627078524936e-05	-1.0443043223146606e-06	2.3213520162457645e-05
Xe	6.283591078762357e-07	3.660136603120997e-07	0.002743134478638445	-3.270400454986713e-05	-0.00014674410230600094	5.4673553935487035e-05
2
224600
Ar	2.8402721587209945e-07	-3.050997061535739e-06	0.003224143281646998	-8.672226359633649e-05	0.00015840430707845745	0.0001577494710222883
Xe	2.044004002048409e-07	-1.007701319794712e-06	0.0027433979011929626	-4.249714654319732e-05	-0.00013118670110183727	1.4323595581767796e-05
2
224800
Ar	-6.075580378478485e-07	-9.519658211824055e-07	0.00322580111110637	-7.916608409484721e-05	0.00023148622771060443	0.00016180762583521346
Xe	-2.008178721223509e-07	-2.058541082260679e-06	0.0027432315930790486	-5.2132425296807965e-05	-6.612945975664531e-05	-3.324388431784149e-05
2
225000
Ar	-1.0343006223468457e-06	1.2758910423328003e-06	0.0032266446137423103	-1.1854457640685483e-05	0.00020437195554509928	1.1034638050690472e-06
Xe	-6.611851733440415e-07	-2.2440603247771755e-06	0.0027428499663431577	-3.9840174100823864e-05	2.7821835315825495e-05	-2.0057037213475294e-05
2
225200
Ar	-1.0032097960225403e-06	3.0100395408649526e-06	0.0032260284951833524	1.8485084562949833e-05	0.00014783875187545257	-0.00010450889485228161
Xe	-7.638493716825432e-07	-1.4589155657673506e-06	0.002742914894233241	6.04941800015136e-06	0.0001102525237758902	1.2968478063867791e-05
2
225400
Ar	-6.232760881745054e-07	3.6943593683276973e-06	0.003224517542099145	4.741840786982352e-05	4.631863518393525e-07	-0.0001734849744535962
Xe	-4.079994033726745e-07	-2.910588308159817e-07	0.002743037742636374	5.735193355288998e-05	0.00012270437769697166	1.235312630227584e-05
2
225600
Ar	-5.392078867352522e-08	3.0233309352204806e-06	0.0032229212778156695	6.597758977077324e-05	-0.00012593421272513985	-0.00010325218010769806
Xe	1.3925104001646798e-07	7.167364619370932e-07	0.002742864238452582	4.7103041888500473e-05	9.394036223258746e-05	-3.598954331320471e-05
2
225800
Ar	5.730921857489926e-07	1.0670147398783045e-06	0.003222804006571314	5.214301099378851e-05	-0.0002581371476918012	6.371452343254121e-05
Xe	3.696629727920532e-07	1.4951613968746175e-06	0.0027422861854487163	9.891909188967283e-06	7.359118848237576e-05	-6.504786043746579e-05
2
226000
Ar	1.1407128676150521e-06	-1.7425595306052544e-06	0.0032240091610094	3.5043686597054225e-05	-0.0002694141420810004	0.0001685036385861318
Xe	4.4109056480352983e-07	1.7570936373837e-06	0.002742046274095319	4.87527570465791e-06	2.564573126654682e-07	2.345302290228557e-05
2
226200
Ar	1.3146272005236098e-06	-3.825237589164965e-06	0.0032256781693419394	-1.794581952871423e-05	-0.00013951920112405936	0.00012609720833342666
Xe	4.500485624478258e-07	1.4524204147720644e-06	0.0027425288763170065	-6.511271390439539e-06	-7.202681456546279e-05	5.975692530869039e-05
2
226400
Ar	8.621575857431308e-07	-4.2878709296461785e-06	0.00322614845832206	-7.851273524857244e-05	5.1306331549861086e-05	-2.8564129750712846e-05
Xe	4.79759217311428e-07	4.850772311656458e-07	0.002743298916964323	6.873741292506523e-06	-0.0001136469972478264	8.412713780923984e-05
2
226600
Ar	-7.634381185388912e-08	-2.6901559032114973e-06	0.003225399234386637	-0.00011666694887847744	0.0002525145350552137	-0.00011590184235085086
Xe	3.4549425835643606e-07	-5.20556995675589e-07	0.0027438077014746015	-1.9602340353962373e-05	-0.00010568138565249637	3.1871444209664325e-05
2
226800
Ar	-1.0418430223818993e-06	2.6091789307051736e-07	0.0032242133807910776	-8.926163887424696e-05	0.00031593975086633574	-9.756737360265716e-05
Xe	7.072295952948807e-08	-1.2279616374022674e-06	0.0027438270859836914	-4.507277600171418e-05	-3.6104511284822604e-05	-3.601246986098471e-05
2
227000
Ar	-1.4786323651173544e-06	2.903100560936061e-06	0.0032235982880028775	-1.5315521569783197e-05	0.00019446571518958074	-2.8721605463518584e-05
Xe	-2.6015199217099127e-07	-1.3258384304644957e-06	0.0027430796906465268	7.1047089150709434e-06	3.323255165134587e-05	-0.00011391280257677441
2
227200
Ar	-1.128912001066209e-06	4.065223695109579e-06	0.0032238299467547958	6.188545406514545e-05	2.3954000836387747e-05	7.913585187200053e-05
Xe	-2.1688370016295082e-07	-7.847510938980244e-07	0.0027419647970368492	1.0089120831956961e-05	9.881338211000187e-05	-0.00010227806215525186
2
227400
Ar	-3.27949859354329e-07	3.460612977276552e-06	0.0032244987944664147	8.429580226763449e-05	-0.00014197075079411915	4.9409927107617416e-05
Xe	-3.3340374104469814e-08	1.5777448060167692e-07	0.002741225896743619	2.3867022036521947e-05	6.4544756327765e-05	-3.355846556394997e-05
2
227600
Ar	7.246217659544315e-07	1.341773431498368e-06	0.0032248439967722297	0.0001279078523017937	-0.00027278202524507757	2.3183247573202056e-05
Xe	1.0800993762750928e-07	6.751615074683175e-07	0.002741453232001854	1.5053478394925177e-05	3.0546587696549156e-05	6.612518700779832e-05
2
227800
Ar	1.7785212087415446e-06	-1.380849959007145e-06	0.0032247745267639186	7.392876154023663e-05	-0.00025031489157268646	-4.362561520674784e-05
Xe	1.8437562215234514e-07	9.415129022865822e-07	0.002742348588021619	5.192345335680933e-06	1.3246760751992045e-05	0.00011904957567021105
2
228000
Ar	2.16435271488072e-06	-3.3437116283682727e-06	0.003224351286846215	-2.9919041740896583e-05	-0.0001432067342687821	-1.4317028558329667e-05
Xe	2.4506963164023366e-07	1.088064598808984e-06	0.00274344203586348	-1.300883131302059e-05	-5.37027575170867e-07	5.04056412520761e-05
2
228200
Ar	1.2407246088363872e-06	-4.134788705932193e-06	0.0032246592829962414	-0.00014203514605970515	-2.111245859088045e-05	4.689565208398929e-05
Xe	2.583180327085646e-07	1.0575881986210738e-06	0.0027434690356113282	1.80096689427289e-05	-8.515577669980658e-06	-3.324249357577703e-05
2
228400
Ar	-3.1714464736487095e-07	-3.3972506969463136e-06	0.0032252887584542545	-0.00015910050898199454	0.0001789851450437349	5.0683081013183e-05
Xe	4.911234144664633e-07	8.784306739765366e-07	0.002743039528378723	4.303842800723748e-05	-5.209846559544639e-05	-5.008352194499575e-05
2
228600
Ar	-1.8113608139260969e-06	-1.130937463547029e-06	0.003225556579320173	-0.00011707642629642469	0.00025989132941463093	-8.711694258917928e-06
Xe	7.185480834895397e-07	2.8518251093356807e-07	0.002742493082909056	-6.360707531445535e-06	-6.128254689028893e-05	-4.398200588859464e-05
2
228800
Ar	-2.5562662112150514e-06	1.8017308385605498e-06	0.003224918987853185	-1.2017822857787388e-05	0.0002709298738935922	-8.973149323290646e-05
Xe	3.867150441645018e-07	-3.1309965822925724e-07	0.0027422300471538347	-4.482432041964298e-05	-6.090509617003639e-05	8.123675961867902e-06
2
229000
Ar	-2.073395860360836e-06	4.019840098199073e-06	0.003224137583270864	6.424580497028562e-05	0.0001652545758458428	-7.01292021972527e-05
Xe	-2.515833676742354e-07	-8.117527009127013e-07	0.002742386121394522	-5.83704973314441e-05	-3.620308792867312e-05	1.2178859930231772e-05
2
229200
Ar	-1.064323869715841e-06	4.574537976757985e-06	0.0032236835799040607	0.0001426934787938223	-2.344888818252494e-05	-2.3107511447289553e-05
Xe	-6.817773902919305e-07	-9.144301290782444e-07	0.0027426680571087116	-4.2414906877815055e-05	4.36808897511298e-06	3.22682772379684e-05
2
229400
Ar	5.501264064466043e-07	3.4679424322741245e-06	0.0032238263268718377	0.0001672403896563169	-0.00018280790659714325	5.9789794166404744e-05
Xe	-7.796065453997371e-07	-5.355293151964331e-07	0.0027428790534626078	2.043454139163929e-05	4.910063783670621e-05	1.196235043590621e-05
2
229600
Ar	1.8958291719234258e-06	9.134864806544143e-07	0.0032250159635689654	9.294155641379571e-05	-0.00030550281127352983	0.0001560220669307188
Xe	-5.248874555938751e-07	-1.281816595811135e-07	0.0027426145373359444	4.991018133407197e-05	3.956164239888826e-05	-4.982928710885008e-05
2
229800
Ar	2.419611277989204e-06	-2.2876423256821025e-06	0.003226453270295073	-7.46792147744006e-06	-0.0003177198782453388	0.00010790853831224241
Xe	-1.2660035089107134e-07	4.718803651167418e-07	0.002742243214480254	5.353456635770072e-05	4.442741113256378e-05	1.4806863304575395e-05
2
230000
Ar	1.8907855118776253e-06	-5.004605297067754e-06	0.0032266823554209186	-9.943562856377374e-05	-0.00019997597760392478	-6.569761273721797e-05
Xe	2.3746128835418937e-07	6.91224261627091e-07	0.0027427274625623655	1.8716631742005583e-05	-7.6735675694637e-06	6.207740143032191e-05
2
230200
Ar	5.608555261166682e-07	-5.5405781239695015e-06	0.0032251179891819985	-0.00015454357685696775	8.639756068893812e-05	-0.00019919132037570452
Xe	4.4423868992534715e-07	6.985871395291347e-07	0.0027435215179649705	2.3528996912803667e-05	-9.444042627876125e-06	0.0001073527628475293
2
230400
Ar	-8.50607100157637e-07	-3.933321019694932e-06	0.0032234263036143933	-9.573369850583168e-05	0.0002589528439801079	-0.00011144823191580399
Xe	6.361675551248621e-07	3.675299258079832e-07	0.002744195045080981	2.399783460971959e-05	-5.8568906969524256e-05	1.935203755083977e-05
2
230600
Ar	-1.632549654598874e-06	-8.290530387933973e-07	0.0032235319441348124	-5.1585340207361734e-05	0.0003360234767894218	8.605974755467375e-05
Xe	7.605169865626004e-07	-3.877118314941522e-07	0.002743614562621609	3.515497282753521e-06	-6.992080646495914e-05	-0.00011646926392126891
2
230800
Ar	-1.7919704707380242e-06	2.095895298308773e-06	0.003225040462245722	8.474788368231967e-06	0.0002603136291399985	0.0001791611119693031
Xe	6.198480449868473e-07	-9.89857930246064e-07	0.002742398115334735	-3.370559234036218e-05	-2.9199909154929708e-05	-0.00011076726852463175
2
231000
Ar	-1.3031601981213899e-06	4.064963287415758e-06	0.0032264909363888075	9.782467317741911e-05	0.000142403569978933	8.662480564945446e-05
Xe	3.3668225698491413e-07	-1.1059308750135133e-06	0.0027414872926192473	-1.999916316095616e-05	3.398814821077335e-05	-5.288504506261631e-05
2
231200
Ar	9.925619362621863e-08	4.4782321193882205e-06	0.003226342310875846	0.0001524711412381965	-6.0837144816250294e-05	-9.299090626878525e-05
Xe	4.528620746138157e-08	-5.826898143221059e-07	0.0027415025443486233	-3.634022383646062e-05	5.6299031240169384e-05	6.222510077231686e-05
2
231400
Ar	1.3056098540277488e-06	2.973800352466066e-06	0.00322471846825966	9.47519408077855e-05	-0.00023986974771096568	-0.00019069647112182202
Xe	-5.367284236289574e-07	-1.104492015436033e-07	0.002742669962954925	-7.629517848005436e-05	2.9426906410162763e-05	0.00013588514370048877
2
231600
Ar	1.792565229960641e-06	2.171856887661051e-07	0.0032230395437655482	1.5108868263786994e-05	-0.00028486486681568413	-0.00012744767782979762
Xe	-8.87817128931059e-07	2.0216455133740946e-07	0.0027438662029680514	-1.1439411595078734e-05	2.6842746974731728e-05	9.174168694465256e-05
2
231800
Ar	1.6111510887771853e-06	-2.318891636537971e-06	0.003222978725487072	-2.974797594941708e-05	-0.00020558568555941725	8.722894435894994e-05
Xe	-8.760488013087764e-07	5.02569488688054e-07	0.002743945688192062	4.807911115726522e-05	3.0517871748865e-05	-8.078600522424346e-05
2
232000
Ar	9.100692243492801e-07	-3.7546355223790836e-06	0.003224526521774075	-0.00011138918991812895	-8.369111331428293e-05	0.0001927747813130808
Xe	-3.7258745064519325e-07	6.468002433409748e-07	0.002742759369616892	6.552810655207756e-05	-9.377594603997146e-06	-0.00012648351382085675
2
232200
Ar	-2.5748179762854875e-07	-3.5715159882581e-06	0.0032261741254820523	-0.0001294050613767229	0.00010555490325085256	9.506210810220323e-05
Xe	3.881002200272821e-07	4.90612536979575e-07	0.0027418212755480845	8.380877568640223e-05	-7.949804537131214e-06	-4.5043970847241435e-05
2
232400
Ar	-1.3117279781904964e-06	-1.7429462858489726e-06	0.003226187063385718	-9.069665166352569e-05	0.0002405819244502247	-9.292598400504677e-05
Xe	9.919727575816568e-07	4.075853658337638e-07	0.0027417750197496716	3.680775134753737e-05	-3.3115859656294048e-06	2.6493217753980302e-05
2
232600
Ar	-1.8955013734770107e-06	8.519514492268448e-07	0.003224819016730508	-1.6344674052201002e-05	0.0002514177574870691	-0.0001856500111083188
Xe	1.1726057079297979e-06	4.5819639608938915e-07	0.0027423000987886244	-7.1882897478442695e-06	3.0262079904645623e-06	6.709540822542949e-05
2
232800
Ar	-1.7600440111757333e-06	3.008339124718533e-06	0.0032234437124263773	3.620400857374873e-05	0.0001647617340166036	-8.638022307289621e-05
Xe	7.417049572972167e-07	3.0246251549445304e-07	0.002743129902370307	-5.8358949181484224e-05	-2.7518542226332027e-05	7.276151330149509e-05
2
233000
Ar	-1.1815875219431403e-06	3.7118096453526477e-06	0.003223303142661633	5.472274743566936e-05	-2.544395097600505e-05	7.578509292255606e-05
Xe	1.0143838019141822e-07	-2.609804045958091e-07	0.0027433832087466535	-4.813947010965362e-05	-7.952829872667583e-05	-2.0115110824648893e-05
2
233200
Ar	-5.53482843289921e-07	2.7314783151574857e-06	0.0032246560380925883	6.85977634133119e-05	-0.0001557034288383537	0.0001595850568580644
Xe	-2.9245045204582835e-07	-8.30612302434729e-07	0.0027429511794217825	-2.713560899663375e-05	-3.171951690304664e-05	-4.6310728968273944e-05
2
233400
Ar	8.012692118035067e-08	7.265830193129722e-07	0.0032259677909569863	5.88778381587642e-05	-0.00022718104602650557	8.056112893958419e-05
Xe	-4.897520143757403e-07	-1.1433009907547846e-06	0.002742361109971019	6.168457966419039e-07	-1.1208355469492796e-05	-4.6344241412674325e-05
2
233600
Ar	1.0355752974832596e-06	-1.334694593381329e-06	0.00322624991490169	0.00012456375387095644	-0.00016878679884620675	-3.410780397394036e-05
Xe	-7.750045460610536e-07	-1.127954165548572e-06	0.0027424529870312946	-2.475565930792604e-05	2.9803495330688818e-05	3.4875681691084854e-05
2
233800
Ar	1.7616226646579172e-06	-2.348876490711214e-06	0.0032253476344473774	1.8762544938072627e-05	-2.919859466877061e-05	-0.0001516260023159592
Xe	-9.862347639750363e-07	-5.572551195085863e-07	0.0027430646192139374	-5.074164123802533e-06	7.517598059680487e-05	7.44244682304884e-05
2
234000
Ar	1.445216836898684e-06	-2.2265577405502775e-06	0.0032240579412981902	-5.243475119249103e-05	6.176259473394883e-05	-0.0001075084647249849
Xe	-6.987377477851217e-07	2.537135462697533e-07	0.0027436694795089896	6.197877859059049e-05	6.678370868144597e-05	2.702072894849796e-05
2
234200
Ar	3.5133840389894924e-07	-1.0487043736667747e-06	0.003223754036219126	-0.00013681896612559695	0.00015582733785241573	3.065005136338426e-05
Xe	3.009799430749616e-07	7.158595772575298e-07	0.0027434673065833766	0.00010756334743802795	3.806305805978161e-05	-5.564580439195307e-05
2
234400
Ar	-9.228620696200933e-07	4.1477236512388185e-07	0.003224365475148623	-0.00012390349245030078	0.00012534683184872361	8.339435910130066e-05
Xe	1.4555192047055845e-06	9.715817971619363e-07	0.0027424879294068987	7.785307447439577e-05	-9.791132851417018e-06	-0.00013524045816140168
2
234600
Ar	-1.9564979256531257e-06	1.6266508338617043e-06	0.0032251852151367936	-6.235137665763611e-05	9.314555211219741e-05	5.8021973903482076e-05
Xe	1.6837593661657066e-06	3.860604996266234e-07	0.0027414351285150883	9.131844164793235e-06	-0.00010544247543623826	-7.758493225035216e-05
2
234800
Ar	-2.032900586061657e-06	2.0191490820393136e-06	0.0032254045089439303	2.4201095338779363e-05	-1.1417024362617754e-05	-1.4143282241052795e-05
Xe	1.111720188311433e-06	-7.804575754703351e-07	0.0027414486998697672	-0.00010206888891600893	-0.00011341548185469137	7.394350084057207e-05
2
235000
Ar	-1.3176494088134788e-06	1.6716713852522342e-06	0.003224798319211471	0.00010165585601745314	-4.6728386541448776e-05	-9.991918918226784e-05
Xe	-5.16506049146148e-08	-1.9850094703422677e-06	0.002742486860109932	-0.00011821590672510973	-0.00010362468195832963	0.00012557764623010817
2
235200
Ar	-1.2215282044234234e-07	1.2018354121291297e-06	0.0032238547677763477	0.00013545106456331588	-3.9834973178186e-05	-6.088273421663772e-05
Xe	-1.186397145475005e-06	-2.7448219220347674e-06	0.0027437558943360797	-0.00010289872624520785	-4.342767421927177e-05	0.00012067849552195973
2
235400
Ar	1.0756031019432833e-06	7.895678803305794e-07	0.0032238515377666773	8.830695580167564e-05	-5.896461868758573e-05	6.321203568959358e-05
Xe	-1.617687197293665e-06	-2.4110689480393503e-06	0.0027444571666620375	9.351442758603424e-06	8.389697131713408e-05	8.654525845620152e-07
2
235600
Ar	1.8394967842624471e-06	2.3002585607887947e-07	0.0032247796267403993	6.5262172472176e-05	-4.1005531904926474e-05	0.00013138921890251524
Xe	-1.2918281646640492e-06	-1.1918961608446852e-06	0.0027439956516779203	6.515190716423929e-05	0.00015151067337190282	-0.00010410799918184029
2
235800
Ar	2.1284311415696208e-06	-1.3498976556461886e-07	0.003226035192226399	2.1823674770474812e-07	-2.1310253061446216e-05	8.84695809144075e-05
Xe	-4.0701522429495804e-07	5.466821393237547e-07	0.0027425199594476946	0.00014016113222743072	0.00016826794950071443	-0.00014248363855804823
2
236000
Ar	1.38359419908601e-06	-3.4806749816635594e-07	0.00322635675521813	-0.0001121103633349395	-2.634093198892411e-05	-3.3377978065889817e-05
Xe	9.147027495584699e-07	2.1577638911657033e-06	0.002741430546426164	0.0001328768397590718	0.00012953724304241873	-3.1693140734636275e-05
2
236200
Ar	7.327223053924829e-08	-6.026288023510501e-07	0.0032254459420692507	-0.0001527788346528097	-4.3959907083490396e-05	-0.00015785941054860777
Xe	1.8085972649907642e-06	2.950832296786591e-06	0.0027417048211941103	3.984337234532349e-05	2.1912705791923876e-06	7.999101568622222e-05
2
236400
Ar	-1.247328708300652e-06	-1.0871712591817317e-06	0.0032235974150773457	-8.446086686238632e-05	-3.2845428117007335e-05	-0.00016292072373467946
Xe	1.620029002056136e-06	2.4082428045230152e-06	0.002742676434451846	-6.229373256994917e-05	-0.00011566073447012223	8.886399703686273e-05
2
236600
Ar	-1.8783331248479678e-06	-1.4832805562280679e-06	0.0032227138886051993	-4.624164188977788e-05	-5.8593012596829985e-05	1.0733585629018677e-05
Xe	5.807988300643776e-07	6.286836453344358e-07	0.0027431332548577677	-9.55321891654934e-05	-0.00021416443997454348	6.406141494189333e-06
2
236800
Ar	-1.9503485637015854e-06	-1.98920933998286e-06	0.0032236140529734334	4.897966155423486e-05	-3.860575604205013e-05	0.00017849516299819912
Xe	-3.521922659428804e-07	-1.7064347409473406e-06	0.0027428742973627613	-7.296286288855847e-05	-0.00020726691305464687	-3.396010078242558e-05
2
237000
Ar	-1.0775688649922036e-06	-1.6752449316714023e-06	0.0032255679499474375	0.00011762696675840829	8.508988355116521e-05	0.0001941522902225316
Xe	-6.837153115168594e-07	-2.9327203322351757e-06	0.002742287406364506	2.680044298967751e-05	-4.8595430454821416e-05	-6.804453162348299e-05
2
237200
Ar	2.1110633551670337e-07	-3.2015948639756854e-07	0.0032269390934772917	0.00012758587871114813	0.0001693623064389926	5.599970620898401e-05
Xe	-2.888915308551473e-07	-2.6996673836246048e-06	0.002742013299310699	4.4156198466448485e-05	7.252851845129849e-05	2.808572612947076e-05
2
237400
Ar	1.8015280671890811e-06	1.3764383629843877e-06	0.003226396801173827	0.00017873709040619874	0.00015600808322245019	-0.00015120204647099835
Xe	1.9395573439749383e-07	-1.398742509115656e-06	0.0027428688155100313	2.9348854729779298e-05	0.00015051599480955008	0.00011428283468892143
2
237600
Ar	2.938593171377867e-06	2.565692746790539e-06	0.003224340605972298	3.714214161467596e-05	7.557707308586716e-05	-0.00023929803576478126
Xe	6.746234284642574e-07	2.1085381926737714e-07	0.0027440341614430206	2.036981100056529e-05	0.0001634044719486347	9.340740782858147e-05
2
237800
Ar	2.485243523322952e-06	2.57108969295758e-06	0.0032226714996072144	-0.00010097842916590563	-6.852199024407946e-05	-7.074940167133252e-05
Xe	7.767773722753461e-07	1.7437933535180359e-06	0.0027440573475210304	2.82922941015169e-06	0.00015652411673595167	-8.501888569603258e-05
2
238000
Ar	8.785655721441932e-07	1.467222007001928e-06	0.0032230775668740243	-0.00020693595626774202	-0.00015897150975334042	0.00014634420043450056
Xe	5.940919911122235e-07	2.9724694214074693e-06	0.0027429140686065913	-2.2963079552206284e-05	5.880486090598257e-05	-0.00014544177181318384
2
238200
Ar	-1.3721037865235673e-06	-4.7640883522243675e-07	0.0032248671766654927	-0.00020041430048074716	-0.00022304940774322746	0.0001962297105317009
Xe	3.162499454324654e-11	2.8236904420426325e-06	0.0027414389523311776	-6.771091376524786e-05	-8.390691872288965e-05	-0.00012460148923576083
2
238400
Ar	-3.132438332563104e-06	-2.7752091473465e-06	0.003226328510002403	-0.00011946693698713837	-0.00019873654449062	6.219887154837033e-05
Xe	-7.311866038830347e-07	1.2220197483814816e-06	0.0027408457462445497	-7.801808568741117e-05	-0.00021586067388960502	8.177300961693436e-08
2
238600
Ar	-3.347182143721876e-06	-3.956292572312959e-06	0.003226203534290579	4.923409489027666e-05	-3.608043928385976e-05	-9.16676089381032e-05
Xe	-1.0810627709426263e-06	-1.0674315251589352e-06	0.002741583130529912	-1.2311668103907593e-05	-0.0002303322440720149	0.0001323428756117387
2
238800
Ar	-2.2416072790957457e-06	-3.2530619527585556e-06	0.0032245843392970986	0.00015941765984039998	0.00015996909100190318	-0.00018230232606098192
Xe	-7.961294814948394e-07	-2.769848479208656e-06	0.0027432842711145023	5.709711084085719e-05	-0.00011083909610044082	0.0001887573825298296
2
239000
Ar	-2.7512859420152575e-07	-9.508665498267732e-07	0.0032234992452692627	0.00018289551966707476	0.0002946465817566469	-2.1706418966763584e-05
Xe	-3.922601907385862e-09	-3.122962555213291e-06	0.0027446970853306036	7.37241356157184e-05	5.2169490325848935e-05	6.154826470847973e-05
2
239200
Ar	1.361095431891435e-06	2.011480574292547e-06	0.0032239449689064354	0.0001430682530300556	0.0002761302022193181	0.00010165665669989279
Xe	7.743268771689531e-07	-2.165128949098425e-06	0.002744389996171243	6.714608196398865e-05	0.00017468626517965313	-0.0001222210955066061
2
239400
Ar	2.362474674783272e-06	3.956376961731475e-06	0.0032254044799231705	3.3539468180623466e-05	0.00011665127992969217	0.00016470920299676086
Xe	1.4407862427820343e-06	6.115807336171075e-08	0.0027426014742217533	4.19070954376417e-05	0.00025374249196386873	-0.00022136917247568482
2
239600
Ar	2.22132530315245e-06	4.070993738970554e-06	0.003226364893770064	-8.504990397183332e-05	-0.00010843975381760539	2.2394789266472805e-05
Xe	1.2057119117358354e-06	2.0876070615292827e-06	0.0027409317348136603	-8.578030665029598e-05	0.00013471419078238942	-8.67749498439002e-05
2
239800
Ar	1.0919957510209556e-06	2.1609882498946995e-06	0.003225906739710699	-0.00011826231233962868	-0.00024729548482995095	-0.00010202514581770437
Xe	-2.3336226789852496e-08	2.9635672488986936e-06	0.0027409849134671645	-0.00015649129617355213	2.7345960088481715e-05	8.861128990459398e-05
2
240000
Ar	-6.710927276549314e-08	-7.362450018910921e-07	0.0032246308321303803	-0.00011591024743305879	-0.00031489606598919843	-0.00014059613158119637
Xe	-1.250697875574791e-06	2.4372089027250314e-06	0.00274246859211308	-7.62237824905102e-05	-0.00013108823616181497	0.00016322337539720466
2
240200
Ar	-6.704848892522796e-07	-3.2773607550167312e-06	0.0032235958758752843	-2.6084518230550296e-05	-0.00017558565495611034	-2.739266198463343e-05
Xe	-1.6957414486643097e-06	5.473227479850267e-07	0.0027440790852187045	6.492732584075475e-06	-0.0002290785606354805	0.00013344087089003847
2
240400
Ar	-8.759058304913839e-07	-4.2358242167065245e-06	0.0032240422465741724	-6.633468083314774e-06	-1.9017441797904058e-05	9.503607200168352e-05
Xe	-1.1846650714388714e-06	-1.898214871125861e-06	0.0027446844184230434	8.441997009734447e-05	-0.0002461532208349435	-1.3986000785333286e-05
2
240600
Ar	-6.287411356353855e-07	-3.447044249833096e-06	0.003225389844962513	4.308345514324847e-05	0.00015468085015529125	0.0001468317121409246
Xe	-1.5837342299169263e-07	-3.4895648070253753e-06	0.002743855679623858	0.0001155639425815765	-7.107886265082858e-05	-0.00012297564138857663
2
240800
Ar	9.120849627209134e-08	-1.0218281008218851e-06	0.003226234137173469	7.573274468516175e-05	0.00028542636845942234	8.63122735764098e-06
Xe	7.890074114933483e-07	-3.4194163096212665e-06	0.002742604223941077	7.506692410356621e-05	9.161047652650136e-05	-9.823225213743187e-05
2
241000
Ar	9.087772766971497e-07	1.7723693913375128e-06	0.0032255937580060656	6.382374214552429e-05	0.00026795024685321835	-0.0001104947930241828
Xe	1.176189943433965e-06	-1.603259245428806e-06	0.002741761600765432	1.260794228792727e-05	0.00025587348981266227	-5.720877170215781e-05
2
241200
Ar	1.4810899665154711e-06	3.7383122949860008e-06	0.003224305965565312	3.4429442245965555e-05	0.00010922892169695707	-0.00012439879291049807
Xe	9.116582332632874e-07	1.031702291996115e-06	0.002741536167352277	-5.566240278668822e-05	0.00023889214400144167	1.2984447870872775e-05
2
241400
Ar	1.4120063039966656e-06	3.5216596570321608e-06	0.003223523992541539	-3.9052148694615734e-05	-0.00014135627434809113	-4.031675417099084e-05
Xe	1.8932361338565355e-07	2.8006186022563857e-06	0.0027421447197179113	-8.192052797819482e-05	0.00011210708930492292	6.888400466207452e-05
2
241600
Ar	8.751415673188193e-07	1.14194810855783e-06	0.0032236024899051823	-7.436580536953316e-05	-0.0003171559412378017	4.8733608742520905e-05
Xe	-3.578500397658464e-07	2.9310687928187586e-06	0.0027430802089292044	-3.674430719708833e-05	-6.98470439950073e-05	0.00010583745882613652
2
241800
Ar	2.065264719756253e-07	-2.2480614692315246e-06	0.003224568415838178	-5.141514095720922e-05	-0.000310213182235023	0.00013505151020458612
Xe	-6.598733466218591e-07	1.6668031671617285e-06	0.002743895690256802	-3.265808816489339e-05	-0.00018041523530362287	5.0411492509830915e-05
2
242000
Ar	-2.2642273660048218e-07	-4.457342970978124e-06	0.003225903787429375	-2.474657784010409e-05	-0.0001475094161479815	0.00011997478292940989
Xe	-8.155666662346157e-07	-3.4133729642068944e-07	0.0027441041653855735	8.766183167830374e-07	-0.00020593649704959795	-1.9266784534095598e-05
2
242200
Ar	-3.0096483607401944e-07	-4.953595845235749e-06	0.0032266618744085577	2.5531221991004717e-05	7.731996807351866e-05	2.6415911105827116e-05
Xe	-6.33792276249065e-07	-1.98113322826606e-06	0.002743683452702316	3.085782085252255e-05	-0.00011856353232491472	-6.202768781471121e-05
2
242400
Ar	1.4586297432827648e-07	-3.091441994820401e-06	0.003226109707413609	4.482670461079868e-05	0.0002943419541638978	-0.00013630426742317
Xe	-2.3571035916956757e-07	-2.8597218040258013e-06	0.002742893349456703	4.167479872507985e-05	-4.192684031226241e-05	-9.52194297359585e-05
2
242600
Ar	4.6956300945967714e-07	6.045946144387226e-07	0.0032245076645471223	3.8194143908342654e-05	0.00041620151196907623	-0.0001814315342278988
Xe	4.28458248778178e-07	-2.7175387899297654e-06	0.0027419957313929103	6.076894711686124e-05	6.280694281379015e-05	-6.455335979199695e-05
2
242800
Ar	4.604526915680049e-07	4.3794145818593245e-06	0.0032228949365444063	-3.720586192257376e-05	0.0002945236185114586	-0.00013817341049048287
Xe	7.880579186745528e-07	-1.3348183294090295e-06	0.002741565831751178	5.267757074440367e-06	0.00018965372750228096	-2.168493328548779e-05
2
243000
Ar	-1.1080721236829568e-07	5.752666631467651e-06	0.0032225194458930123	-7.930900744609208e-05	-2.0946711866462488e-05	7.367470841238673e-05
Xe	3.866703082398237e-07	6.654037036726895e-07	0.002741401395042473	-7.466220849684132e-05	0.00017805356949929867	-3.849818991930073e-06
2
243200
Ar	-6.292727256424636e-07	4.050934973490159e-06	0.003224030670816855	-3.022499183013676e-05	-0.00030796397527601145	0.00019474757636807748
Xe	-4.5517310235797883e-07	1.8314353163191658e-06	0.002741777563618303	-0.00010359058680041174	5.3420488569932626e-05	7.638608675642717e-05
2
243400
Ar	-7.862716430097381e-07	2.001224490031883e-07	0.0032256850241053547	2.7647829649114665e-06	-0.0004177002341151367	0.00015324295400029773
Xe	-1.300070264060635e-06	2.0536666322726065e-06	0.002742802651190061	-5.211437482593617e-05	2.3293621242376846e-07	0.00010123494333694183
2
243600
Ar	-2.914274613891106e-07	-3.7865458021657076e-06	0.003226800558040304	6.919063345653243e-05	-0.00032969541412101533	4.3567019386722565e-05
Xe	-1.465346790486386e-06	1.559426720042562e-06	0.002743576247710256	6.216981382335092e-06	-9.66273273957815e-05	6.157588369045543e-05
2
243800
Ar	5.195009109159701e-07	-5.916601994598369e-06	0.003226441568394909	8.785526339840254e-05	-9.09234642713077e-05	-9.799300395189237e-05
Xe	-1.0484479378748797e-06	2.2416837029203752e-07	0.0027440000303350755	8.390970533601801e-05	-0.0001440659871767745	4.7225811619038106e-05
2
244000
Ar	1.3625384747065298e-06	-5.340163273036569e-06	0.0032251335499309235	5.585190215279933e-05	0.00018732723083441754	-0.0001629932781418061
Xe	-3.461850341056608e-08	-1.0623652708900847e-06	0.0027443355112494582	9.335819305229261e-05	-0.00013769811396555009	6.317119616123738e-06
2
244200
Ar	1.4142879799792477e-06	-2.6408701125005562e-06	0.003223952926531949	-2.5842074215061316e-05	0.00034380475629689215	-6.111813441165743e-05
Xe	7.339123711311801e-07	-2.238074716918606e-06	0.002743686548827664	7.233016457430576e-05	-5.911696990245144e-05	-0.00012120863176384016
2
244400
Ar	9.683275437110365e-07	1.0421047436346391e-06	0.003223474986605741	-6.127705684731207e-05	0.0003575163234264417	-1.683140262437063e-05
Xe	1.3936589350268839e-06	-2.3542409591975843e-06	0.0027419957826333896	3.304879619523707e-05	2.454771627015487e-05	-0.0001703752886972312
2
244600
Ar	1.5596240842445914e-07	3.971296941899183e-06	0.0032234665727940543	-0.00011947385600017348	0.0002070372596249342	1.8792113367253772e-05
Xe	1.4501897169493326e-06	-1.7124049996057166e-06	0.002740660877038122	-3.94297027779932e-05	0.00010410847083070609	-5.0389767851488015e-05
2
244800
Ar	-8.266842880494839e-07	4.959673507637482e-06	0.003224174149555111	-5.6427255195938715e-05	5.525292657311773e-06	0.00010053502507315082
Xe	8.993507233808885e-07	-5.61161871716822e-07	0.002740836035746638	-8.693211153767933e-05	0.00011724467253442324	8.415782248646087e-05
2
245000
Ar	-1.1509234672956509e-06	3.9156088750283506e-06	0.0032250314036395356	2.721242555486072e-06	-0.00019750003665585202	7.717030998110321e-05
Xe	3.261756162115792e-08	8.622382889866973e-07	0.002742316364482601	-0.00010119468573254989	0.00013781729396875696	0.00016741650524423768
2
245200
Ar	-8.819098602340628e-07	1.2653164325194206e-06	0.0032253535923428816	5.8463775533533144e-05	-0.00031841654129193583	-1.1003328550771678e-06
Xe	-9.420733220284299e-07	1.8734380382281444e-06	0.0027439126941392693	-9.903019183233629e-05	7.071086324183989e-05	0.00012574886147781057
2
245400
Ar	-2.6356379300523626e-07	-1.9439286078136898e-06	0.0032251884264949916	7.952092863634337e-05	-0.000288376838002936	-4.049541717897749e-05
Xe	-1.6572542021656416e-06	2.212095876018156e-06	0.0027444988376059266	-5.1529891287050485e-05	-4.382476283818568e-08	-1.932975855502716e-05
2
245600
Ar	6.26439063462003e-07	-4.283062293986508e-06	0.0032250017210205175	8.686055109849889e-05	-0.00015567059312374568	5.484932814315464e-06
Xe	-1.9018754547204382e-06	1.586121382071235e-06	0.0027437716738941778	3.091768565577456e-06	-0.00011063788699947111	-0.00011283214381902199
2
245800
Ar	1.3847819145925198e-06	-4.664783080031275e-06	0.0032251639780262304	6.062427678812432e-05	8.344611517802577e-05	2.0645603874612658e-05
Xe	-1.4076857251857572e-06	1.7635759561899551e-07	0.00274257761711317	9.956402730077263e-05	-0.0001478575194672074	-0.00012627442224835128
2
246000
Ar	1.683016795291189e-06	-3.04841481538227e-06	0.003225301225662594	-9.831621404442732e-06	0.00024819088633564157	-1.300402896256982e-05
Xe	-2.607130640227953e-07	-1.204212086843089e-06	0.0027416899348291592	0.00011958386836438303	-0.0001114173807594096	-3.238459026216156e-05
2
246200
Ar	1.1870113479134848e-06	-2.6205619063817966e-07	0.00322489364278041	-8.773846101839768e-05	0.0002801431910379335	-6.372551384342106e-05
Xe	7.529472736121684e-07	-1.958224494595046e-06	0.002741725671455041	9.776127728566264e-05	-4.3685312690121035e-05	3.688960630041218e-05
2
246400
Ar	1.6346562037389889e-07	2.249472828946493e-06	0.003224466000712725	-0.00012240208019597884	0.00021282587529540884	-9.814920624482155e-06
Xe	1.4968587329260893e-06	-1.9447672174958696e-06	0.0027425184518266132	5.577021741777868e-05	8.661698742731751e-06	0.00010700669606521114
2
246600
Ar	-9.657036814114562e-07	3.616035873629223e-06	0.0032243316711818527	-9.982670048192885e-05	6.41714677520704e-05	4.317808069096598e-06
Xe	1.4969042917469656e-06	-1.5268983520414526e-06	0.0027433350435760555	-5.566669606717995e-05	6.239230046070819e-05	7.755924725923131e-05
2
246800
Ar	-1.5065785964475955e-06	3.3086529670902615e-06	0.0032244859561078518	-4.319437981383777e-05	-0.00011325178938137521	6.237505210665578e-05
Xe	7.177105722106046e-07	-7.331691754382953e-07	0.002743873594845798	-0.00010259208826443775	0.00012485345794555262	2.2373503310385534e-05
2
247000
Ar	-1.8010825742304881e-06	1.5848234457672667e-06	0.0032250967965128346	1.5183570858847628e-05	-0.000208542290143671	2.899579857670722e-05
Xe	-2.0705241319959025e-07	5.052599993108338e-07	0.002743340795744874	-8.117594528834793e-05	9.818159179838863e-05	-0.00010425496743440003
2
247200
Ar	-1.2952320298495126e-06	-5.777585589285725e-07	0.003225164972911991	5.908051324308219e-05	-0.00019008971507830663	-1.344866234462759e-05
Xe	-9.18876793439927e-07	1.1480282819851013e-06	0.002741896248887698	-4.550486213529903e-05	5.163767512275327e-05	-0.00015980649434446176
2
247400
Ar	-4.5953224447770834e-07	-2.070833255562031e-06	0.0032246954538807837	0.00012308538958607005	-9.723899596428223e-05	-9.023460511319198e-05
Xe	-9.511585455473713e-07	1.4483762747096439e-06	0.0027408819730443874	4.684681568555573e-05	1.1819584446706586e-05	-3.434573051910461e-05
2
247600
Ar	8.171237718411714e-07	-2.4059430880483856e-06	0.003223645039932092	0.00015123226536256296	2.568960226173158e-05	-9.080261431119831e-05
Xe	-1.3867686714443517e-07	1.105778157731456e-06	0.0027410747173782293	0.00010395806200198645	-6.072787483200953e-05	5.644291612739379e-05
2
247800
Ar	2.0440105530723018e-06	-1.655652856678021e-06	0.0032235513738063594	8.907133203767764e-05	0.00010458905919617072	5.9165605179520775e-05
Xe	9.821934777423257e-07	4.3564221184560414e-07	0.0027420108668331144	9.730850943694025e-05	-0.00010151998887699525	0.0001085639194035357
2
248000
Ar	2.5084408716655906e-06	-1.941483728701556e-07	0.003224545885422725	-3.6042388183318405e-07	0.00017007420472543594	0.0001167639204038757
Xe	1.3714737956845143e-06	-6.975498825768937e-07	0.0027429869200941283	-4.072048945748787e-06	-9.332750056992654e-05	9.920280998294723e-05
2
248200
Ar	1.7995706706388441e-06	1.6600260081709443e-06	0.0032254504423844315	-0.00011950340437803965	0.0001882625318257134	5.312630090266658e-05
Xe	1.016207778684971e-06	-1.2764008863833908e-06	0.0027439067458136478	-7.74664714650359e-05	-3.269004744056381e-05	7.41267963421652e-05
2
248400
Ar	-1.6385199556420795e-08	3.054297332450231e-06	0.0032255731323639764	-0.00022641564101315252	7.985105400373514e-05	-1.1600216711918825e-05
Xe	-1.5390395017811044e-07	-1.182074263868006e-06	0.002744334305678758	-0.00012767006036311436	3.22882676932497e-05	-6.185452227686926e-07
2
248600
Ar	-2.150872431902392e-06	3.038980897887329e-06	0.003225139552436349	-0.0001586137499525395	-6.789657927295636e-05	-6.803065891591829e-05
Xe	-1.1924847145647707e-06	-4.3442651360027945e-07	0.0027437402409740317	-6.61070574407279e-05	8.288474772461098e-05	-0.00010953468976268406
2
248800
Ar	-3.0880287072607294e-06	1.7523677669191118e-06	0.0032245802656994385	-2.6801789618188035e-05	-0.00020141196185142652	-2.3026749898351436e-05
Xe	-1.5767603809077643e-06	4.0955143832740654e-07	0.0027425170022282175	-1.9211055112835695e-05	8.596825130853411e-05	-0.00011591479805263515
2
249000
Ar	-2.583321552781264e-06	-5.284426529927726e-07	0.0032242218162573865	0.0001117726494896847	-0.00022610768406182812	-2.349340905616811e-05
Xe	-1.1036531837661818e-06	7.317878658023048e-07	0.0027417185139008604	0.00011119381096700795	-1.168170733235859e-05	-3.4115091144644405e-05
2
249200
Ar	-9.326963604779936e-07	-2.5984248648723346e-06	0.003224251994380439	0.00019516414987431443	-0.00016547993099439305	2.1165987989337164e-05
Xe	-1.5729998215428358e-07	4.01324287115529e-07	0.0027416910289903207	9.151347871565642e-05	-4.757149286171417e-05	3.963578733227065e-05
2
249400
Ar	9.703566489358178e-07	-3.606023100655175e-06	0.0032247191432070643	0.00017211981093898308	-1.9145149054110584e-05	5.073122658051455e-05
Xe	6.034140845837757e-07	-4.6288833382260485e-08	0.0027424350369834307	6.021012723841543e-05	-2.9407578556585003e-05	0.00010633945110606072
2
249600
Ar	2.32498643004073e-06	-3.0086431914640868e-06	0.0032250805477905876	6.167363428995002e-05	0.00013464704553496496	4.095063618093291e-05
Xe	8.953539194405641e-07	-2.7740887311429427e-07	0.002743586545684351	6.64783090837731e-06	-1.480197092597417e-05	9.550988933735712e-05
2
249800
Ar	1.9116552166612524e-06	-1.0859772440262037e-06	0.0032253723211131046	-0.00011951369593138078	0.0002532142944961153	1.846833446282845e-05
Xe	7.981097420587593e-07	-1.7372416747009857e-07	0.0027440074709256727	-1.191808533158982e-05	2.4945887573856445e-05	-1.0305301187417422e-05
2
250000
Ar	1.09470705594329e-07	1.4128878181534505e-06	0.0032252795845011603	-0.00022184721041858146	0.000214804914134395	-6.1945199570362505e-06
Xe	5.171650959832883e-07	1.4091503595151076e-07	0.002743654825211604	-5.689009280670564e-05	4.039868555234899e-05	-8.489605845908673e-05
2
250200
Ar	-2.078129445395164e-06	3.046900554484018e-06	0.003225211786556554	-0.00017657492730301346	0.00010023821091372556	-5.2336640744332404e-05
Xe	-2.4879807097983966e-07	4.727553923759577e-07	0.002742755056604791	-8.243068393876647e-05	1.0423883437069059e-05	-9.489809071341754e-05
2
250400
Ar	-3.0367757237622018e-06	3.3849097078923295e-06	0.0032246597802632706	-1.4370629225387922e-05	-1.2270479396435873e-05	-7.005293397065608e-05
Xe	-1.1763170246521878e-06	4.6319234979659e-07	0.0027422137017814917	-8.437690909043027e-05	-1.6281799888414635e-05	-3.215006413402335e-05
2
250600
Ar	-2.478939971499149e-06	2.5012326444740273e-06	0.003223865872104117	0.00013994018059400076	-0.00016904405144382018	-8.880760204876168e-05
Xe	-1.5893035265787751e-06	5.534513077589853e-08	0.0027419956016585824	4.746809428540239e-06	-4.345829385568396e-05	-2.6217552400555646e-05
2
250800
Ar	-5.369133053153698e-07	6.690027830325508e-07	0.003223313581863709	0.00023091919977221947	-0.0001880258684864459	1.7404680900213336e-05
Xe	-1.0934632181095827e-06	-3.0641603897980366e-07	0.002741959594433853	7.178103485000394e-05	-2.672113245348905e-05	2.831724390351775e-05
2
251000
Ar	2.195614325735302e-06	-9.816856100804416e-07	0.0032242157712648375	0.0002709631803988372	-0.0001596763066978309	0.00014165702324283474
Xe	-3.150759855415365e-07	-3.931451242071808e-07	0.0027423164000585647	7.917972363415489e-05	5.8849107911784e-06	3.9922937928967235e-05
2
251200
Ar	3.887927135186564e-06	-2.1926627735108097e-06	0.0032255026137181578	5.842315083844677e-05	-6.758605935934798e-05	8.099003561966292e-05
Xe	6.925291902620251e-07	-2.6246424659815945e-07	0.0027427809567351384	0.00011619876539217846	1.7105912989587418e-05	5.8215499344228365e-05
2
251400
Ar	3.395438842217892e-06	-2.15747573539935e-06	0.003225980844725201	-0.0001419020297720832	4.4826818592708105e-05	2.2831452003439704e-05
Xe	1.2130642136789782e-06	-1.9941273798250373e-07	0.00274338350817373	1.0421210553307253e-05	1.0640286493602716e-05	4.9034355429563695e-05
2
251600
Ar	1.2866222190663262e-06	-1.1514964366737365e-06	0.0032255870479784413	-0.0002750321860775771	0.00015013463128495734	-8.869737975936219e-05
Xe	9.973403213450397e-07	5.151216017463108e-08	0.0027436314255570543	-4.480100345147604e-05	1.9157150343490966e-05	-5.600019031287634e-06
2
251800
Ar	-1.5479997844507097e-06	1.3552250445245458e-07	0.003224492174630935	-0.0002706271835660358	0.00010611352768415922	-0.00012246165082726665
Xe	3.9673742422535165e-07	8.069713040535464e-08	0.002743258817593538	-8.460461913947591e-05	-5.719057732370168e-06	-2.245757156721588e-05
2
252000
Ar	-3.6937548457987467e-06	9.92594770892745e-07	0.003223681212812362	-0.00013772395209744501	8.658312656872064e-05	-3.294369223483962e-05
Xe	-4.48567043996215e-07	-1.8806685765404336e-08	0.0027429243881180163	-0.00010395290897549673	7.845271533981335e-06	-4.2837633332448e-05
2
252200
Ar	-4.310383816319545e-06	1.5894628650456395e-06	0.003223742521158368	5.223684212452778e-05	1.974096056731598e-05	5.636489980094276e-05
Xe	-1.4700941530634273e-06	5.1240459470365725e-08	0.0027424377240747658	-9.477655846939096e-05	4.496677344421686e-06	-7.625948265113351e-05
2
252400
Ar	-2.7241197898937256e-06	1.4289782175859292e-06	0.003224618030894632	0.00023825356542369233	-3.691955195564139e-05	0.00010247900259108944
Xe	-2.0428263633904303e-06	-9.621836207361477e-08	0.0027417223957726575	-3.241747551610429e-05	-1.6809691667279442e-05	-6.410757110408744e-05
2
252600
Ar	3.270817570939872e-07	9.327423949260485e-07	0.003225190204517018	0.0003455286618553789	-5.0894431143612684e-05	1.1727664420714781e-05
Xe	-1.9073461571315815e-06	-2.989997834444506e-07	0.0027416780007891374	7.604667616253235e-05	-2.112973855756783e-05	5.701347900295217e-05
2
252800
Ar	3.7481566420824316e-06	1.48468245859724e-07	0.003225038672405307	0.00030605432302228193	-0.00011513265524701662	-6.328080865304808e-05
Xe	-8.142623281779329e-07	-4.334053554541426e-07	0.0027425822909340437	0.00013878938099236724	4.085280423155214e-06	0.00010852954585896308
2
253000
Ar	5.580983617809989e-06	-9.91056610709105e-07	0.003224359637407409	5.8255949372714175e-05	-9.459067859266028e-05	-3.3400569553284356e-05
Xe	6.49046088112756e-07	-4.785967145992917e-07	0.00274354320946294	0.00013380431351399155	-1.5195973653005401e-05	7.838956259278998e-05
2
253200
Ar	4.862471104858506e-06	-1.8059204788664108e-06	0.0032244013540076956	-0.00017320278068766958	-6.590313252306389e-05	4.044151817250599e-05
Xe	1.572112174571783e-06	-5.886958581154765e-07	0.0027437239502486554	6.914349749813272e-05	-1.3488969153928457e-06	-3.47011668982378e-05
2
253400
Ar	2.0904178347775513e-06	-1.9344377926397436e-06	0.0032249955509924292	-0.00035501462101495096	3.642733481205176e-05	8.100124996632603e-05
Xe	1.8076538265648273e-06	-3.964916674110744e-07	0.0027429454951011	-1.8091327055177672e-05	1.3345436658654852e-05	-0.00010412453048121723
2
253600
Ar	-1.3477107451891405e-06	-1.0948275648893424e-06	0.003225569314943324	-0.0003369100311788125	0.00012460823870783256	1.0036217994687904e-05
Xe	1.194928573372899e-06	-2.2770398394015178e-07	0.00274230980601457	-0.00010472197692062487	1.4111130667827162e-05	-2.7147551457418405e-05
2
253800
Ar	-4.057716370540756e-06	-9.850950646726775e-09	0.0032252757630769928	-0.0001921825709755444	9.700953706657283e-05	-6.267670093209686e-05
Xe	4.771761327882545e-08	2.9808961931672715e-07	0.002742375081151099	-0.00014906639190423164	8.503285375912714e-05	3.478224369197949e-05
2
254000
Ar	-4.966447642009496e-06	9.135122499291687e-07	0.0032245298657024714	8.031431579922314e-06	9.015705700079141e-05	-6.692031141544153e-05
Xe	-1.201753695679829e-06	1.1867878302967192e-06	0.0027429535909258076	-6.917749473964883e-05	7.208427561648181e-05	7.74303984157279e-05
2
254200
Ar	-3.6492574075933713e-06	1.4912831729878051e-06	0.0032240814514055095	0.0002261283624650371	1.4898918605253519e-06	-1.710402583582078e-05
Xe	-1.5666394424764513e-06	1.4751407318888185e-06	0.0027438124092562556	1.5134339032763526e-05	-4.517916701143614e-05	5.308927845386128e-05
2
254400
Ar	-7.801970350515873e-07	1.0906186110244528e-06	0.003224484637119872	0.0003240621968671467	-9.380493872079246e-05	6.618511917109116e-05
Xe	-9.77783588977103e-07	7.735045933725283e-07	0.002743797006630166	9.526512690590709e-05	-0.00010365411321731411	-7.431254915588934e-05
2
254600
Ar	2.513217540212158e-06	-5.157827194535879e-08	0.003225200126130519	0.00028979997796750665	-0.00011330147755423213	9.265793244619765e-05
Xe	-1.6797580298508854e-07	-4.799782299840985e-07	0.0027428713277767827	8.706577803365621e-05	-0.00012827625411499568	-0.00011713506590188049
2
254800
Ar	4.406137311941515e-06	-1.2157973204512992e-06	0.003225679504134653	7.277221900396182e-05	-0.00010655371959583338	-1.4652919895205448e-05
Xe	5.745235501297958e-07	-1.6909418609658319e-06	0.002742028944745406	6.416064561272867e-05	-7.418531412769149e-05	-4.229134429049098e-05
2
255000
Ar	3.8047952037335916e-06	-1.8293713001009056e-06	0.0032249253765987865	-0.0001787704965866029	-1.6181165500950502e-05	-0.00011260161129496585
Xe	1.335777761982527e-06	-2.127310829294788e-06	0.002741963872632818	6.323776537087797e-05	2.2528305377488228e-07	5.040869564238692e-06
2
255200
Ar	1.151746700953913e-06	-1.362425226480056e-06	0.0032238102780689174	-0.00032895945478509167	0.00010805498553010629	-6.13125706169549e-05
Xe	1.584620250334781e-06	-1.7301553747142814e-06	0.002742358188087016	-1.0709720199072378e-05	7.922681778609007e-05	6.750774568616245e-05
2
255400
Ar	-2.1241887201720913e-06	1.3090959212463966e-07	0.003223545907712695	-0.0003208912357683998	0.00016856651356832856	2.421092234253551e-05
Xe	1.1211544867016887e-06	-8.236159624541919e-07	0.0027428000605413793	-7.707833075546925e-05	9.684184275564776e-05	5.945059658005401e-06
2
255600
Ar	-4.840093619435571e-06	1.8184913600075731e-06	0.0032242614931092413	-0.00018228576662729013	0.00013829469302306156	0.00010655935371748258
Xe	4.313922462250799e-07	7.84890762692122e-08	0.0027428073741675232	-6.316862447616632e-05	7.18213646469112e-05	3.57603734479059e-06
2
255800
Ar	-5.494594619208423e-06	2.556900094315423e-06	0.0032251679209294015	5.43621287299836e-05	3.516714841313915e-05	6.28131366137312e-05
Xe	-1.3771137222456914e-07	6.11613521167147e-07	0.0027426315494575478	-5.1021335118545976e-05	4.6790676471243135e-05	-2.7149854330691163e-05
2
256000
Ar	-3.7354943053094995e-06	2.242789175399344e-06	0.003225184846580021	0.000288233910869131	-7.717482994336081e-05	-2.84745528340772e-05
Xe	-5.368193633829166e-07	9.246074974350961e-07	0.0027423488129045322	-1.1102814612136797e-06	2.804648329985624e-05	-2.4692974377052245e-05
2
256200
Ar	-1.9691035293795967e-07	8.738474966953994e-07	0.003224934388207954	0.00037408247332845437	-0.00018085247254361734	-4.282419599133249e-05
Xe	-5.059682104855071e-07	9.86833410555701e-07	0.002742100766049897	-9.114520636390675e-06	-5.196406920940826e-06	-2.768915580846032e-05
2
256400
Ar	3.2187442747135144e-06	-9.668205671472124e-07	0.0032246855125650157	0.00028755149106887966	-0.00017959396926944772	3.2997372553462943e-06
Xe	-3.694141964361107e-07	6.427413189509839e-07	0.0027421516240638683	3.684364184985826e-05	-3.908217779766082e-05	3.869268412363578e-05
2
256600
Ar	5.364851258175463e-06	-2.413044867376228e-06	0.0032245614578601243	0.000110322304488192	-8.194251354388122e-05	-2.5405932548332582e-06
Xe	5.2065216343597796e-08	9.82105331009755e-08	0.002742794383232341	4.794739636662346e-05	-6.512783259515938e-05	8.225471626039471e-05
2
256800
Ar	5.465924272750933e-06	-2.6970009733731843e-06	0.00322468145579066	-0.00010887054672630027	4.509721300063942e-05	5.2771779909146264e-05
Xe	4.5614987245848647e-07	-7.0548184896088e-07	0.0027434709273403295	4.39299811536402e-05	-8.026720392823958e-05	2.7941457438332268e-05
2
257000
Ar	3.009501202471087e-06	-1.8466925778680227e-06	0.003225066767847861	-0.0003470972898576898	0.0001302290789637995	3.7186925435572303e-05
Xe	7.76193382654854e-07	-1.2447158433926363e-06	0.00274343799370934	3.2364682189644954e-05	-5.0546570617739705e-05	-4.926952724894568e-06
2
257200
Ar	-7.433885765022443e-07	-1.3624681586240422e-07	0.0032253197648921613	-0.00037950997537862866	0.00019078407128424296	1.8281416222421543e-05
Xe	1.1164732135529924e-06	-1.4315342010643907e-06	0.002743517261149673	3.8489275284247414e-05	-1.045969755260344e-05	1.638837927970511e-06
2
257400
Ar	-3.943045899401123e-06	1.8103171821526598e-06	0.0032254074339224535	-0.00022080018665653463	0.00017799485312914107	-2.791660118428743e-06
Xe	1.1714133803460114e-06	-1.1833259056395726e-06	0.002743467624341755	-1.592742756912902e-05	5.7229873462870666e-05	-5.076271326437958e-06
2
257600
Ar	-5.1334356289622675e-06	3.034583613794556e-06	0.003225372484430939	-1.514261516442258e-05	4.6964880441821384e-05	-2.756227032442877e-05
Xe	6.61721999306768e-07	-7.309590926532032e-07	0.0027432167876880525	-5.9089502671124644e-05	5.117708541876388e-05	-1.681863186705808e-05
2
257800
Ar	-4.2185015031136544e-06	2.9608457505481182e-06	0.0032250247497989273	0.00018981567159623517	-5.838772937910662e-05	-4.731936328242238e-05
Xe	1.4126949978437903e-07	5.6218954695207995e-09	0.0027431281119101127	-5.9191393669564086e-05	9.076974440110063e-05	1.1531289675095985e-05
2
258000
Ar	-1.5016781279542024e-06	1.8641461974080294e-06	0.003224575689025567	0.00035120412211444126	-0.00015280412219724363	-4.6463389466468243e-05
Xe	-4.905735037173754e-07	6.114269788438723e-07	0.002743112846956605	-6.12422955791735e-05	3.8921018415393846e-05	-7.0110132185398045e-06
2
258200
Ar	1.7601006039611455e-06	7.390956051318714e-08	0.0032242575537190054	0.00027414492922102454	-0.0002032577740998663	7.889439967680649e-06
Xe	-1.1010974715507914e-06	8.971323350653575e-07	0.0027430154010202983	-4.903823162459361e-05	2.53332743922108e-05	-1.088141846607665e-05
2
258400
Ar	3.712065433614589e-06	-1.8065238582478687e-06	0.003224366144061852	9.094784066528116e-05	-0.00015876022318057244	1.2223022566661669e-05
Xe	-1.435269793015974e-06	9.60383241185785e-07	0.002742605107461627	3.5201492611358504e-06	-1.2215899722228473e-05	-5.0066962691479625e-05
2
258600
Ar	3.775748155172245e-06	-2.74747248913744e-06	0.0032246295130314378	-5.894800846211482e-05	-5.933468021823816e-05	4.0233317395487604e-05
Xe	-1.4956714235966122e-06	4.918804377899771e-07	0.002742190057915681	8.493619297690244e-06	-7.649782542675327e-05	-3.298398996163306e-05
2
258800
Ar	2.6132169489946787e-06	-2.6324217840369093e-06	0.003224885929788445	-0.0001722077504616557	9.384699342817385e-05	1.7093228085064203e-05
Xe	-1.0639813915870707e-06	-4.626053669145363e-07	0.0027419234561250005	9.923229981356853e-05	-7.813936589994605e-05	-1.6708898731343534e-05
2
259000
Ar	4.643368295225003e-07	-9.314695441189302e-07	0.003224761475217648	-0.00023393072369832837	0.00021011709597877192	-3.6688387211518415e-05
Xe	-1.2767146509606857e-07	-8.767971019590874e-07	0.0027417212729962206	9.77131852506173e-05	-1.5759671675890738e-05	1.0266650564178967e-05
2
259200
Ar	-1.7459761850466855e-06	1.2030681865569762e-06	0.0032243395397677185	-0.00018874626963678417	0.00020550642265926107	-4.4470851258208345e-05
Xe	7.550745414639673e-07	-8.633085481812842e-07	0.0027422382092259926	5.6775693275706256e-05	5.271434563398184e-06	6.939937911568999e-05
2
259400
Ar	-3.2139233815321737e-06	2.91908200068543e-06	0.0032240633493142686	-0.00011340784474146262	0.00012972910536411018	5.889917019942269e-07
Xe	9.633639737066625e-07	-5.247086524891975e-07	0.0027429639096283346	-1.975886616972702e-05	5.995836341117516e-05	6.251852704309335e-05
2
259600
Ar	-3.577598731705509e-06	3.4769419070331823e-06	0.003224568582889341	4.9789298689106963e-05	-3.1359896941576054e-05	8.818895655843536e-05
Xe	8.312797490817605e-07	6.851129081649159e-08	0.002743408535852319	-1.6717914113617262e-05	8.42223853979356e-05	3.5181338268359965e-05
2
259800
Ar	-2.3487966431456232e-06	2.671542933269637e-06	0.0032255604555106636	0.000208889239347187	-0.0001171032062951018	8.774355536822499e-05
Xe	3.6621057987521906e-07	9.399287030895655e-07	0.002743644448463685	-6.9802672505441e-05	0.0001001021909494755	2.6183670253069253e-07
2
260000
Ar	8.308313122238387e-08	7.926483714238758e-07	0.0032260535575899833	0.0002683546809171338	-0.0002541663621917789	-7.337388659300597e-06
Xe	-3.584741132845458e-07	1.6378903374538754e-06	0.0027435220744606386	-3.892985142042981e-05	2.97155611087384e-05	-1.2043758227166562e-05
2
260200
Ar	2.359941155066872e-06	-1.5975449966802826e-06	0.003225535014525255	0.0001859481110533973	-0.00019305362917741324	-7.833521116417213e-05
Xe	-7.459013559348319e-07	1.5402008226895834e-06	0.0027431453549117395	-3.364156218653146e-05	-4.826602252430086e-05	-4.028031208287471e-05
2
260400
Ar	3.3032994180091416e-06	-3.0986220925511588e-06	0.0032247502840852343	-5.8844793078842395e-06	-0.000102692922151697	-6.457447750768325e-05
Xe	-9.615046194014372e-07	8.196261570710932e-07	0.0027430453831897204	-8.172212090049513e-06	-9.594713500839418e-05	5.211765781197517e-06
2
260600
Ar	2.544276736585223e-06	-3.4531620994810204e-06	0.003224109101472574	-0.00013018505927790838	2.121598496728913e-05	-3.465885184896843e-05
Xe	-8.045156543276477e-07	-1.3889003892379833e-07	0.002742938164987391	2.3253707221371786e-05	-6.685275548746873e-05	1.2161938766354774e-05
2
260800
Ar	8.76552232948019e-07	-2.5222211707633775e-06	0.0032241087075923097	-0.00018954217623668013	0.00014936348733580817	3.2357067405392854e-05
Xe	-4.4760385113367186e-07	-5.109833958185233e-07	0.002742952725750781	4.6881457515008525e-05	-2.289826003862065e-05	-2.552579241455328e-06
2
261000
Ar	-9.420704468376997e-07	-5.573204926647979e-07	0.00322462062786301	-0.00016170032525090165	0.00022606419733194632	6.079258783255708e-05
Xe	-8.181449174494714e-08	-3.8087668951071175e-07	0.002743007373727884	3.561960695676659e-05	4.28987021988286e-05	-1.088977959610514e-05
2
261200
Ar	-2.103238618638244e-06	1.5653349885691807e-06	0.0032249750104379883	-7.628445514160255e-05	0.00016495109017618264	1.7628289396313372e-05
Xe	3.837262178820992e-07	2.7010908657301614e-07	0.0027426857244985127	6.490463664909946e-05	8.85701381712415e-05	-3.6031492230235346e-05
2
261400
Ar	-2.301157682191658e-06	2.716923428030273e-06	0.003225128227573286	3.998495129092764e-05	7.212898124199052e-05	5.26719527213948e-06
Xe	9.737069510671358e-07	6.287465172916565e-07	0.0027424499085078645	4.2816752863949166e-05	-7.21456641494833e-06	-2.3215257493325033e-05
2
261600
Ar	-1.5326272789529856e-06	2.533126506744278e-06	0.003224938852447302	9.83863473803736e-05	-0.00010384209923320677	-1.7580905354737537e-05
Xe	1.344869809500249e-06	5.008223274324145e-07	0.002742480315811622	2.108775416468543e-05	-3.7811587184947225e-05	3.7355715806808775e-05
2
261800
Ar	-1.0216211880551207e-07	1.1532620068080807e-06	0.003224545045625464	0.00017032033569633917	-0.00015375525168883134	-5.805783543638865e-05
Xe	1.467151747400865e-06	2.650063863647127e-07	0.002743017629816829	-1.1345508351528612e-06	-3.1939766418987215e-05	7.166590095332263e-05
2
262000
Ar	1.2415170152473492e-06	-4.991859714669486e-07	0.0032243506141812314	8.739963900142329e-05	-0.000179382959773257	1.88227359325231e-05
Xe	1.1316267368204023e-06	9.705776686488214e-09	0.002743659762537125	-5.432329712800536e-05	-1.696073381854854e-05	5.673688816564339e-05
2
262200
Ar	1.5982950248356676e-06	-2.047863884794218e-06	0.00322492000026296	3.2674761403601943e-06	-0.00011189621525781002	7.731624325735163e-05
Xe	3.828783902487922e-07	-3.4575028914723775e-07	0.0027438634186673864	-9.238559784439803e-05	-5.3321723772080246e-05	-1.338267520476265e-05
2
262400
Ar	1.192579319187143e-06	-2.5076746566501098e-06	0.003225583613969649	-9.4001495404658e-05	3.034364236244401e-05	4.321405544382782e-05
Xe	-4.922349677980748e-07	-6.848543867376193e-07	0.002743319943362496	-6.498912975160135e-05	-8.070289371199666e-06	-9.347627786734096e-05
2
262600
Ar	2.3798609494767594e-07	-1.5291523764405577e-06	0.0032256012518388126	-7.9096385799439e-05	0.00016034264007812774	-2.9610595192813254e-05
Xe	-9.461613493381734e-07	-5.01246922813944e-07	0.002742378836377028	-2.400791944363671e-05	3.7914612555358796e-05	-9.05585144324621e-05
2
262800
Ar	-3.073795312049347e-07	3.6536271517149033e-07	0.0032251850187119836	-2.7013859170705325e-05	0.00018919811941302625	-6.878649393189964e-05
Xe	-1.180598544039273e-06	2.093913038119408e-08	0.0027418816214552235	1.3358219083454608e-05	5.215344471967069e-05	6.754811903602232e-06
2
263000
Ar	-6.114668901987849e-07	1.8635758347413284e-06	0.0032246152842729144	-1.716390037382667e-05	0.00013126229741475942	-5.29431460121474e-05
Xe	-7.024479259272299e-07	4.956835615456739e-07	0.0027421554837697474	6.879959694326639e-05	4.5734198700394354e-05	4.651866651324409e-05
2
263200
Ar	-5.696999214073384e-07	2.570104013654876e-06	0.0032244866470342247	3.766831406142188e-05	8.633411468243e-06	2.3285441611539636e-05
Xe	1.8289780223076175e-08	7.827033888250963e-07	0.002742686780393248	7.501566672216676e-05	2.0653789294814817e-05	5.6978036483851214e-05
2
263400
Ar	-2.5086926380564394e-08	2.010748231585609e-06	0.0032246416622690966	4.767880834183218e-05	-0.00011800943621031975	5.1913995699272066e-05
Xe	5.178019831399335e-07	9.322589608660955e-07	0.002743235905755902	3.544041709774493e-05	2.267937343325966e-06	3.7763823797564945e-05
2
263600
Ar	1.867639736056044e-07	4.6582907235843306e-07	0.0032253212458632197	1.2480311861399891e-05	-0.00017950289718074553	8.365292113153057e-05
Xe	7.539326012796546e-07	7.067905776335539e-07	0.002743461792469888	1.716221292944069e-06	-5.423075200562217e-05	2.0010486672189534e-05
2
263800
Ar	4.551395757362578e-07	-1.4610867681501564e-06	0.0032260262862838555	1.4019381129370579e-05	-0.0001849237565835102	4.165458407735149e-05
Xe	9.020343306855194e-07	3.2811967413597614e-07	0.0027434873135959957	6.880108411747062e-06	-3.5755779176503895e-05	-2.901812261701536e-05
2
264000
Ar	2.3779992416434362e-07	-2.8164847924547237e-06	0.0032259736141962703	-3.733871040217114e-05	-7.422410169267709e-05	-4.813021368637319e-05
Xe	6.018713577410841e-07	-2.594362533944535e-08	0.0027431245565439893	-7.072724106032703e-05	-3.7029280096903944e-05	-3.783418154824292e-05
2
264200
Ar	-6.610179770765564e-08	-2.8293511734172978e-06	0.00322496700089764	-1.0495424129926738e-05	6.865332327875586e-05	-0.0001210654249022017
Xe	-2.2186328182030807e-07	-4.950071559169975e-07	0.0027427514037300237	-6.699102064435496e-05	-2.8733964946901535e-05	-2.554239202581608e-05
2
264400
Ar	-2.540235312712013e-07	-1.6035846598554253e-06	0.0032237013866029916	-2.344361987411888e-05	0.00017362762630949494	-9.956212666722117e-05
Xe	-9.124499519944968e-07	-6.725484390004836e-07	0.002742708422909614	-7.264460563462018e-05	1.332961090312017e-05	-4.6753770399543296e-06
2
264600
Ar	-3.2510610325479527e-07	3.507117296681534e-07	0.0032232146015354138	1.2398100735063087e-05	0.00020069582025696584	1.826793753029543e-05
Xe	-1.29704278855865e-06	-4.375351108966643e-07	0.0027424169331225004	-6.9998151349394065e-06	1.6551366767133582e-05	-1.9705640480993872e-05
2
264800
Ar	1.1227789046587989e-07	2.1890842515250843e-06	0.00322405001488217	5.948167259261118e-05	0.00014277522748657446	0.00017392714035034706
Xe	-1.1933727008178806e-06	-2.2660801943683464e-07	0.002742488150450299	4.371395682138635e-05	1.776619650837552e-05	6.7871499815753545e-06
2
265000
Ar	3.4516041950230175e-07	3.074918693746474e-06	0.0032257475741219095	-5.6135693608560045e-06	3.716051436446845e-05	0.00015597744369431768
Xe	-5.032560530955572e-07	7.065289579504771e-08	0.0027425769050118207	8.399586909811086e-05	4.8756351669667716e-05	2.1453971677844583e-05
2
265200
Ar	2.6845816812844506e-07	2.819557072504278e-06	0.0032267529872198994	-2.612735309521836e-05	-0.0001171869640822882	3.7287623347399974e-05
Xe	3.3136114485346806e-07	4.974549265851069e-07	0.002743010440351916	6.761392236922388e-05	5.725093868617258e-05	5.015202610416521e-05
2
265400
Ar	-9.619563775850466e-09	9.338444012776416e-07	0.0032264699991396448	-2.3112841312361142e-05	-0.00022354227468200294	-0.00010249476941927913
Xe	7.395698975160284e-07	7.78137407777738e-07	0.002743348364280408	2.625254909959286e-05	1.2823240296073024e-05	2.6363127244139804e-05
2
265600
Ar	-1.2091733794679207e-07	-1.2262084556767466e-06	0.003225046783334862	-3.693286961680649e-06	-0.0001867243535147607	-0.00014318729809697806
Xe	9.732731990337027e-07	7.288564687031032e-07	0.002743319364953323	1.4300980010077637e-05	-3.1124548712689844e-05	-3.6833755029937624e-05
2
265800
Ar	-2.1554640642020726e-07	-2.75998668829766e-06	0.003223643029445719	-2.723596327839307e-05	-0.00010482242463837365	-0.00011044231596351202
Xe	8.641569308118703e-07	1.9067496822967414e-07	0.002742823517340231	-2.441179146002748e-05	-7.895775233243506e-05	-5.0163368141395055e-05
2
266000
Ar	-3.7938309093522283e-07	-3.3844786585102474e-06	0.0032233216767788854	2.3514105461484003e-05	6.394906202315817e-06	3.776613497662084e-05
Xe	2.652868439565503e-07	-7.721265721553886e-07	0.00274268817523028	-8.944102150812739e-05	-0.00011869101674541569	-4.252927726055946e-06
2
266200
Ar	-1.1669882523177828e-08	-2.262269837818916e-06	0.003224017006386415	3.79979645847515e-05	0.0001869857124024916	9.835374909363395e-05
Xe	-4.4143833862272927e-07	-1.615068261799258e-06	0.002742488598663969	-5.2787760360293765e-05	-4.6032776145767714e-05	-5.350020661081433e-05
2
266400
Ar	3.024596983138638e-07	5.191179624157214e-08	0.0032248078242357856	2.963367569714329e-05	0.00023534022746491304	6.094739286019708e-05
Xe	-1.1131784459143706e-06	-1.5258291330927168e-06	0.002741986409271909	-4.853666751760603e-05	5.697035858088979e-05	-6.475133982498398e-05
2
266600
Ar	6.450883745275764e-07	2.3831936767400733e-06	0.0032251091448337547	4.086739304445007e-05	0.0002174262362277032	1.897891447354872e-05
Xe	-1.2178953682672823e-06	-7.383582060817297e-07	0.0027417110501717122	3.2710839958403094e-05	9.865683279433825e-05	2.871675913857749e-05
2
266800
Ar	6.959879566149029e-07	3.8625273956241416e-06	0.003225301705720421	-3.350652996396596e-05	8.108524052422214e-05	1.0391959467236114e-05
Xe	-7.016129410269673e-07	4.2629515143682313e-07	0.0027423890473019115	8.211596748422518e-05	0.00010404632054454548	0.00010011013474050298
2
267000
Ar	3.0309085925532886e-07	3.7449396851099286e-06	0.0032249536151190295	-5.8602128592536344e-05	-9.450251885455566e-05	-5.922763555552626e-05
Xe	2.4671142710350785e-07	1.263127307154805e-06	0.00274317973906096	0.0001013646512921996	8.900537983146906e-05	4.940283626762107e-05
2
267200
Ar	-2.7206555961665805e-07	1.6837617782166754e-06	0.0032244951083877857	-4.781117008842988e-05	-0.00029594115188409203	-5.487993138482031e-05
Xe	1.0388626036613977e-06	1.6048199863058203e-06	0.002743516583341321	6.505271970782634e-05	-1.2891170595470509e-05	1.1212760128299697e-05
2
267400
Ar	-6.59262017932613e-07	-1.3463972216746007e-06	0.0032241549859136137	-3.6030708612570794e-05	-0.0002903784098062305	2.5093623651235883e-06
Xe	1.491785967653292e-06	1.1898283957170737e-06	0.002743283152360077	3.278686680945107e-05	-8.48710768614936e-05	-3.967209706484301e-05
2
267600
Ar	-7.816994648197091e-07	-3.6851248114568646e-06	0.003224361312523048	1.6150599975404963e-05	-0.0001598072759360578	3.517682680039873e-05
Xe	1.70395941029863e-06	3.060195459174049e-08	0.0027428019916155787	6.509650859692044e-07	-0.00010536097675362539	-5.003293589795433e-05
2
267800
Ar	-4.3882668792446697e-07	-4.3099070647578194e-06	0.003224749170232113	4.5938673073685694e-05	5.552253151236736e-05	5.488518292365299e-05
Xe	1.3166902106028061e-06	-9.575685514678746e-07	0.0027424460276590473	-7.79605137643509e-05	-6.447185911918378e-05	-2.9914976623145797e-05
2
268000
Ar	1.2942853846557556e-07	-2.9637984423399007e-06	0.003225076920493142	7.007412075490402e-05	0.00021564031480402295	-1.4999292908510167e-06
Xe	2.0834526865653343e-07	-1.2659333022051244e-06	0.0027424916549260324	-0.00012735895292298444	-4.0948976721487606e-06	3.3888045861186e-05
2
268200
Ar	4.7203364226672485e-07	-4.070250246179063e-07	0.0032248518364640317	1.8260742608954528e-05	0.0003019657074629806	-4.367119740104131e-05
Xe	-8.326183849923235e-07	-1.0723142775530461e-06	0.0027431873698572644	-6.936115932191855e-05	5.853545414364347e-05	6.77020820662195e-05
2
268400
Ar	4.1620951040743303e-07	2.29010029992934e-06	0.00322441822580933	-4.294983283471432e-06	0.00021799384991353352	-3.384603154900012e-05
Xe	-1.3631255165575382e-06	-2.1350691401874157e-07	0.0027435645435600637	-2.554751784175828e-05	8.059779301520986e-05	-8.085298002422245e-06
2
268600
Ar	5.794479524029025e-07	3.6411268370239486e-06	0.00322426455373267	3.1955478678326884e-05	5.856447554870816e-05	6.044674196518556e-07
Xe	-1.3767947569400528e-06	6.781597920320756e-07	0.002743131012227322	2.7016507983994567e-05	9.395851572175889e-05	-7.98289531897399e-05
2
268800
Ar	6.456195428139071e-07	3.465100868715926e-06	0.0032245169771079095	6.019316615649735e-06	-9.674189213813831e-05	4.084939181387961e-05
Xe	-9.164619644121966e-07	1.3135755131298133e-06	0.0027425761113872367	5.853625227887623e-05	3.715185003903184e-05	-4.356618361657931e-05
2
269000
Ar	3.0699983641674966e-07	1.909182471009375e-06	0.0032248738323520064	-4.6230450881673986e-05	-0.00021931725988606483	2.7836842423730864e-05
Xe	-5.137063126739934e-08	1.5073150078643519e-06	0.0027423777940876045	0.00010986299049898944	5.44091503904881e-06	-1.2048974198506115e-05
2
269200
Ar	-9.251668189766021e-08	-6.603678780392676e-07	0.003225172602805594	-3.0458642013160475e-05	-0.0002639535011423753	1.4765823310918917e-05
Xe	9.870529294726887e-07	1.3612031645996212e-06	0.0027426277128056067	0.00011005869774510709	-3.7129778811543105e-05	5.1082738296606884e-05
2
269400
Ar	-1.351113893355476e-07	-2.7512466200575726e-06	0.00322509767096406	-1.907491433816572e-05	-0.00013730674535828352	-2.5961039401941997e-05
Xe	1.7524981071651142e-06	9.804744468026336e-07	0.0027430240523448005	3.8937404893886956e-05	-3.466728407375077e-05	2.0972080815753688e-05
2
269600
Ar	-3.7812797115388514e-07	-3.5113299134084204e-06	0.003224639293139539	-2.6364341641446612e-05	-8.105008063984445e-06	-5.431585853295588e-05
Xe	1.8616406004355246e-06	5.07087084157131e-07	0.0027431585495975934	-1.020054327844237e-05	-6.141378525827783e-05	-7.718858085525723e-06
2
269800
Ar	-6.009539737937446e-07	-3.026739427041702e-06	0.0032241103083441138	-2.6592457304882586e-05	0.00010469295317881757	-2.7802857906336722e-05
Xe	1.334146735618307e-06	-3.0775529570783444e-07	0.002742968189035897	-8.154487186503468e-05	-0.00010131277489599033	-4.284354186836709e-05
2
270000
Ar	-9.234180356417284e-07	-1.3754460769574376e-06	0.0032241033327622772	-2.405484783307668e-05	0.00021346287715436646	3.32352241280135e-05
Xe	1.9484552181883449e-07	-1.0943704689036934e-06	0.0027422323098373522	-0.00011942984575184123	-2.92147265524193e-05	-9.433911532627821e-05
2
270200
Ar	-1.020756694104599e-06	1.0334436558743512e-06	0.0032246411451106525	9.03696088242214e-06	0.00023035128103704683	9.020202252031287e-05
Xe	-1.2370895135954986e-06	-8.857400461306481e-07	0.0027417620534821914	-0.00012718022719306526	3.187207282341286e-05	-2.677766366757097e-06
2
270400
Ar	-5.817687233657134e-07	3.2521479612061725e-06	0.0032253096288191716	9.792892994732236e-05	0.00018677422628111514	5.074887170956987e-05
Xe	-2.064772206704484e-06	-4.748478304384708e-07	0.0027418773069002116	-3.6237646134850165e-05	5.6524796107404964e-05	4.3307262964807546e-05
2
270600
Ar	6.153704095666212e-07	4.2741269164190705e-06	0.003225566109349913	0.00012330365695854438	1.0992722997830552e-05	-7.35105599254358e-06
Xe	-1.7896678703576532e-06	2.872114505819531e-07	0.0027427674106783205	5.8344002524952546e-05	9.76992757721121e-05	0.0001073081229153831
2
270800
Ar	1.549318692132207e-06	3.342640384333964e-06	0.00322528957291079	5.9656335825428385e-05	-0.00019337215976346182	-4.086463323063086e-05
Xe	-7.801084570942767e-07	9.678193394833698e-07	0.002743960296830631	0.0001232264760543818	4.885327596492096e-05	0.00011195803508416721
2
271000
Ar	1.8094361254988885e-06	7.138746989498103e-07	0.003224990946728311	2.4833677837324564e-06	-0.00031833022151375533	-1.8747978864739253e-05
Xe	5.33298605583886e-07	1.1762196866559824e-06	0.0027444613355783326	0.00012838735028567047	-8.573609817149018e-06	2.370073941104109e-07
2
271200
Ar	1.5487091546745174e-06	-2.4056710354515018e-06	0.0032249773910904486	-4.747597969897831e-05	-0.00026079677580880147	2.178073305457612e-05
Xe	1.4224283679664451e-06	8.21019700205941e-07	0.002744045341125036	4.535294253687891e-05	-6.889951520567832e-05	-6.356891170861245e-05
2
271400
Ar	7.971838552309732e-07	-4.30973047262416e-06	0.0032252373868196745	-9.869558255261304e-05	-0.00011356535620386456	2.3200280934618323e-05
Xe	1.6853631912007057e-06	6.968761912020523e-08	0.0027428932016505176	-7.659078028904189e-06	-6.894496416099767e-05	-0.00011772669095126593
2
271600
Ar	-3.4509301325877677e-07	-4.315479429710097e-06	0.0032252811662132792	-9.16877716113007e-05	0.00011114324428430688	-2.722034519315956e-05
Xe	1.300322252218347e-06	-6.931854916924654e-07	0.002741928362871931	-9.654131092639414e-05	-5.605462497263738e-05	-5.2989259391559986e-05
2
271800
Ar	-1.1061932857496307e-06	-2.4747308486636028e-06	0.0032247645183543197	-3.1669331910623854e-05	0.00025996501261274307	-7.268779835071457e-05
Xe	1.7050885136005438e-07	-9.651965892619664e-07	0.002741819249144755	-0.00012028990717998703	-8.427707985626665e-06	1.7126311521580845e-05
2
272000
Ar	-1.0674897940069882e-06	4.124156574062352e-07	0.0032241963037556312	3.4792225737794405e-05	0.00030063703590575133	-6.035886572312746e-05
Xe	-8.508405365352535e-07	-9.479234168211067e-07	0.002742347274765324	-5.757314738103772e-05	4.684579127705677e-06	7.566967891485552e-05
2
272200
Ar	-5.431815149709197e-07	2.8284015958427222e-06	0.0032238125592815334	7.517409292973466e-05	0.00017097559467758113	-3.3138814370893996e-05
Xe	-1.3499082325846499e-06	-7.547767650308651e-07	0.0027430159510998964	-2.411408726352495e-05	2.7187684791585496e-05	5.3857099964271164e-05
2
272400
Ar	3.077060445437453e-07	3.6325363520135e-06	0.0032241407775237415	7.135080876141332e-05	3.9111020883065125e-07	7.390257378168873e-05
Xe	-1.2230755248819766e-06	-4.043083320054449e-07	0.002743281632169853	4.8573424547306724e-05	4.801111753091756e-05	9.525054952662723e-06
2
272600
Ar	7.956080255676917e-07	2.5374140482881904e-06	0.003224866803404244	2.0160748453028067e-05	-0.00017867726866657588	6.761310661868838e-05
Xe	-7.206212432860809e-07	1.0369821836175921e-07	0.002743208907873445	6.613471809650514e-05	5.9838362563697854e-05	-3.694655592513543e-05
2
272800
Ar	7.570699636249387e-07	1.593898309830518e-07	0.003225461945155186	-1.5358202615421156e-05	-0.0002498576928249398	5.2706154097673735e-05
Xe	2.452656273773605e-07	6.897104237625925e-07	0.0027427493561410668	8.494472232431908e-05	6.327522553519244e-05	-5.484150451068546e-05
2
273000
Ar	4.776699308341502e-07	-2.3964511139624444e-06	0.003225692862113281	-2.7259430973025728e-05	-0.0002497002060170726	-2.2405845469608156e-05
Xe	1.096441623878333e-06	1.191249532658223e-06	0.002742235598014212	5.284909534848255e-05	1.308705054977973e-05	-2.3815738044668232e-05
2
273200
Ar	-6.527420780105013e-08	-4.443260543084308e-06	0.0032247708815599206	-6.704917810684146e-05	-0.00013039083998568222	-0.00015237635409161296
Xe	1.303115935815402e-06	1.127518794776982e-06	0.002742322404839216	-1.9081918752878913e-05	-4.4590465778179994e-05	3.914169018788238e-05
2
273400
Ar	-7.352776479505593e-07	-4.892969546112914e-06	0.003223654779213318	-7.32878317946584e-05	6.40050149810188e-05	-7.971137368691794e-05
Xe	9.503604388067497e-07	5.354426874762046e-07	0.002742421033885353	-5.9045028316973896e-05	-7.748836911000985e-05	-5.5730595241307745e-06
2
273600
Ar	-1.211240146646901e-06	-3.071253066749753e-06	0.003223393327355256	-1.5114593807065603e-05	0.0002728898493881073	2.1603585707272535e-05
Xe	-1.39415153183412e-08	-2.437219147132916e-07	0.0027425232861853937	-0.00012450037543936817	-7.155076821945245e-05	2.613402201296939e-05
2
273800
Ar	-9.929521653425809e-07	-1.298014980322636e-07	0.0032240915117064855	4.3183585552382274e-05	0.0002985537020773044	8.681263868808637e-05
Xe	-1.1471035142593774e-06	-7.447009027138126e-07	0.002742917144041953	-9.595495404683941e-05	-3.0465956820860292e-05	4.4044242675837176e-05
2
274000
Ar	-8.734751228871948e-08	2.463175129593636e-06	0.003225044325888561	0.00011949793476449825	0.00018690984752783312	8.337073190391732e-05
Xe	-1.7389311244759718e-06	-8.188152172467391e-07	0.0027433327583532745	-1.6697744697726082e-05	3.235413118821785e-05	1.3108983247295524e-05
2
274200
Ar	1.0921399096322046e-06	3.670589563995917e-06	0.0032259119981034143	0.00010092345049055358	4.538121896554888e-05	6.312866274877037e-05
Xe	-1.3002123817199225e-06	-3.302106731520837e-07	0.002743110125175208	0.00010118232760166146	4.9669936347895014e-05	-5.347443680732471e-05
2
274400
Ar	1.7964622464301665e-06	2.960845232484012e-06	0.0032259954007464423	2.0022382154836468e-05	-0.00016496984245150827	-5.215429735390357e-05
Xe	-3.676328515517622e-07	1.6720264476952448e-07	0.002742829525873239	8.71291963753582e-05	4.1572475234840556e-05	1.5098997988371117e-06
2
274600
Ar	1.6844854820398739e-06	7.601222516786284e-07	0.00322515956882172	-5.7250095465457875e-05	-0.0002371440458877027	-0.00011882216343832621
Xe	5.336877037635898e-07	5.538878903727182e-07	0.0027428254662514736	6.499195139326708e-05	1.950683291320047e-05	2.5105717513498406e-06
2
274800
Ar	6.003307148500182e-07	-1.4503863352721657e-06	0.003223936225959327	-0.00013136996605622614	-0.0001973016218081096	-8.730561626619535e-05
Xe	9.127142184090994e-07	6.748706597090117e-07	0.0027427264536965894	1.3371951325820696e-05	1.3176781731848688e-05	-1.2111454339147445e-05
2
275000
Ar	-7.516992548192641e-07	-3.0090773234410968e-06	0.003223496362039508	-0.00011308271299369997	-9.13291630668154e-05	3.1231670081985693e-06
Xe	5.832997898353391e-07	7.861915628332449e-07	0.002742353682108902	-3.1439567105199154e-05	4.026022490173086e-06	-4.485861632725399e-05
2
275200
Ar	-1.5797352404196153e-06	-3.0452001946489252e-06	0.0032239264343293015	-7.430692795588453e-05	5.423120988578891e-05	6.026189153523536e-05
Xe	2.3063844712610932e-07	7.553209495443942e-07	0.0027418301514037335	-4.2582202773429226e-05	-1.219302511207653e-05	-2.4853308043434067e-05
2
275400
Ar	-1.9127800994040407e-06	-1.718342646433841e-06	0.003224834745985469	1.2763373562409452e-05	0.00018058493358264188	7.431509598358364e-05
Xe	-8.092137865226018e-08	3.6503969404689555e-07	0.0027418361118160613	-1.5588615780331796e-05	-6.601281338023935e-05	4.296672146366729e-05
2
275600
Ar	-1.2887739942525214e-06	6.061171846567997e-08	0.0032251621336283733	0.00011558601022157202	0.00019032188051488837	5.377452254685854e-06
Xe	-1.418071595113721e-07	-2.507782364126954e-07	0.002742529525922009	7.545925648847793e-06	-4.569961817384233e-05	0.00011141639255306294
2
275800
Ar	1.1876105746364058e-07	1.4999565390853092e-06	0.0032250671600409743	0.00014700668978563343	0.00011221408307386327	-3.835499624378417e-05
Xe	-1.996579180376207e-07	-7.567196603409103e-07	0.0027434865546380896	1.7485038594042357e-06	-3.634529124679911e-05	7.142455641115199e-05
2
276000
Ar	1.4840721607444584e-06	2.367814961646607e-06	0.003224487625323234	0.00012591886464274787	3.85849769190928e-05	-5.590801945101788e-05
Xe	-2.98466616785799e-07	-9.327361246940618e-07	0.0027438753250058835	2.670185387626644e-06	9.073758833427443e-06	2.8207155179424104e-06
2
276200
Ar	2.102210372733362e-06	2.0459315389040662e-06	0.0032242657454493117	1.367284016995761e-05	-9.375358309205104e-05	1.1341696719734111e-05
Xe	-1.0220686482809704e-07	-5.648923228492745e-07	0.002743375688180073	3.752788669712017e-06	4.8797066124197433e-05	-7.671135116072912e-05
2
276400
Ar	1.8930469036202284e-06	7.92813425013764e-07	0.0032246700267835825	-5.735240983212027e-05	-0.0001237182587047703	3.7968810575961956e-05
Xe	3.4145981782759224e-08	8.76637007817514e-08	0.0027426243415949823	9.886378503573668e-06	7.239206312043751e-05	-6.864863502099279e-05
2
276600
Ar	1.2473710518730773e-06	-8.445345487633453e-07	0.0032250076384671834	-9.021348109819965e-05	-0.00018448063492228233	2.4777775658434163e-05
Xe	1.8576629055358626e-07	6.036657878730268e-07	0.0027420489028324346	1.747553555013174e-05	2.1380538255205193e-05	-8.045190659122967e-06
2
276800
Ar	3.6788936588576604e-07	-2.353006779395305e-06	0.003224954547673258	-8.298006676801055e-05	-0.00011611675026777121	-3.009656117827166e-05
Xe	1.6837926102533896e-07	5.509802055074817e-07	0.0027425833150002137	-2.91710939431254e-06	-2.00039427543547e-05	8.487980255204007e-05
2
277000
Ar	-4.6780373971677427e-07	-3.027770164581572e-06	0.003224771492833737	-7.693552701479939e-05	-1.3444967486942022e-05	-8.994068794159692e-06
Xe	-2.498077315729787e-08	1.6190422520171345e-07	0.0027433032235352917	-4.0689702333761085e-05	-5.0559670404358283e-05	2.9621984000789436e-05
2
277200
Ar	-1.171351831903805e-06	-2.591655943479539e-06	0.0032248580473019537	-7.352737117853572e-05	0.00010038366908187407	2.637855475526351e-05
Xe	-3.4804698928064645e-07	-6.077680755395568e-07	0.002743367742799498	-3.874234245207416e-05	-8.5657124774098e-05	-1.885462021295403e-05
2
277400
Ar	-1.4401925079671494e-06	-1.2985306211513476e-06	0.003224930525605933	3.524303471212307e-05	0.00015936190426323442	-7.75283899147819e-06
Xe	-6.254305457450252e-07	-1.5147071964245549e-06	0.0027430250446643985	-1.633696821223994e-05	-6.204482595007796e-05	-2.5953391397135046e-05
2
277600
Ar	-7.144891122295101e-07	7.196811307264951e-07	0.003225191870427161	9.60211499616282e-05	0.00021266802191775315	3.218451147147406e-05
Xe	-4.281993230679716e-07	-1.7722922813503043e-06	0.0027429284179233283	3.684280918375176e-05	1.9604038391256764e-05	-1.1595660453579078e-05
2
277800
Ar	1.795628578016451e-07	2.5336865168628324e-06	0.003225157965124115	9.022425833085329e-05	0.00013028403056383	-5.0200626100969234e-05
Xe	2.7225375744187204e-08	-1.2820944879902137e-06	0.0027429357474200128	4.062519897128436e-05	9.034182136307801e-05	-8.167874210505698e-07
2
278000
Ar	1.1765108808035564e-06	3.1536372969232913e-06	0.003224680196744645	9.471690270163446e-05	-5.994066478475094e-07	-1.4022776427215765e-05
Xe	1.0396084741220596e-07	-2.2771701870454995e-07	0.0027429394896103434	1.4442727105284398e-05	0.00012768469117195109	-1.2809170495467873e-05
2
278200
Ar	1.8034482482179607e-06	2.5011052407303178e-06	0.003224682979741286	3.0384608953074583e-05	-0.00012134611143884551	3.226571127485367e-06
Xe	2.40838323250022e-07	1.0979708884216388e-06	0.0027427289571207193	8.1355150876939e-06	0.00010469271008166531	-2.1708266545627797e-05
2
278400
Ar	1.6644008517641736e-06	6.485852523717685e-07	0.0032248177075672917	-5.397736153654784e-05	-0.00019622510688780144	-9.899024489542841e-06
Xe	3.050505097958236e-07	1.9026954790174436e-06	0.0027424245786033634	-1.0730189637455423e-06	4.9883747398226896e-05	-1.093729183470903e-05
2
278600
Ar	6.649000035565812e-07	-1.5653681436114335e-06	0.0032247942428157224	-0.0001439858883116333	-0.00021464469153155587	4.799819584459929e-06
Xe	2.786815808947073e-07	2.0863415453281178e-06	0.0027424388158703997	-2.0441001446759e-05	-2.536628125831993e-05	5.405055007608261e-06
2
278800
Ar	-9.83968941952327e-07	-3.196655495636825e-06	0.003224823158457805	-0.00016590282403025473	-8.661241539386163e-05	-2.7080798685211923e-06
Xe	-5.675563580084694e-09	1.349748489740404e-06	0.002742834652902199	-4.1257664644297656e-05	-8.794033163500228e-05	6.837919623322256e-05
2
279000
Ar	-2.262321467568602e-06	-3.2434244102704923e-06	0.0032249412630215857	-7.988376758839556e-05	6.695621439096895e-05	3.4375890723478586e-05
Xe	-2.602132953673846e-07	3.006659800581158e-07	0.0027435065915704447	5.881317831544329e-06	-0.0001312151078042711	6.191130876822592e-05
2
279200
Ar	-2.568430313669295e-06	-1.929513912312865e-06	0.0032253582515798136	3.7808868598504714e-05	0.0001695689064180542	6.235343672592897e-05
Xe	-6.372153210341447e-08	-8.961652437303817e-07	0.0027436434472778164	1.65474742972821e-06	-9.45127050235661e-05	-4.419120463517251e-05
2
279400
Ar	-1.7289526903435936e-06	2.68353767477929e-07	0.003225706936167803	0.00012294740327244293	0.00023407288362577784	-1.0979171480358224e-05
Xe	2.43379778124176e-07	-1.4724448736152614e-06	0.0027430294538511035	3.372153161121661e-05	-3.297941000870194e-05	-7.846298650304484e-05
2
279600
Ar	-5.131391732266472e-07	2.4027576784962932e-06	0.0032254120503072163	0.0001469612573439173	0.00016148143693738297	-4.2943206292304066e-05
Xe	4.036606426015655e-07	-1.3523086377308419e-06	0.0027423183868788476	-5.043999103294868e-06	5.244966616204509e-05	-6.478439074253126e-05
2
279800
Ar	1.0092443218220918e-06	3.3366530367013294e-06	0.0032250008603550363	0.0001659258619997648	3.9920811196575824e-05	-4.243086425920528e-05
Xe	4.5769085859886374e-07	-4.0004022093958896e-07	0.0027421260647355274	1.966237634948984e-05	0.00011164010466965907	4.219865080091807e-05
2
280000
Ar	2.0862702104483074e-06	3.099665359537313e-06	0.003224419109704724	7.886609667819437e-05	-0.00011222258396784366	-6.439462097884795e-05
Xe	4.1783631599333996e-07	9.286849683981214e-07	0.0027427682451670325	-3.369139301226737e-05	0.00013237535826225356	8.046131489211248e-05
2
280200
Ar	2.3933566578910855e-06	1.2790587466369235e-06	0.0032241818046450923	-3.830107617200984e-05	-0.00026187632604468796	3.579835599476806e-05
Xe	-2.2307196695918004e-07	1.7218162250093456e-06	0.002743640001424793	-5.9379928442468606e-05	3.534768804369059e-05	6.991293543293562e-05
2
280400
Ar	1.4594798996336152e-06	-1.5788699565146133e-06	0.0032249329248771803	-0.00013947971340256686	-0.0002793827653127383	7.475718723772958e-05
Xe	-6.807837234485455e-07	1.7953337572467188e-06	0.0027437596156283488	-5.611943241309434e-05	-2.2503592067929844e-05	-6.180296577155453e-06
2
280600
Ar	-2.722430237527246e-07	-3.5932309125071704e-06	0.0032254546938602405	-0.00019125579144472482	-0.00011873157455204765	3.534624442554687e-05
Xe	-1.0540107473417328e-06	1.371104152096511e-06	0.0027432074178458505	1.8841326031092377e-06	-5.9200319736076444e-05	-0.00010381338369825853
2
280800
Ar	-1.7152231937211582e-06	-3.941519954524754e-06	0.003225210295214651	-9.625051386742228e-05	4.7191017849543244e-05	-7.805643887113128e-05
Xe	-8.26109215213343e-07	6.108120809220717e-07	0.0027420965115108526	5.4461952935636385e-05	-8.474337499966863e-05	-5.9859728876591363e-05
2
281000
Ar	-2.227366189995729e-06	-2.8064387299887866e-06	0.0032242516356489376	4.273877661435929e-06	0.00017769835387074215	-0.00010234694828606903
Xe	-1.2431667115562553e-07	-2.2450431614541048e-07	0.002741836898416583	9.955893757319981e-05	-7.106789009297531e-05	-7.934151358673954e-06
2
281200
Ar	-1.8682914009730474e-06	-7.737542145533109e-07	0.0032234734589397253	6.166876358932782e-05	0.0002360520100636403	-3.56465912778812e-05
Xe	8.725248580352861e-07	-6.625451633444455e-07	0.002742066846175078	0.00010107483429350795	-2.6871891985393727e-05	4.387878112558438e-05
2
281400
Ar	-1.2796791900448624e-06	1.2889933371009563e-06	0.003223646769365113	6.253701927655054e-05	0.0001699221093522386	4.397907922482396e-05
Xe	1.3145880314183862e-06	-8.293847689438474e-07	0.0027423593126374244	-1.3649367358185998e-05	-9.090825816591284e-06	8.513925123293687e-06
2
281600
Ar	-3.5882689171523593e-07	2.5422934270272768e-06	0.0032245318128060535	0.00011219888368461393	7.737257821198814e-05	0.00010601336580489492
Xe	5.560611320761388e-07	-6.599466597482017e-07	0.002742321495023291	-0.0001145538676113803	3.384427632232461e-05	9.946547083202341e-06
2
281800
Ar	6.809585944061958e-07	2.582238218936147e-06	0.003225532794515889	0.00011351680256155063	-5.036227067102235e-05	8.26246112727803e-05
Xe	-7.572445666698425e-07	-1.4486909077459872e-07	0.002742805117635363	-0.0001401182805350925	5.381178396838031e-05	5.3053962179557134e-05
2
282000
Ar	1.596404855625463e-06	1.4652709696446255e-06	0.0032260333696203175	8.872416876188626e-05	-0.00015482963959886274	1.9476259019557384e-05
Xe	-1.7150962706007839e-06	2.9095569441149274e-07	0.0027434207511508497	-4.329401571579869e-05	2.5399082278524213e-05	6.904931970867386e-05
2
282200
Ar	1.986025976070651e-06	-2.813662157479079e-07	0.0032256200845874414	1.0108155069963264e-05	-0.0001723681371033944	-7.641983332196901e-05
Xe	-1.7934530936864517e-06	3.2691873264627595e-07	0.002743859396592315	3.154111260466064e-05	-2.0418762210070037e-05	2.265988275072161e-05
2
282400
Ar	2.1684819232450515e-06	-1.8951947297745364e-06	0.0032247482774455036	-1.0394301716950495e-05	-0.00011806272552417349	-7.946768299279018e-05
Xe	-1.0659510273488464e-06	9.353806242776229e-08	0.002743732527109419	0.00011819506715785685	-3.9457389060073155e-06	-4.59688504447524e-05
2
282600
Ar	1.6396027621613937e-06	-2.5577218126664447e-06	0.0032244955222478235	-9.411359057658868e-05	-3.134000431873534e-05	3.531243324510203e-05
Xe	1.2579605826736838e-07	1.6615379684579537e-07	0.002743066654416307	0.00014181261072008242	1.4107126443971373e-05	-9.154540276395801e-05
2
282800
Ar	4.09770967465641e-07	-2.378172672562505e-06	0.0032249071418327196	-0.0001578388156638392	7.009680922525603e-05	4.7214238779031296e-05
Xe	1.1241472881358624e-06	4.290331824956504e-07	0.002742141822688236	4.730960267579945e-05	2.354910820276988e-05	-8.049086255713329e-05
2
283000
Ar	-1.1887406387619756e-06	-1.0854033375407576e-06	0.0032250651585571375	-0.00015849814383986184	0.00015015177979857972	-1.144160730270879e-05
Xe	1.4379514245681787e-06	5.187710079421779e-07	0.002741659720690886	-1.5437359603317113e-05	6.965594213860333e-06	-1.0440640303518997e-05
2
283200
Ar	-2.6645279788655687e-06	5.181577373007952e-07	0.0032246668870520474	-9.452201765619748e-05	0.00016620589192447948	-6.220136289258599e-05
Xe	1.1172112947785084e-06	5.546035693956072e-07	0.0027418587902054248	-5.753814297157375e-05	-8.183601395281249e-06	4.344037929614803e-05
2
283400
Ar	-3.060861758568858e-06	1.7489902982400481e-06	0.0032239794666147387	2.8999406747995496e-05	6.263062424849654e-05	-4.8506114470558906e-05
Xe	1.9947254873375026e-07	6.970988893549477e-07	0.00274251984884053	-0.00011380893559521705	2.062594228180444e-05	8.990726440972463e-05
2
283600
Ar	-1.8862938580489282e-06	2.092006279588975e-06	0.003223931665820122	0.00018118785236720305	5.69878613266683e-06	2.7551377814624866e-05
Xe	-8.165565236301264e-07	3.9287946393908893e-07	0.0027430424303592953	-7.811027647852201e-05	-5.750033348473237e-05	4.503009972362418e-06
2
283800
Ar	4.242585317733365e-10	1.7934760840527984e-06	0.0032244615951989098	0.0002006234077549292	-6.0472630770104436e-05	5.9491269577199366e-05
Xe	-1.383244814971057e-06	-3.606152399465871e-07	0.002742924782165276	-4.360537053703443e-05	-8.177773599476971e-05	-1.627294213167203e-05
2
284000
Ar	1.9134164692661205e-06	7.142333670760132e-07	0.003225083190017243	0.00014818771924163455	-0.0001319788703314158	6.4099040716426e-05
Xe	-1.487836422713304e-06	-1.1805791351231389e-06	0.002742708056661816	1.2576750514919707e-05	-4.756411606799724e-05	-1.7280392386702954e-05
2
284200
Ar	2.981242639141632e-06	-6.947195487745417e-07	0.0032254790069967862	4.705251171081777e-05	-0.00013566008039094213	1.8416056383084133e-05
Xe	-6.95774426293548e-07	-1.2769959035033854e-06	0.0027424982297477524	0.00013469619737867865	2.6246328380627133e-05	-6.770955271728273e-06
2
284400
Ar	2.8092143085156855e-06	-1.523717835415882e-06	0.0032254161772804777	-0.00010195135750284505	-4.166896474481065e-05	-5.030768160981464e-05
Xe	7.736369632985059e-07	-7.73433877424595e-07	0.0027427728992180547	0.00013748156809458324	8.38284390980807e-05	4.98232864855239e-05
2
284600
Ar	9.083834568374129e-07	-1.4941208213168999e-06	0.0032247071383389274	-0.0002476048079472403	2.417196274421039e-05	-8.858612624730715e-05
Xe	1.7655887663694432e-06	-3.4506054648921816e-08	0.002743198297149578	7.98150150782552e-05	7.250572912883398e-05	5.6788825463768214e-05
2
284800
Ar	-1.8696716130457543e-06	-6.396188911401297e-07	0.0032240781551214417	-0.00025580644681835995	0.00012463662334001677	-1.2922818195410767e-05
Xe	2.0837091856949624e-06	6.903568225401497e-07	0.0027434726116961883	-1.0364884119717547e-05	7.015738748961716e-05	-8.919916888226183e-06
2
285000
Ar	-3.7369381590749326e-06	8.471671230945131e-07	0.0032243344250929467	-0.0001179906941137219	0.00013646736134904878	7.049097591674395e-05
Xe	1.3966911366685544e-06	1.1418169604365533e-06	0.0027428831251529577	-0.00011126502313237679	9.092238189646577e-06	-6.60328653639734e-05
2
285200
Ar	-4.165932742079518e-06	1.8219595873162954e-06	0.003225188796005913	4.907528263175452e-05	6.055930335659891e-05	9.268142486380046e-05
Xe	2.9045497768193427e-07	8.943086842389217e-07	0.0027423094232935496	-0.00010782274246012655	-4.93801321540866e-05	-5.702107082270465e-05
2
285400
Ar	-2.8096205915930302e-06	1.958413407869945e-06	0.003225575647389579	0.0002304450193127147	-4.192087460281673e-05	-2.5453884629804212e-05
Xe	-7.732905757739844e-07	2.1847906334680157e-07	0.0027422564721855617	-0.00011106958255186584	-7.693342433843386e-05	5.9859132537681646e-05
2
285600
Ar	-1.0677136723050777e-07	1.265880246249986e-06	0.0032248997735277803	0.00029332011876741974	-8.67999812044425e-05	-8.724411312980581e-05
Xe	-1.5943034750301446e-06	-5.682408750129244e-07	0.0027430494883849497	-2.6842414415176544e-05	-7.428627436683193e-05	6.879031327840179e-05
2
285800
Ar	2.763496535936448e-06	1.9544969736484092e-07	0.003224146984608252	0.0002595120002165642	-0.00012824775567581593	-2.6992894593726332e-05
Xe	-1.3762646619210398e-06	-1.1177107822914865e-06	0.0027433320137351955	5.369375689603825e-05	-3.5814248904082396e-05	1.1513381428061888e-05
2
286000
Ar	4.47927077387779e-06	-8.245104090791675e-07	0.0032243873989710376	6.87725302810572e-05	-8.960078479378319e-05	6.531943902401762e-05
Xe	-8.995482747972277e-07	-1.2003958022603178e-06	0.002742898423488951	6.363113905161614e-05	1.5832998989537374e-05	-7.30312957647135e-05
2
286200
Ar	4.08154769310532e-06	-1.157804331518973e-06	0.0032249010269661516	-0.00013192739410464695	3.408232229956583e-05	4.4491374331310535e-05
Xe	-1.8135876540073674e-07	-8.442891869179964e-07	0.0027422536248527755	8.639297702776901e-05	5.962778280604274e-05	-5.194994830356166e-05
2
286400
Ar	1.878326192932328e-06	-4.765927235989294e-07	0.003225147942223854	-0.0002687821936979205	8.18446996818809e-05	-7.5102048522424775e-06
Xe	9.686373002820856e-07	-2.0529868905112485e-10	0.002741807476384329	9.247351470268483e-05	0.0001102352041511813	-1.4682148556386044e-05
2
286600
Ar	-1.0606850900523115e-06	4.994379004951621e-07	0.003224821454875355	-0.0003073729013565601	0.00011593099598295703	-5.11896887067009e-05
Xe	1.7398346983289335e-06	8.261873137753873e-07	0.0027419193818672078	4.295101688631402e-05	4.417167091637357e-05	2.9915479969685833e-05
2
286800
Ar	-3.7968604959721397e-06	1.3947592435889615e-06	0.003224138277421725	-0.00023455567177299474	4.331723263482104e-05	-7.366440807151808e-05
Xe	1.761988376969807e-06	1.2142084008118005e-06	0.0027423343124787455	-1.353662527982397e-05	2.9906661671938538e-05	6.586444500670753e-05
2
287000
Ar	-5.0284010225824585e-06	1.3470906583287299e-06	0.0032236908680771978	8.796175420546694e-06	-6.146756936208417e-05	-2.2240286518843474e-06
Xe	1.5739090241571068e-06	1.2492880496383933e-06	0.002742759661385934	-4.447500716538213e-05	-1.3100615683334203e-05	2.0578210209277206e-05
2
287200
Ar	-3.926622136329097e-06	3.695678690518517e-07	0.003224183867095305	0.00020568072642736747	-0.00012205018624337552	9.584949250293532e-05
Xe	1.0128306404147211e-06	6.619474477950609e-07	0.002742679065852544	-8.131328973080736e-05	-0.00010415222949667405	-2.1562496312420074e-05
2
287400
Ar	-1.3223990597163172e-06	-7.74497229433471e-07	0.003225165258240493	0.0002860991366673154	-0.00010562279795135892	8.799674815019666e-05
Xe	2.917615671972566e-07	-3.9839976281649334e-07	0.002742481096910088	-6.818467829463153e-05	-0.00010886683310360182	-1.389038420975839e-05
2
287600
Ar	1.312024413794394e-06	-1.4298304771871229e-06	0.0032257326638831115	0.0002402154956744377	-1.7244000466712728e-05	2.0614736230205e-05
Xe	-5.953094268971677e-07	-1.4984079675289104e-06	0.002742480166520332	-8.483643133085412e-05	-9.019253551375698e-05	2.8687197598936323e-05
2
287800
Ar	3.334328227267647e-06	-1.409780691679228e-06	0.003225465374288566	0.0001503538259114535	4.000901859141681e-05	-5.382385466271123e-05
Xe	-1.0791093890657889e-06	-1.8797592842278069e-06	0.002742794701531064	-3.275502310476266e-05	6.310965692989365e-06	3.8190240290554576e-05
2
288000
Ar	4.0778186002908405e-06	-6.947965846889213e-07	0.003224668249607964	2.661481387324228e-06	9.419974722032747e-05	-9.17322858146733e-05
Xe	-1.0432956048086126e-06	-1.267439653009168e-06	0.002743195080958108	5.098153976001611e-05	7.901860686661778e-05	1.9742768766698746e-05
2
288200
Ar	3.3692325402280706e-06	4.564493323258765e-07	0.0032240299691611877	-0.0001314378286374849	0.00010413920010222948	-1.2529504958297237e-05
Xe	-3.2039994522929605e-07	-4.6752294731920494e-07	0.002743368502587764	9.968200733200954e-05	7.246172712919173e-05	8.865862004778247e-06
2
288400
Ar	1.4230304598371405e-06	1.1592811256574486e-06	0.003224061373639854	-0.00025574412706576776	4.7396682028412254e-05	2.4880566670866202e-05
Xe	6.873638363735132e-07	3.893684061082934e-07	0.0027430148361218777	9.816861531101439e-05	0.00010232365223087746	-5.2807601908444884e-05
2
288600
Ar	-1.1783124750098538e-06	1.3815497238895973e-06	0.003224401834409518	-0.00023919347658233264	2.0252482805828725e-05	1.986394137057557e-05
Xe	1.1755143944792014e-06	1.1533081249537107e-06	0.002742308265347667	1.690078120573024e-06	6.005494920792686e-05	-6.169124888827555e-05
2
288800
Ar	-2.960913089412487e-06	9.552388079367357e-07	0.0032247143333412314	-9.930877348695915e-05	-9.74660422611556e-05	2.752284074348234e-05
Xe	9.355490249661301e-07	1.5407663452382512e-06	0.002741969528521256	-4.6447909588781706e-05	1.1952731194747748e-05	7.081360399378284e-06
2
289000
Ar	-3.592466427730372e-06	-5.167509413242048e-07	0.003224865667536903	-1.044428062937405e-05	-0.00015900505435794652	-5.406386128887629e-06
Xe	2.209117714803762e-07	1.5861570853957493e-06	0.002742316270380394	-8.320202404485304e-05	-2.3290117578684465e-05	5.909915595954146e-05
2
289200
Ar	-3.002918652923684e-06	-2.07260578068818e-06	0.0032246678881020256	0.0001268209275236749	-0.0001484534049075029	-3.8068467439102516e-05
Xe	-4.919938265059048e-07	1.02677278800275e-06	0.002743075272715308	-5.7587185926476807e-05	-7.441585048018127e-05	6.777843406749766e-05
2
289400
Ar	-1.0832556763639773e-06	-3.1988856115122084e-06	0.0032245675306011514	0.00022864760716320346	-9.19857575717617e-05	7.307621777737477e-06
Xe	-8.786037192975357e-07	3.559143570582716e-07	0.002743249452628715	-1.177728420757918e-05	-7.251791358542476e-05	-1.4839999680335195e-05
2
289600
Ar	1.0809604582832068e-06	-3.3972812121482487e-06	0.003224758205612727	0.00019644778356962407	6.816533275661093e-05	2.2406565845285953e-05
Xe	-8.021683558473483e-07	-7.678662056454752e-07	0.0027428847327123336	1.6455281155595073e-05	-0.00010447751045320521	-2.827759506502538e-05
2
289800
Ar	2.6053810147445708e-06	-1.899321289303496e-06	0.0032251552786951793	8.522784443883135e-05	0.00020657072932921524	6.577284748580947e-05
Xe	-4.793617882192362e-07	-1.4350299426412916e-06	0.002742686980814907	7.007326830021552e-05	-2.3564096780895072e-05	-1.4698411099080208e-05
2
290000
Ar	2.6598525448711987e-06	5.59506971095448e-07	0.0032256627847376475	-9.460471495246647e-05	0.0002513846543356815	1.5784036021495648e-05
Xe	3.5122574834527724e-07	-1.117336876172149e-06	0.002742463059772485	8.155835923207107e-05	7.672547117256983e-05	-1.0438135169053663e-05
2
290200
Ar	1.3962203727084195e-06	2.9070339315721274e-06	0.0032253794251898217	-0.00016578004588868348	0.000221488626672384	-7.233399501592179e-05
Xe	8.424297099397021e-07	-3.122361432415543e-07	0.002742507499501972	-5.015640593894099e-06	6.526955362720711e-05	2.4668390530840527e-05
2
290400
Ar	-4.6638987054902615e-07	4.243878778981365e-06	0.0032243593313607604	-0.0001986797792453937	3.926967519760972e-05	-0.00010646433054109725
Xe	5.866438350712372e-07	1.1230979959500102e-07	0.0027428229021296976	-2.897109077144664e-05	2.0765804230011988e-05	1.851429066562385e-07
2
290600
Ar	-1.965028684132417e-06	3.7484372285778183e-06	0.0032236012919145047	-6.854094131313481e-05	-0.00012005371732496157	-5.3921350556601665e-05
Xe	5.017596703407915e-07	8.614819008636462e-08	0.002742730301808373	-5.193751004654721e-06	-4.19677978692094e-05	-2.6263340288334138e-05
2
290800
Ar	-2.058339832522698e-06	1.6891476931916278e-06	0.003223646447976577	4.875524972546448e-05	-0.00028656482316845365	7.338050877782523e-05
Xe	2.4508598649295277e-07	-2.6285569552377655e-07	0.0027425560020328276	-3.5427452110733574e-05	-3.4410736668523584e-05	-8.782473099264949e-06
2
291000
Ar	-1.1081038330695343e-06	-1.4490910446406628e-06	0.003224760055073231	0.00011710932060644274	-0.00030403627953359895	0.00011989587408736408
Xe	-4.476805527331465e-07	-4.392584150994147e-07	0.002742399578164224	-8.791858948125582e-05	-1.3024424512301302e-05	6.812456989773866e-07
2
291200
Ar	4.971436208455013e-07	-3.912291285253442e-06	0.0032254650662030646	0.00015700012815468152	-0.0001498773231936765	1.614384663511925e-05
Xe	-1.0582984635121506e-06	-2.904864966909356e-07	0.0027425534430077073	-3.745101827722602e-05	3.3828870819386614e-05	2.991506520582473e-05
2
291400
Ar	1.907467995470759e-06	-4.50636966509812e-06	0.0032254357704261426	8.918627820736323e-05	5.263078043530366e-05	-3.7853012414874425e-05
Xe	-1.2590704397734113e-06	-1.4595458576502575e-08	0.0027428845139299165	-6.426673590990977e-06	3.2356009699222735e-05	3.688803890321764e-05
2
291600
Ar	2.1644067988905652e-06	-3.26271999769973e-06	0.0032249999304272917	-1.096502301846592e-05	0.00018233298901754362	-3.821025515019515e-05
Xe	-9.607464017110427e-07	3.078426715294655e-07	0.0027432441616450066	7.20786092266905e-05	7.4986293224835685e-06	2.5205734989922402e-05
2
291800
Ar	1.679885146318371e-06	-9.22325804283324e-07	0.003224646824948478	-7.28885466628847e-05	0.00028322199424830956	-3.647594292886113e-05
Xe	-2.1706539307643057e-08	2.1396815991314611e-07	0.002743185859806781	9.2992481542862e-05	-4.7219827398837334e-05	-4.772234568878878e-06
2
292000
Ar	3.6049793659949594e-07	1.8696060242041888e-06	0.0032244116096918863	-0.00013105986293078026	0.00026995194083863757	-9.75338276729107e-06
Xe	9.650832278459404e-07	-8.701369583569288e-08	0.002742927904360145	9.17501402336575e-05	-1.6678839791731908e-05	-2.8655510872319772e-05
2
292200
Ar	-8.682586244879608e-07	3.9329432369953745e-06	0.0032244313422957354	-9.813425479057909e-05	0.00012427241623543146	6.381233499271337e-06
Xe	1.5817720062307844e-06	-4.6636435626140477e-07	0.002742742066958274	1.1506367809218688e-05	-3.79188020299904e-05	1.0873069949994794e-05
2
292400
Ar	-1.6715932261617765e-06	4.2201383824494045e-06	0.0032248194942402406	-8.216760115358381e-05	-6.632244722684728e-05	5.618668190440812e-05
Xe	1.272766942208285e-06	-5.427289905497458e-07	0.002742575702665391	-8.695995754540815e-05	3.580667894968972e-06	-3.9944111002679456e-05
2
292600
Ar	-1.942517738062253e-06	2.632352360680137e-06	0.0032253740488258427	1.512922504933136e-05	-0.0002143518867407135	2.911930510752375e-05
Xe	5.287110565151822e-07	-3.3565521231830823e-07	0.002742053487028625	-5.25138374857161e-05	2.9376110091452872e-05	-3.719694163643009e-05
2
292800
Ar	-1.2641141572218425e-06	1.589842235463047e-07	0.0032251643454796622	0.00012085271695411603	-0.0002565581023510101	-6.257210750543147e-05
Xe	-3.710808786045034e-08	-5.244488761622824e-07	0.002742022118989885	-7.124418236947558e-05	-3.5132888321708484e-05	3.152711607713606e-05
2
293000
Ar	-5.118047079294892e-08	-2.1337167501203646e-06	0.0032245164155793333	0.00011705647215319104	-0.000189632576450124	-6.771808992590364e-05
Xe	-6.530361941738727e-07	-7.860853856275834e-07	0.002742590740279227	-4.3550439980737094e-05	-6.019325049146536e-07	7.40202453364293e-05
2
293200
Ar	1.2733055107573642e-06	-3.5255192323119367e-06	0.003224182627801479	0.0001365230824057926	-0.00010598360173225077	3.178505388729097e-05
Xe	-1.0901406465512906e-06	-6.90263784646288e-07	0.002743411496093817	-3.844749964292357e-05	2.607076976004073e-06	8.543893511412008e-05
2
293400
Ar	2.198385334224477e-06	-4.085653993789419e-06	0.0032247091497976882	3.6486912038810945e-05	2.4814174937933178e-05	7.006664375945272e-05
Xe	-1.176782028167928e-06	-5.835795017863661e-07	0.00274378894873449	2.003011354691181e-05	2.835265234028219e-05	-1.8085617313806457e-05
2
293600
Ar	1.9948986369367328e-06	-2.774524196492808e-06	0.0032254788941454347	-6.464533932440598e-05	0.00021474262314663786	8.115216864715185e-05
Xe	-6.959537420772659e-07	-1.6970452409731884e-07	0.002743410572623511	6.93421295454893e-05	3.5397101069577044e-05	-4.459684461923349e-05
2
293800
Ar	1.0457866125204085e-06	-2.557404873627788e-07	0.00322603878435866	-0.000138273462964626	0.00029459161754203343	2.2653180955386324e-05
Xe	-2.629601060909451e-08	9.860238823335904e-08	0.0027428449962318066	6.278278810374041e-05	5.000122216802871e-05	-6.373807188441971e-05
2
294000
Ar	-5.347496451158174e-07	2.4873633110349593e-06	0.0032258270787237126	-0.0001476840014467364	0.00023882394624023912	-6.741132833489658e-05
Xe	5.474873329037241e-07	5.953275623244739e-07	0.0027423125405778527	5.029515591330437e-05	2.601034543977562e-05	-3.204184077466525e-05
2
294200
Ar	-2.033990617359329e-06	3.973368435235117e-06	0.0032247746153411428	-0.00014483285229954137	2.7352692436663622e-05	-0.00013968452977125852
Xe	1.0043460036235316e-06	6.239943573078302e-07	0.002742317358343287	2.922267445477694e-05	-2.2105023508518966e-05	3.957037682606381e-05
2
294400
Ar	-3.040519382826091e-06	3.522705549196626e-06	0.0032236523597139735	-5.001542738252643e-05	-0.00012280199400370554	-6.075007095621428e-05
Xe	1.2085591337586843e-06	1.348015988904834e-07	0.002742607722316669	7.32004778695328e-06	-8.863434956961602e-05	5.0515603151768846e-05
2
294600
Ar	-3.0434339195670846e-06	1.598493010507701e-06	0.0032237185315112794	3.483184934060219e-05	-0.00024375133803040313	5.722669252019331e-05
Xe	9.976645812974269e-07	-8.444699800739753e-07	0.002742873980598535	-7.362907356039115e-05	-7.961332364868538e-05	1.8864789341065446e-05
2
294800
Ar	-2.2841441210002377e-06	-9.65707319181269e-07	0.003224560398727317	0.0001445918141045742	-0.00022960410548069412	8.896401508402174e-05
Xe	3.1899531533228174e-07	-1.3734163332848872e-06	0.002742827915996953	-5.355394739236944e-05	-1.6826610305319805e-05	-3.045162369946049e-05
2
295000
Ar	-5.194472798398571e-07	-2.8303855964478702e-06	0.0032253119806815965	0.00020270611265045936	-0.00010139087297059297	5.0012428541804095e-05
Xe	-1.7016855190024973e-07	-1.3610385672139887e-06	0.0027426554228439145	-4.076619327903798e-05	2.318433240719974e-05	1.273630536346182e-05
2
295200
Ar	1.29666319419889e-06	-3.1599143223289136e-06	0.003225641456376808	0.00016336710241267742	5.095359255916301e-05	1.168720662416084e-05
Xe	-6.457129910675386e-07	-7.792254848736577e-07	0.00274284538664159	-5.9448045042023914e-05	0.00010221100781477185	4.79327547676318e-05
2
295400
Ar	2.5793154087162926e-06	-2.0953772982250676e-06	0.0032253797508426337	7.344321613713204e-05	0.0001511082130279988	-3.013388431699666e-05
Xe	-8.995949558994099e-07	3.9934348238695176e-07	0.002743091160865756	-4.27783498785937e-07	0.0001221436996423752	3.389536270394841e-05
2
295600
Ar	2.685985889927356e-06	-1.3688284856718504e-07	0.003224854639358291	-4.280105292706972e-05	0.00023482185484613536	-7.51260663403887e-05
Xe	-7.550437374543917e-07	1.4634929363366207e-06	0.0027434992509048923	4.03714324013e-05	8.325350423347325e-05	4.401215189267316e-05
2
295800
Ar	1.5110549685652405e-06	2.0522939555939882e-06	0.0032244120344851555	-0.0001735493310229895	0.00017032046808808802	-2.2695208571059392e-05
Xe	-2.2100543828930176e-08	1.813521491514252e-06	0.002743509198894553	9.6881761714861e-05	-8.558879349267317e-06	-2.1409442931004e-05
2
296000
Ar	-3.516140513533876e-07	3.024689996416088e-06	0.0032244766944152592	-0.00019694352928321547	1.9899241250143703e-06	5.75742015113691e-05
Xe	8.410675197585107e-07	1.1311681462514694e-06	0.002743000537169295	6.134404505718375e-05	-0.00011038014743610302	-8.358115712682869e-05
2
296200
Ar	-2.253829368709454e-06	2.6255713130970347e-06	0.003224992973690206	-0.0001742211295257363	-9.379869460854199e-05	2.7040168077379304e-05
Xe	1.2956409164316246e-06	1.1407929713217285e-07	0.0027421796210569767	2.2635488823464907e-05	-9.153006739286047e-05	-8.819763575111248e-05
2
296400
Ar	-3.4173149650054374e-06	1.2959243761346552e-06	0.0032252431549180793	-5.023613889577284e-05	-0.00014489687068058648	3.07173615095934e-05
Xe	1.3289940939593635e-06	-7.355166816517548e-07	0.002741591985700649	-2.3127854936303193e-05	-7.25109635043678e-05	-2.9898073105405753e-05
2
296600
Ar	-3.3417744908733743e-06	-1.1655947982349149e-07	0.003225227720021576	8.84894642326735e-05	-0.00014390106075139352	-7.60547605337851e-06
Xe	9.452486697410339e-07	-1.2388344406582876e-06	0.0027417878942213444	-6.325898216601793e-05	-2.4611550398492305e-05	7.338113710749729e-05
2
296800
Ar	-1.5835494942897995e-06	-1.1653956666743886e-06	0.003224953004272638	0.0002381595493685095	-7.028856998547687e-05	-3.414088216413472e-05
Xe	2.935077301593269e-07	-1.207352576922153e-06	0.002742689571759314	-6.490297670932228e-05	3.730283075811446e-05	0.00011698250385424245
2
297000
Ar	8.199615418830879e-07	-1.6124434009309194e-06	0.0032247507616956403	0.00023257021000701016	-1.6700703389464576e-05	-1.3088108599805003e-06
Xe	-2.973349593271374e-07	-5.342473293683e-07	0.0027434516251116582	-4.866607098125867e-05	0.00010061582860391191	6.004777762417517e-05
2
297200
Ar	2.8720473221585274e-06	-1.2082373447612388e-06	0.0032249174223232618	0.00015195877734835406	6.796795639120266e-05	1.488956433736577e-05
Xe	-9.222491454339288e-07	2.6634172942393095e-07	0.0027440834373195938	-6.836263813611949e-05	7.123072700709964e-05	4.2348520352034385e-05
2
297400
Ar	3.7467086822159794e-06	-3.282410434737861e-07	0.0032251760707784315	1.3060752760640034e-05	0.00010158701630727805	-3.0497330625585688e-06
Xe	-1.3920961356284938e-06	9.80616687284259e-07	0.0027441335663829737	-3.300559886649595e-05	4.536473132411634e-05	-3.3845684811821804e-05
2
297600
Ar	3.278889941037047e-06	9.91638557864385e-07	0.0032249333784382297	-0.0001300636928922404	0.00013051073519436271	-3.1468831319422634e-05
Xe	-1.4134470577347045e-06	1.1344991921830831e-06	0.002743573733511339	2.011839704194101e-05	-9.88188036557178e-06	-8.677501316386241e-05
2
297800
Ar	1.3912235839314563e-06	1.9150424956709915e-06	0.003224635614977086	-0.00024195811643918465	3.791114561784855e-05	-2.871806362374389e-05
Xe	-1.0602291307003506e-06	7.164826758181037e-07	0.002742538687882253	6.46230491630942e-05	-5.4661460639759434e-05	-0.00010370957894855882
2
298000
Ar	-1.0992356901611835e-06	1.8229759869131704e-06	0.0032243672336658338	-0.00024997559410401446	-5.6944126767930573e-05	-1.4337511979094375e-05
Xe	-1.6539182917272655e-07	3.521757297291783e-09	0.0027418225282690523	0.0001114538997207694	-0.0001046325211634102	-2.9734876248663374e-05
2
298200
Ar	-3.1568506035446967e-06	8.481547382735701e-07	0.003224462680896105	-0.0001563384557025549	-0.00013362198649695186	2.1862454906505774e-05
Xe	7.781365182639303e-07	-1.1134146293068125e-06	0.002741736775761438	5.402346054301579e-05	-8.193203119677963e-05	-5.102059658953671e-07
2
298400
Ar	-3.933491019020228e-06	-3.984992805393658e-07	0.0032246159414858117	-1.1799452387944144e-05	-9.419966401414461e-05	1.2069666107168485e-06
Xe	1.1094221637342202e-06	-1.564237720226137e-06	0.0027420916509761388	2.0438613671007138e-05	-3.920809955995234e-06	7.370089003854551e-05
2
298600
Ar	-3.2344679623544945e-06	-1.0624502926619464e-06	0.0032249288626046385	0.00013847844722608078	-4.1752191102663434e-05	5.702994718180897e-05
Xe	1.112105577262545e-06	-1.2804869421640283e-06	0.0027430455770869476	-6.800098634817426e-06	4.49579955254829e-05	0.00010381990512341393
2
298800
Ar	-1.4626518615498366e-06	-1.331316814058552e-06	0.0032255542057820392	0.0002120522220153435	-4.955236211619476e-06	5.361443525680468e-05
Xe	6.580800788158451e-07	-3.100014353396003e-07	0.0027439494526218895	-7.29917361740974e-05	0.00014279569894879015	7.71160120050124e-05
2
299000
Ar	1.028460109332288e-06	-9.578613663729988e-07	0.0032258463007683205	0.0002514255854547238	7.58289094234952e-05	1.8668488232268e-05
Xe	-9.030238739602821e-08	9.923370500773105e-07	0.0027442560607617477	-8.080748650864481e-05	0.00010857379820743807	-6.418805624706843e-06
2
299200
Ar	2.87775196124063e-06	-5.1915420565258894e-08	0.003225744845281532	0.00011480441631001647	0.00011624610603554643	-5.523832977242493e-05
Xe	-8.012624913465662e-07	1.5882929924871736e-06	0.0027436907275703924	-5.0724769361431176e-05	1.7239173337601716e-06	-0.00010694674437852523
2
299400
Ar	3.1548913302964206e-06	9.804866245381877e-07	0.0032248179057215278	-7.538285695642806e-05	7.074133828057877e-05	-0.00012959175964950104
Xe	-1.0757092133448476e-06	1.1955465821958027e-06	0.002742564065136195	2.1786777696068387e-06	-8.690440550093603e-05	-0.0001289009808950161
2
299600
Ar	1.7616779763877079e-06	1.2548345649654685e-06	0.003223373787216435	-0.00018344620279614785	-2.36339534814783e-06	-0.00015435209472217259
Xe	-9.455872541625297e-07	9.917782540786417e-08	0.0027414519113482497	3.917119131843272e-05	-0.00010859167052701494	-8.658996928840183e-05
2
299800
Ar	-2.2371468795171006e-07	8.329544961850733e-07	0.003222613909014244	-0.00019453059562099642	-7.314279886255673e-05	-1.0539847408481005e-06
Xe	-5.111682727231193e-07	-1.066856383854618e-06	0.002740895120518021	5.12171334687348e-05	-9.184477595430545e-05	-1.860330340336052e-05
