2
0
Ar	0.0001205042176433658	0.00029465534510298027	0.0031880908526425657	0.021609252810100937	-0.008736097535955034	-0.0002773834380930865
Xe	-0.00011449388331118505	2.338650672299247e-05	0.0027826955734818193	0.0021333816616255856	0.008839298093531083	-3.6056262466659126e-05
2
200
Ar	0.00028055586929601233	0.00013054386366553327	0.0031864334911608	0.008801783635138007	-0.0223614852880301	-4.4192452183376775e-05
Xe	-6.276914625351399e-05	9.642773031505e-05	0.002783063136854854	0.007686111900933487	0.005026658450534815	5.1869172620960584e-05
2
400
Ar	0.0002793823346862626	-0.0001086771703020404	0.0031881215060684887	-0.009027068729176772	-0.023060186426481395	0.0003676394451783314
Xe	2.4100673822265637e-05	0.00011432691781800228	0.002782991267655412	0.008827202888391847	-0.0016193212388062792	-8.096633408160928e-05
2
600
Ar	0.00011745813113061242	-0.0002850713053768491	0.0031925671566858894	-0.021708911596853443	-0.01038813719148392	0.00041426324240746167
Xe	9.682125558125995e-05	6.718393298801463e-05	0.0027819537288744384	0.004987573240255256	-0.007353667909277144	-9.905088134782423e-05
2
800
Ar	-0.00011186222964766026	-0.00029562596121301645	0.003194946369249358	-0.021786858541291677	0.008398029040858195	4.6667499047184096e-05
Xe	0.00011401979641008208	-1.8661701054992253e-05	0.002781696350897431	-0.0017380345266049522	-0.008945373455861792	6.184542393969872e-05
2
1000
Ar	-0.0002754119885240026	-0.00013402753082092546	0.0031935667994765606	-0.00927825561164629	0.022224066982500734	-0.00026955860492460643
Xe	6.539494641529331e-05	-9.439087539852995e-05	0.0027829218924228364	-0.007471213437449537	-0.005410107972679292	0.00014521618716396525
2
1200
Ar	-0.0002798042894037795	0.00010486768754036048	0.0031909341009364704	0.00843229316533395	0.023140238741236913	-0.000223589904725556
Xe	-2.0523942617820495e-05	-0.00011601856454311195	0.002783841446117155	-0.008824670755522535	0.0012822448744636778	3.568818667780474e-05
2
1400
Ar	-0.00012308004415616963	0.000283284474068245	0.0031889391945634686	0.02131641046677944	0.010702364127517258	-0.00016564303216179985
Xe	-9.402038347982012e-05	-7.151264310405885e-05	0.002783882534009468	-0.005136830405560864	0.007170465012660317	4.329632959406827e-06
2
1600
Ar	0.0001042766440185152	0.0002975519200055759	0.0031873737133482926	0.021825414932689233	-0.007954417298851288	-0.00010666080452493334
Xe	-0.0001135122720884131	1.3815548500245907e-05	0.002784133562189133	0.0014167807617121776	0.009011842519058151	3.2380264047319056e-05
2
1800
Ar	0.0002707728679169162	0.00013992251195403692	0.003187449583627438	0.009801953560447689	-0.021935160449415264	0.00014641951201033762
Xe	-6.839093734923129e-05	9.114263860190104e-05	0.0027843682395809165	0.007136265058064052	0.005656382555089409	6.4755348003939534e-06
2
2000
Ar	0.00028170730844681184	-9.811335871611286e-05	0.0031903795485236025	-0.007724398078844087	-0.02324026501297338	0.000401759288811111
Xe	1.5220126863813652e-05	0.0001163380117717974	0.0027837624518844122	0.008760798800677125	-0.0008566343763237688	-0.00011464624011138859
2
2200
Ar	0.0001307417572877696	-0.00027911942312228453	0.0031942681167507897	-0.020940876697091642	-0.011067539525339908	0.0002860692255775382
Xe	8.992809366520843e-05	7.516828009088059e-05	0.002782625413242133	0.005443310279549307	-0.006976806588239761	-8.881162460589225e-05
2
2400
Ar	-9.581574309387282e-05	-0.00029774875711995573	0.003194998095467125	-0.02202482275900766	0.007534289104355349	-0.00012482419831138098
Xe	0.00011356926030339929	-9.836020438878795e-06	0.0027824514479412956	-0.0010047094354255059	-0.009135547959084847	5.644372643645291e-05
2
2600
Ar	-0.00026644787864527904	-0.00014368801844383698	0.003192324359290414	-0.010391220876836672	0.021666201743056022	-0.00035405239695111867
Xe	7.175561622604081e-05	-8.945555766240558e-05	0.0027835461297422014	-0.006916503890135451	-0.005975089768271645	0.00012581343340224986
2
2800
Ar	-0.0002836243671268199	9.308026178836461e-05	0.003189339117035119	0.00711531429552747	0.023273528940288706	-0.00022896970291018878
Xe	-1.0758049935796752e-05	-0.0001177696099655204	0.0027840996674803713	-0.00873957922498814	0.0005884687649545062	-7.384689255093536e-06
2
3000
Ar	-0.00013785278896927746	0.0002758495641721853	0.0031879924547498608	0.020541749887769856	0.011390352754683995	-7.705002362304397e-05
Xe	-8.633427855674964e-05	-7.851836525451989e-05	0.0027839997574867666	-0.005624571442035054	0.0068592343729363325	8.604078372037151e-06
2
3200
Ar	8.694236213844679e-05	0.0002989407809346361	0.003187537187459961	0.02210895529651168	-0.006982395697532426	9.850793967689584e-06
Xe	-0.000112379354590929	5.723091870461589e-06	0.002784174800529868	0.0006612311494703494	0.00913803174010393	3.597725803472512e-05
2
3400
Ar	0.00026132069069972934	0.0001499948194955479	0.0031885532895091604	0.011010103755393262	-0.021268286673922828	0.0002075557110674298
Xe	-7.44950053698329e-05	8.624827090381696e-05	0.0027843506563319377	0.006538884975030558	0.006150318060086279	-3.568878364101534e-05
2
3600
Ar	0.0002857018919856864	-8.461013568704097e-05	0.0031914439033963833	-0.006401069916951383	-0.023274176012228923	0.000325946585788357
Xe	5.3228483051080885e-06	0.00011726243112938789	0.002783535150350595	0.008608584737223974	-0.00023551559060823704	-0.00011999412922051479
2
3800
Ar	0.0001458244140160905	-0.0002698066716774975	0.003193831444833465	-0.02015990722467452	-0.011851186564012559	0.00010091224422727679
Xe	8.164793208914664e-05	8.165476311788e-05	0.002782499498419949	0.005879850411481797	-0.006542529104886858	-6.296452154566426e-05
2
4000
Ar	-7.789120941003959e-05	-0.00029819571703884503	0.0031931756281870565	-0.022268048892416077	0.006454576489733671	-0.0001994505215762552
Xe	0.00011151640339704895	-1.5052046545533145e-06	0.0027828673521413235	-0.00024537455877132947	-0.009213317351162082	0.0001348929248632893
2
4200
Ar	-0.0002558701308843947	-0.00015372809023973447	0.0031910206592903373	-0.011548948589320325	0.020941849091498835	-0.00020117670634112574
Xe	7.717006497259814e-05	-8.43360150310745e-05	0.002784142240192611	-0.006242849814682403	-0.006499573454172264	9.390392927188508e-05
2
4400
Ar	-0.00028652988390539863	7.939558991562444e-05	0.003189847054635582	0.005739134128906929	0.023299536683435953	-2.7204677078000124e-05
Xe	-1.0822242182808678e-06	-0.00011867927073287257	0.0027842395717850095	-0.008601104908514309	-2.722791306310001e-05	-5.038895159995711e-05
2
4600
Ar	-0.00015224864967334248	0.00026656699610262224	0.0031896178228019312	0.01975288366678517	0.012227282810110101	-3.217424766120251e-05
Xe	-7.815572499335817e-05	-8.49102102121151e-05	0.00278342436576943	-0.006043155146964334	0.006454918761673039	-7.444260959375672e-05
2
4800
Ar	6.9445050587724e-05	0.000299459885374328	0.0031893968196689275	0.022296667365990553	-0.005965666490884611	-3.6795935178922535e-06
Xe	-0.00011007602453782046	-2.1883019283291897e-06	0.0027831171514361183	-2.4696449460117428e-05	0.009215886088620753	2.8259899103310562e-06
2
5000
Ar	0.00025043005939494334	0.00015957290607902143	0.003190148210935062	0.012069130101417722	-0.020559396928638	0.00016485094469449456
Xe	-7.880872425527089e-05	8.139826352653e-05	0.0027830942864138846	0.005959466603317277	0.0066460726674777435	-5.005475368270082e-05
2
5200
Ar	0.0002874142383943207	-7.144234107662317e-05	0.0031921848144992543	-0.0050743093867713475	-0.023303377733325872	0.00022593982269850926
Xe	-2.4448813942082466e-06	0.00011795820355407607	0.002782308452602221	0.00854481279743229	0.0003106742173926039	-0.00010621347213482353
2
5400
Ar	0.00015885763738141123	-0.000260825180462875	0.003193279768068904	-0.019316918656433334	-0.012636445226344712	-2.5341039410025953e-05
Xe	7.54805724744621e-05	8.679583406271631e-05	0.002782150737737328	0.006268152916065056	-0.006254249456869093	7.056624518795187e-05
2
5600
Ar	-6.089750198034482e-05	-0.00029905331668822173	0.0031919504801067515	-0.022380622820141433	0.005343549161086927	-0.00021360789883896551
Xe	0.00011030546773649364	5.0598486868152786e-06	0.002783591811307776	0.0003345967603156064	-0.00925166441432408	0.000194814113160113
2
5800
Ar	-0.00024511740720913045	-0.0001651305025413798	0.003189739398668735	-0.012597428761793086	0.020080607515697034	-0.00014913594728251868
Xe	8.180857309796246e-05	-7.999749636156539e-05	0.002784942877954529	-0.005710818910425078	-0.006854082412055603	3.644950505619864e-05
2
6000
Ar	-0.0002884708642402133	6.34561896421431e-05	0.0031893125711954474	0.0043660765345443645	0.023329693116781944	4.772316521442452e-05
Xe	7.3721067465479065e-06	-0.00011896312493840003	0.0027841951479575773	-0.008431566981631935	-0.0005565713963161859	-0.0001518691357586388
2
6200
Ar	-0.00016629224793876453	0.0002555774714753576	0.003190104851343676	0.018854763282428546	0.013109581567559484	7.585216162278986e-05
Xe	-7.070777386198808e-05	-8.95365930434942e-05	0.0027827754024674967	-0.006392787007194218	0.0061232111522171425	-9.437029897018556e-05
2
6400
Ar	5.139612929001766e-05	0.0002998124548148984	0.0031906385459658667	0.022449507033751648	-0.004692765529078214	5.9594837809190594e-05
Xe	-0.00010798194095183203	-8.734371523288213e-06	0.0027824838288426916	-0.0007034267839496068	0.009240232976427754	1.0162594232242446e-05
2
6600
Ar	0.00023890763433679564	0.00017149028903934657	0.0031917583899272375	0.013187509733073538	-0.019652952403316288	0.00017537129803058547
Xe	-8.310402521345918e-05	7.703821879324926e-05	0.002782133256656654	0.005389877086859495	0.007063837521028932	-0.00010366754684979788
2
6800
Ar	0.0002893657081395017	-5.5281176537657846e-05	0.003193512610800348	-0.003626966167954106	-0.023379245057006344	0.00012511877867295187
Xe	-1.0535707051266722e-05	0.00011875295703108884	0.0027810689009672616	0.008389839637368009	0.0008592243640629894	-9.462449450070095e-05
2
7000
Ar	0.00017320318693778367	-0.00024979165030590187	0.003193421556416948	-0.01841054085831594	-0.013513219793467236	-0.00018901600492881535
Xe	6.848822543149677e-05	9.230957463472113e-05	0.002781243812586468	0.006611672107317272	-0.005902441546793539	0.00012341560528238512
2
7200
Ar	-4.254900918978263e-05	-0.0002992597240371829	0.0031906131694090898	-0.022521706450568814	0.004095885497347009	-0.0003098483129406062
Xe	0.00010872435594548049	1.2433686407113597e-05	0.0027830860464455286	0.001007588929735377	-0.00923398471504528	0.00020811798813189503
2
7400
Ar	-0.00023366926323833016	-0.0001764133684614716	0.003188502757451117	-0.013765069769378116	0.019193213117597443	-4.957116829904269e-05
Xe	8.67582520810946e-05	-7.401303839923081e-05	0.002784662722242982	-0.005161146197220322	-0.007181116347305653	6.556679876340775e-05
2
7600
Ar	-0.00029122202999155004	4.732776724554773e-05	0.003189516441364269	0.002859776863889354	0.023286938720564154	0.00021054849835877633
Xe	1.5717827397846592e-05	-0.00011746717807063264	0.00278440280326123	-0.008345408699994844	-0.0010731935870456483	-9.297952372279855e-05
2
7800
Ar	-0.00018150239827579242	0.00024344765391031385	0.003191592696018067	0.01793897913276034	0.013937040353779129	0.00017445334378337233
Xe	-6.384801650091382e-05	-9.342691720396058e-05	0.0027836537607323184	-0.0067715350731252285	0.005632615274526551	-5.007142444297994e-05
2
8000
Ar	3.246042148022925e-05	0.0002989931679582187	0.0031926319443520684	0.022664937513139582	-0.003370876367640769	4.432623156276824e-05
Xe	-0.00010678954046750298	-1.5738571861047046e-05	0.0027836096986001207	-0.0013680804169621192	0.009098454738434306	-1.0159995761215854e-05
2
8200
Ar	0.0002275988799285757	0.0001830772652219377	0.0031929241295005815	0.014383399684289358	-0.018640729980922786	3.259868426923435e-05
Xe	-8.850199178213333e-05	7.059508682701134e-05	0.0027830952852589807	0.004830468397808117	0.0073058614924735536	-8.160056778521357e-05
2
8400
Ar	0.00029208350907864426	-3.743401384060869e-05	0.0031933894426383782	-0.0021816660116635847	-0.023222451202324256	1.2573600950915203e-05
Xe	-1.9649602550691482e-05	0.00011632687048736453	0.0027820738250631093	0.008250547505082606	0.0013523697188868955	-0.00011646487750742789
2
8600
Ar	0.00018804936679132572	-0.00023584491677588324	0.0031925758382184153	-0.01755025037825776	-0.014430467992167354	-0.00016793951949880056
Xe	6.0887085925586255e-05	9.493020549057525e-05	0.0027814016966999353	0.007033876696468185	-0.005407010091693136	-1.2695051022892037e-06
2
8800
Ar	-2.4107995452862445e-05	-0.0002978231349883802	0.0031904562864110836	-0.022717640710127083	0.002639647118659211	-0.00020463995494705216
Xe	0.00010673177237113511	1.8641425638605785e-05	0.002782313546559925	0.0016790614985356786	-0.009066948196000629	0.00012638403589201717
2
9000
Ar	-0.00022213074752271903	-0.00018885439799342404	0.003189505286855453	-0.014897710278801065	0.018040032538311518	2.9201622193529822e-05
Xe	9.148260390959211e-05	-6.827638028572975e-05	0.0027832956404551332	-0.004572672796592593	-0.007457881060647646	3.406807345111534e-05
2
9200
Ar	-0.0002929628755064847	2.7862012132944956e-05	0.0031907288827782306	0.0014426702336748092	0.023137828993842945	0.0001556826352060814
Xe	2.4561522672919703e-05	-0.0001159866349920131	0.0027832055370562024	-0.008165658670925547	-0.0015933851569103468	-2.5987136489220215e-05
2
9400
Ar	-0.00019539568248068035	0.00022836592001236955	0.0031919990288704833	0.01704336352463432	0.014917117308083145	6.385211007495803e-05
Xe	-5.638161921659769e-05	-9.704146166516463e-05	0.0027833568174059813	-0.007188674350887154	0.005164225677758172	2.103895513100083e-05
2
9600
Ar	1.4194177871492093e-05	0.00029692304044756694	0.003192087149064423	0.02274473470001858	-0.0018665620920262334	-3.101197852065073e-05
Xe	-0.00010507242324636202	-2.2697453716795146e-05	0.0027836213674802684	-0.0020638581170152456	0.008930967574923145	-2.076181804672585e-06
2
9800
Ar	0.0002153817880249691	0.00019506496688317343	0.0031921149009938453	0.01545888383383038	-0.017460215388964206	4.063788360810292e-05
Xe	-9.336742747739264e-05	6.403302388774117e-05	0.002782926189579273	0.00429173005116208	0.007539783804061453	-0.00015044415730234157
2
10000
Ar	0.00029306363199487113	-1.8592033833516244e-05	0.003192408432508871	-0.0007404018658265886	-0.023105984515204573	-7.223501785963333e-06
Xe	-2.786861080592304e-05	0.00011394252463304808	0.0027813050702362478	0.008133137498685342	0.0019313117142720129	-0.00014734142802206782
2
10200
Ar	0.00020184422456170418	-0.000221589570096167	0.003191640578225705	-0.01656504756846538	-0.015414574964545796	-0.00016479659990818193
Xe	5.378754055178265e-05	9.846188309984156e-05	0.002780543908132925	0.007358216030678471	-0.004871790068234592	1.797410884123146e-05
2
10400
Ar	-5.467348181429152e-06	-0.0002967143339844311	0.00319015428932906	-0.022770600408442924	0.0011254752673099133	-0.00010214357325863957
Xe	0.00010466211828582982	2.5992369909114344e-05	0.0027815376656353656	0.0023248310472689807	-0.008841267999886849	0.00012952669369758715
2
10600
Ar	-0.00020936566968014886	-0.00020177642696236022	0.003190032805998634	-0.015931290549517692	0.01690079005809834	0.00011248100667304899
Xe	9.547644066636412e-05	-6.0977200319395826e-05	0.002782572816148477	-0.004040801606094675	-0.0076746516607236	4.9919296982110935e-05
2
10800
Ar	-0.00029305705441632414	8.573897036291312e-06	0.00319182594608162	5.985762367496801e-05	0.023028804899951162	0.00021747513546296093
Xe	3.161519051090833e-05	-0.00011274824706407234	0.0027824270400625454	-0.008080360710488217	-0.0021690601665786515	-2.530580235539912e-05
2
11000
Ar	-0.00020805405460676575	0.00021362451334709212	0.003193183813228104	0.01606107891266334	0.015908390401268683	4.614409879999877e-05
Xe	-5.033353369313939e-05	-9.987175346295648e-05	0.0027824204913327925	-0.007485758197733151	0.004621317196589988	4.099941178851061e-05
2
11200
Ar	-3.6156248051452948e-06	0.00029547484308633246	0.0031929922489624877	0.022739381471374644	-0.00033376489985240224	-7.74321348909766e-05
Xe	-0.00010341750402477933	-2.911367119467583e-05	0.0027832763665039495	-0.002573422878555315	0.008752367161317925	0.00010595195352684906
2
11400
Ar	0.00020251949283575543	0.00020797433443944788	0.0031923164306681025	0.01640121388612577	-0.01627319691806716	-1.3137245048722667e-05
Xe	-9.709144756739762e-05	5.8055550675975975e-05	0.0027833919620314732	0.0037797954800126354	0.00777844521846544	-7.738743309352525e-05
2
11600
Ar	0.00029238070776288613	1.4469279437972049e-06	0.0031921357449984393	0.0006298388825174738	-0.022922701659098446	-2.8324355273357464e-05
Xe	-3.509911304151117e-05	0.00011138733498737703	0.002782053806409373	0.007985696460244449	0.0023539704649067333	-0.00014088226121830615
2
11800
Ar	0.00021382896186619054	-0.00020567124723565983	0.0031916303167242722	-0.01551714782653452	-0.016381984414927796	-9.613994741843549e-05
Xe	4.704956064324997e-05	0.00010050355809255776	0.0027811184964172666	0.007622161705049662	-0.00440712788447086	-3.1381265498768434e-05
2
12000
Ar	1.262735225132491e-05	-0.0002942025769625281	0.0031908588388313845	-0.022704193661434044	-0.0004327723444028262	-2.855623195463873e-05
Xe	0.000102122369180316	3.1888920531064586e-05	0.0027812692914965043	0.00286254228304102	-0.008611349341764567	3.829494223030432e-05
2
12200
Ar	-0.00019564033245051567	-0.0002138375804905061	0.0031915124754311403	-0.016852102620942173	0.015696351541042135	0.00015219144786208429
Xe	9.858209298040831e-05	-5.452415514262573e-05	0.0027814430006182283	-0.0035305477694395947	-0.007802054629234707	-1.0235811433578559e-05
2
12400
Ar	-0.0002913376809569779	-1.0716597076315939e-05	0.003193186319265335	-0.001297797843362523	0.022845251451173804	0.00015743882868717577
Xe	3.8341987523342204e-05	-0.00010906620813207972	0.0027813739782381326	-0.007911827638886605	-0.0025419044895201954	-1.350838090389014e-05
2
12600
Ar	-0.00021898601805962477	0.0001981991623345342	0.003193969197268365	0.015024232428402813	0.016800445889545615	-3.0119733874944078e-05
Xe	-4.4109272539037807e-05	-0.00010065581981954215	0.0027817118446521374	-0.007729188170950908	0.004145866108180278	7.18224881787374e-05
2
12800
Ar	-2.0858720815061867e-05	0.00029265443643510696	0.0031931246836654843	0.022599913473773107	0.001164005773146585	-0.00012775884765904748
Xe	-0.0001012530852008767	-3.42494837409198e-05	0.0027824975568377804	-0.0030874964322098624	0.008447226535523038	6.0801710798819336e-05
2
13000
Ar	0.00018907017397597168	0.00021913056868590013	0.00319210439749753	0.017251615748504662	-0.01509938786108497	-4.8871652292058977e-05
Xe	-9.990724366255242e-05	5.1952351022627855e-05	0.00278252268169047	0.003326728158349383	0.007879600804541215	-5.511923557110596e-05
2
13200
Ar	0.00029086885529406545	1.978260335743697e-05	0.0031920387151750905	0.0020444256358015346	-0.02273286306559475	-8.90307825707172e-06
Xe	-4.122124393276591e-05	0.00010803448432627694	0.002781815097797675	0.007827718643255472	0.002756105687535228	-6.482617607336852e-05
2
13400
Ar	0.00022561821327021875	-0.00019089904640515374	0.0031915254349425427	-0.014407220972031561	-0.01720042051476858	-7.361759428040334e-05
Xe	4.118683098342679e-05	0.00010171059271056433	0.0027813863304528533	0.007809705306925057	-0.003947914509919397	-1.8491715846080088e-05
2
13600
Ar	3.11731435354783e-05	-0.00029124118782678605	0.0031908681058383454	-0.02249397145236664	-0.001848574092948388	-3.8205676238703236e-05
Xe	9.965880516177918e-05	3.7007384242893166e-05	0.002781453261562385	0.003286953528031792	-0.00831670678572826	-1.750820386479635e-05
2
13800
Ar	-0.00018065132895825632	-0.00022432631348200688	0.003191644483428149	-0.01772591426150655	0.01454251067177275	0.00016203462376479378
Xe	0.00010074717220245782	-4.842644904120612e-05	0.0027809305055181287	-0.0030769280819121134	-0.007895271639645218	-5.9716205624597314e-05
2
14000
Ar	-0.0002887601715304865	-2.8602174244603573e-05	0.003193535534001429	-0.0027855794975653186	0.022600758612354922	0.00018727082046990473
Xe	4.387998494158506e-05	-0.00010560294212255725	0.002780502227945655	-0.007729931911844576	-0.0029631833130031285	-2.3834623189597002e-05
2
14200
Ar	-0.00023068509324413497	0.00018356894578007026	0.0031946167531813523	0.013786033064877823	0.017640834489572738	2.6161366688343616e-06
Xe	-3.85924513004533e-05	-0.00010189699722137513	0.0027810385312695496	-0.007890367472745108	0.0036435447687599896	0.00011475284559151727
2
14400
Ar	-4.034594965687023e-05	0.00028961464431074375	0.003193699079419052	0.022325736765831484	0.002508546564178477	-0.00016190676787122637
Xe	-9.845263306985999e-05	-3.967607900907044e-05	0.002782213888586228	-0.003487540650088386	0.008165292047383626	9.66591804412819e-05
2
14600
Ar	0.0001726680558196202	0.000229277890947967	0.00319250813699766	0.01815078764990917	-0.01394481770953418	-7.13435278522896e-05
Xe	-0.00010156904738481183	4.526899295384663e-05	0.0027825395184915593	0.0028633258061674604	0.007941626768322475	-4.722021879813043e-05
2
14800
Ar	0.00028730154442751604	3.760140894273633e-05	0.003192135594557084	0.003603665553971149	-0.022416422062422225	-2.1245159018298452e-05
Xe	-4.692168992416457e-05	0.00010421763812968108	0.0027817325135943297	0.007547134520963723	0.003224434375236419	-8.878879020437587e-05
2
15000
Ar	0.0002372615181997744	-0.00017547644986680005	0.0031918404093512452	-0.013115569622119736	-0.018025736646524283	-5.125650043707517e-05
Xe	3.477535848500534e-05	0.00010325836997516405	0.002781230708491647	0.007950797907277925	-0.0033839321496243265	6.897161041871186e-06
2
15200
Ar	5.123055096791094e-05	-0.0002875920215830171	0.003191731226913038	-0.022223500536051006	-0.003276221099457812	3.122799754538603e-05
Xe	9.652604286210269e-05	4.30372649870082e-05	0.002781412871343666	0.0037664785985802524	-0.00803510393602772	5.350696796486985e-06
2
15400
Ar	-0.00016391113815843468	-0.00023487079992746734	0.003192837872968842	-0.018645500643802222	0.013264731261606199	0.0001731501131733249
Xe	0.00010289381059455406	-4.139966801317622e-05	0.002781260666806964	-0.0025502343529228747	-0.008014058043195278	-3.937908819864207e-05
2
15600
Ar	-0.00028534090255874766	-4.789851029456936e-05	0.00319456439159092	-0.0043791101340840246	0.022249900124524605	0.00014023007379203385
Xe	5.0314021987296044e-05	-0.00010160907405685621	0.002780520381613308	-0.007458428090856524	-0.0034138896432854052	-7.380423086584683e-05
2
15800
Ar	-0.00024277623961394608	0.00016627901369985185	0.003194713546685334	0.01246414861038363	0.018405445871566957	-0.00010693164966216229
Xe	-3.1697513890751314e-05	-0.00010329532313498553	0.002780197209787784	-0.008121711303673281	0.0031184591444159268	2.8479957827138445e-05
2
16000
Ar	-6.072603402187109e-05	0.0002843909952675539	0.0031929533158889752	0.022098270837460295	0.004047416679633944	-0.0001975201552348312
Xe	-9.59816475067734e-05	-4.5416544335186775e-05	0.0027810286713197243	-0.0040713717241966435	0.0078781917413697	0.00010703891900169226
2
16200
Ar	0.00015610387471953318	0.00023969183591043684	0.0031915269815911795	0.019073934006542597	-0.012538568897105353	-3.7215539418541256e-05
Xe	-0.00010529356876339677	3.8388903111944344e-05	0.0027815857243772015	0.0022944485925179055	0.00803934867749252	-1.4046442538640706e-05
2
16400
Ar	0.00028365057708287593	5.7868977774148054e-05	0.0031916156792326515	0.005125969883307314	-0.021983363765783023	5.1087121083987753e-05
Xe	-5.4435561038088826e-05	9.983892606915619e-05	0.002781112617263209	0.007390517553196105	0.0036247183912700483	-3.633996315477786e-05
2
16600
Ar	0.0002484810864481608	-0.00015675621154346688	0.0031920837041914106	-0.011811108233162105	-0.01875703088173496	4.223954446591837e-05
Xe	2.7696953218509666e-05	0.0001040797136452728	0.0027810356446354273	0.008198593956505594	-0.0028467838672224344	4.1075599476356755e-05
2
16800
Ar	7.099938642196892e-05	-0.0002809130710611542	0.0031925236100705306	-0.021906717147425314	-0.004829943923468079	5.833698961401868e-05
Xe	9.377324207779494e-05	4.849116095775874e-05	0.002781679002180961	0.004328185936713295	-0.007692223446778753	3.8153972693836716e-05
2
17000
Ar	-0.00014693389901632641	-0.0002441886485557309	0.0031937472933336523	-0.019491330336860877	0.011784604815731006	0.0001609028224940581
Xe	0.0001057005852444455	-3.460381819133602e-05	0.002781569612467385	-0.002051578191801481	-0.00810196164601837	-6.640501140072975e-05
2
17200
Ar	-0.00028071219412090454	-6.797174392435815e-05	0.0031952000206112675	-0.005909677924815395	0.021642715944340925	0.0001002569072536023
Xe	5.695024687886424e-05	-9.791900634099934e-05	0.0027808897761396373	-0.0072298295620743585	-0.00391665920993128	-4.420420353681762e-05
2
17400
Ar	-0.0002531282449515867	0.00014682656447734415	0.0031948151212960524	0.011140626438431892	0.01912439986206649	-0.000164201940598324
Xe	-2.4788948462824325e-05	-0.00010507182602709335	0.0027807937444827243	-0.008303552782022723	0.0025618391969662465	6.192027016337555e-05
2
17600
Ar	-8.015073782225553e-05	0.000277179456854716	0.003192883642780801	0.02170916886978343	0.005649429351547085	-0.0001757595193613749
Xe	-9.293129413715098e-05	-5.175354998154656e-05	0.002781470306473772	-0.004594727496597955	0.007549928524881531	6.867674799727561e-05
2
17800
Ar	0.00013859229176791342	0.00024903900536747925	0.0031917395268529344	0.019833219942303422	-0.011002562544295933	-3.095121448677827e-05
Xe	-0.00010764893698069782	3.082042875612785e-05	0.002781426894972521	0.0017543983882517555	0.008138958302416704	-8.345581674991937e-05
2
18000
Ar	0.0002778801220861397	7.82755301110462e-05	0.003191943382599061	0.006606716990252463	-0.021431894775222633	6.019871829182694e-05
Xe	-6.102805752328606e-05	9.54136859632675e-05	0.0027805603884448406	0.007106124282489192	0.0041261654252381	-7.872558323115722e-05
2
18200
Ar	0.00025764817825482103	-0.0001374582703084392	0.0031925646732020568	-0.010447354232399623	-0.01951858038290667	5.584477472003695e-05
Xe	2.0568210356805265e-05	0.00010540282875189084	0.0027799196581697943	0.008433203329715687	-0.00221380648575027	-8.489402798290029e-06
2
18400
Ar	8.96029248348282e-05	-0.0002741146144263983	0.003193126858140259	-0.021461073560643168	-0.006451320354000103	7.950248066554618e-05
Xe	9.081555782258217e-05	5.517779900020952e-05	0.002780023698010874	0.004888823609241234	-0.007312223318400868	2.7147516872288166e-06
2
18600
Ar	-0.0001296593033395951	-0.00025409371675910465	0.00319428720662953	-0.020175646228811232	0.010280271203705157	0.00014937408715689636
Xe	0.00010857096194774387	-2.657008986856445e-05	0.0027796821167353986	-0.0014901376297353959	-0.008234886375476187	-3.942332615434463e-05
2
18800
Ar	-0.0002743474768968174	-8.829903852253179e-05	0.00319505095740314	-0.00728446558556181	0.021201702063707813	-1.5131803229568276e-06
Xe	6.372254989062343e-05	-9.318693243400533e-05	0.002779621999260919	-0.0070049500766714	-0.004424084061733501	5.770299794317307e-05
2
19000
Ar	-0.0002612111118861108	0.000128145347254194	0.003194235864753032	0.009789079883895557	0.019884936033383645	-0.00017532065893399116
Xe	-1.8036642903463032e-05	-0.00010623138798853212	0.002780747468606422	-0.008516615010900279	0.0019378628336270093	0.00015101841741417093
2
19200
Ar	-9.815192928819341e-05	0.00027095067061827646	0.0031923162942713262	0.021163119201237937	0.007233446684547067	-0.00014266731257842478
Xe	-8.995865275804268e-05	-5.817130734300836e-05	0.0027820186425845566	-0.00510616792744183	0.007178864995860531	8.805494866393892e-05
2
19400
Ar	0.00012083437441993827	0.0002589454237223224	0.003191614377789938	0.02043909000190352	-0.009528851599890743	1.448850846237777e-05
Xe	-0.00011021104741027333	2.302114327832018e-05	0.002782162300437273	0.0012403824735275893	0.008221069037063381	-6.945971530759922e-05
2
19600
Ar	0.0002705924620503713	9.872022534193236e-05	0.003192477668477902	0.007983443525889986	-0.0208908636260084	0.0001309054760687461
Xe	-6.732029001986435e-05	9.05364497486741e-05	0.0027809675318270573	0.00690816233223619	0.004591590187711914	-0.00014681427256523174
2
19800
Ar	0.0002649244431601891	-0.00011785917676830907	0.0031937590184411184	-0.00905903179500577	-0.020231843200787795	0.00011011744379422945
Xe	1.4243006863868185e-05	0.00010599142647727623	0.002779772143385759	0.008572695023646505	-0.0016411062656197669	-8.87825128733921e-05
2
20000
Ar	0.00010696459699375794	-0.0002666104950534289	0.0031945724720992283	-0.020900934563952943	-0.0080038934510234	5.490168129423271e-05
Xe	8.742700182258073e-05	6.069344039520827e-05	0.0027790297758396023	0.005297147546812205	-0.006958883226591184	-5.489835873686479e-05
2
20200
Ar	-0.00011229440866058671	-0.0002623919408834565	0.0031948053734791055	-0.02072763696704529	0.008819365453799714	-1.0557330098910682e-05
Xe	0.00011007982639719964	-1.978875696022812e-05	0.0027786783926160687	-0.0009889518111025125	-0.00829479940135603	-1.4599968930689015e-06
2
20400
Ar	-0.00026721893670440957	-0.00010736568539341116	0.0031940441225140836	-0.008653825727774067	0.02058405353341209	-0.0001386365391147502
Xe	6.963608136773763e-05	-8.909799406056371e-05	0.0027788982957753405	-0.006696000926689405	-0.004840402826082736	5.924058354621242e-05
2
20600
Ar	-0.0002684870743275212	0.00010897611723409966	0.0031922250877813685	0.008404236495454818	0.020497597026223214	-0.00018366062014314274
Xe	-1.0775590284028243e-05	-0.00010719659306769116	0.0027797925672021283	-0.008566377488646165	0.0013995963152565385	0.000129270393279018
2
20800
Ar	-0.00011587782113151385	0.0002628951585825706	0.0031910954146728123	0.020551140693229514	0.008743485048482179	5.169461147372732e-06
Xe	-8.472606798101568e-05	-6.411213945008826e-05	0.0027810342316866533	-0.0054634300990243885	0.006784470565608214	0.00010321382764242599
2
21000
Ar	0.00010282600254420396	0.0002666475066714745	0.0031922883536969243	0.021002655006185523	-0.008036567597650606	0.0002276305970279569
Xe	-0.00010960805314585366	1.539525657966218e-05	0.002781493314287093	0.00074882577823963	0.008298704811634543	-3.09220329056262e-05
2
21200
Ar	0.0002630807550871551	0.00011805052941890232	0.0031947069656832004	0.009407133790222509	-0.02019796070040257	0.00021447183133127792
Xe	-7.145473268102025e-05	8.575570840331097e-05	0.002781138118077579	0.006527654609825604	0.005057375932020832	-1.6795294087614925e-05
2
21400
Ar	0.00027231387759116705	-9.814440881692679e-05	0.0031962410715849236	-0.007655438678459382	-0.020820483514739852	5.252827238218808e-05
Xe	8.08130722079377e-06	0.00010674693053743636	0.0027812643086285245	0.008575887685852776	-0.0010873377842230362	1.9617563148777463e-05
2
21600
Ar	0.000125080430156205	-0.0002579076102718618	0.003195924726588595	-0.02028536568216237	-0.00952065294921454	-7.199521152234297e-05
Xe	8.318770388047578e-05	6.606327918402812e-05	0.0027809952277804643	0.005672252589059699	-0.006617855862399119	-6.413880915391415e-05
2
21800
Ar	-9.3566525427853e-05	-0.00026991181021269453	0.0031949163208371003	-0.021262133766986206	0.007248208988614467	-0.00011152453925591538
Xe	0.00011048380774702888	-1.262979733957159e-05	0.0027799659555086766	-0.0005000769009424025	-0.008320643919896262	-0.00012911900733124414
2
22000
Ar	-0.00025890369997467295	-0.00012689848158427844	0.0031932136034222487	-0.010086747033862182	0.01988122733842631	-0.000208977869610672
Xe	7.415713360732329e-05	-8.431125404970556e-05	0.0027789180590247877	-0.006401239521640122	-0.00525974571462557	-4.680043947518073e-05
2
22200
Ar	-0.00027551464589912415	8.869283125385124e-05	0.0031913595211695667	0.006923028747969667	0.021061767455607335	-0.00013171983723641903
Xe	-4.730624164894491e-06	-0.00010751260810866725	0.0027791793707971687	-0.008575031967809489	0.000836914656767723	8.46957511338759e-05
2
22400
Ar	-0.0001344138223479058	0.00025326080955831475	0.0031907770183424527	0.019840286963850342	0.010201446874777635	4.5264444895937824e-05
Xe	-8.063485089688854e-05	-6.907456441129225e-05	0.0027800939342243055	-0.005853500695446758	0.006440667045486855	8.024081805175821e-05
2
22600
Ar	8.311142977781135e-05	0.000273017077582508	0.003192524649366248	0.021491196588694906	-0.0064539545038394906	0.00024707170737040674
Xe	-0.00011021856413343844	8.916577064586022e-06	0.002780649436115437	0.00022898648937824594	0.008378831058023502	1.5304136547001666e-05
2
22800
Ar	0.00025323897269810644	0.00013636565518135063	0.00319491804040796	0.010815709354663344	-0.019501212989801477	0.00020281860925612546
Xe	-7.638523294440558e-05	8.184157050618182e-05	0.00278070762570848	0.006188464984260563	0.0054580943419991704	1.6220938075014952e-05
2
23000
Ar	0.00027793577892618455	-7.865433158634007e-05	0.003196033711984908	-0.006117139197889725	-0.021329413637627546	1.001740128524531e-05
Xe	1.7882623040341417e-06	0.00010731976408459604	0.0027808521458205695	0.008641356244514902	-0.0006265998280833692	-6.164288785935794e-06
2
23200
Ar	0.00014330351573867806	-0.00024844167341606934	0.0031952728428319777	-0.01944221101055522	-0.010951049246959476	-0.00012113510415266318
Xe	7.935608660360335e-05	7.072561669147066e-05	0.0027807000240184987	0.006078789827343921	-0.006324010598994587	-5.9069395249309105e-05
2
23400
Ar	-7.324505490833173e-05	-0.0002761414587162494	0.0031938982316525397	-0.021710260716451598	0.005712627883571347	-0.00014066990352156535
Xe	0.00011125907049630358	-6.7323690139119346e-06	0.0027795659054965856	-4.118687605973343e-06	-0.008365460868462729	-0.00015222321179071273
2
23600
Ar	-0.00024793590520138446	-0.0001452322047481196	0.0031926029544397058	-0.011490191212780502	0.019143510316473832	-0.00010574922046162229
Xe	7.916911046045262e-05	-8.014040000519287e-05	0.0027782475941170457	-0.0060908611149101495	-0.005583825483844476	-8.432437828536278e-05
2
23800
Ar	-0.0002803660620355774	6.918141643067919e-05	0.003191650894677672	0.00534441812441792	0.021559604078483462	-5.242476481482657e-05
Xe	1.1845592338680149e-06	-0.00010750227318532765	0.0027783147242408527	-0.008706723347951546	0.00039137237590475336	9.01869495956676e-05
2
24000
Ar	-0.00015177341361412774	0.00024366571793490345	0.0031917946641422347	0.0190545984622349	0.011586519383107773	0.00011450907587449169
Xe	-7.737555644088791e-05	-7.32615206869588e-05	0.0027793373483212987	-0.006226442240177399	0.006082417642637548	0.00012451754507311228
2
24200
Ar	6.37632257111597e-05	0.00027846984787882595	0.0031938973492361493	0.021863702121627675	-0.004971315248372054	0.00028547822723715887
Xe	-0.0001111830142866001	2.3708915570201283e-06	0.0027801988726997647	-0.000191913188867458	0.008289858013253512	4.457366641287998e-05
2
24400
Ar	0.0002428074905440961	0.0001539301544582825	0.003196751405588937	0.012123124773248227	-0.018676078355487756	0.00022228899624636382
Xe	-8.072717806812551e-05	7.638775216820649e-05	0.0027805999861929154	0.005981147001078058	0.005764961548409492	3.55841537127112e-05
2
24600
Ar	0.0002822014989283888	-5.8872096037031634e-05	0.0031975634177113794	-0.004636195229685913	-0.02172565252618957	-7.125401083264136e-05
Xe	-3.181974021210664e-06	0.00010658968490055351	0.0027810690334209793	0.008736657666627876	-1.7465944334068583e-05	3.202045653535618e-05
2
24800
Ar	0.0001594339610898116	-0.00023781012042732206	0.003196126041396329	-0.018668554735431223	-0.012269845010457728	-0.0002075434407235776
Xe	7.67895499568695e-05	7.553833976539832e-05	0.0027809288307606593	0.006422200642593212	-0.005849118622599733	-6.431423936528151e-05
2
25000
Ar	-5.494234050597835e-05	-0.00028058571971059583	0.0031940393159747603	-0.022029216454516862	0.004161673589528705	-0.00019110173190840855
Xe	0.0001127025720362175	1.0742515268260165e-06	0.0027798545852570594	0.0004000472172974741	-0.008296501858784533	-0.00013785298118693725
2
25200
Ar	-0.0002381386486701739	-0.0001625271513896965	0.0031920082926559065	-0.0127453536813453	0.018258946340774705	-0.00019073476006418473
Xe	8.389527249442524e-05	-7.414782968166169e-05	0.0027787915184037727	-0.005856717596441392	-0.005960012789509731	-5.958477900360225e-05
2
25400
Ar	-0.0002848480035420117	4.8885275144065176e-05	0.0031905952239177863	0.0038859767736824733	0.021867203086787034	-6.327951788644341e-05
Xe	7.131201800239551e-06	-0.00010665252972723931	0.002778768401819798	-0.00872682384701476	-0.00024163581542697602	5.89450704871033e-05
2
25600
Ar	-0.00016822865903530786	0.00023226858690431285	0.0031909339050542078	0.018260528548142564	0.012948614325090833	0.00015872270721118268
Xe	-7.310744112963556e-05	-7.845602846473676e-05	0.0027795924442474964	-0.006517612070015602	0.005593096281538594	9.001209933727485e-05
2
25800
Ar	4.500808859511992e-05	0.0002826467922281874	0.003193400096326951	0.02224030049627046	-0.0033828861547479656	0.0003216004987155262
Xe	-0.00011098881022136193	-5.549340580814028e-06	0.0027805672958567448	-0.0006629276709419414	0.008230507860027207	8.657186442495747e-05
2
26000
Ar	0.00023305242430268785	0.0001708757081143698	0.0031965966992708395	0.01342785546190063	-0.017835864285903814	0.00025537432538763464
Xe	-8.499111669936714e-05	7.059091788507924e-05	0.002781061979008879	0.005597056029718636	0.006219715603276314	1.5011065224724626e-05
2
26200
Ar	0.00028733594506110636	-3.8906032509796595e-05	0.003197782529171818	-0.00312031360798773	-0.02199184453810462	-2.9450689080088695e-05
Xe	-1.012828605408691e-05	0.00010656772389710991	0.0027810653903672165	0.008654947747025568	0.0005892197398379215	-1.4161033169093217e-05
2
26400
Ar	0.00017671108614550644	-0.0002260326380228718	0.0031964523114463507	-0.017878469252605705	-0.01356107011238123	-0.00022273264450391162
Xe	7.089708883983651e-05	8.134045569804706e-05	0.0027806660356875412	0.006716371833551055	-0.005371784157356565	-6.699098146175697e-05
2
26600
Ar	-3.545578482371391e-05	-0.0002834640311087696	0.003193825365107	-0.022395828564300474	0.0026525532022221065	-0.00026608371509789113
Xe	0.00011109860004765233	9.372164720849847e-06	0.0027797026259677965	0.0009135220094291727	-0.008292816023879344	-9.03815435006795e-05
2
26800
Ar	-0.00022758718814904277	-0.00017817145273213344	0.0031914094549116124	-0.0140756335828079	0.017358807922174944	-0.00019465850640808583
Xe	8.753554221237768e-05	-6.78742373678306e-05	0.002779049897260437	-0.005384523084588751	-0.00640057735440518	-3.551435461167458e-05
2
27000
Ar	-0.00028931332393724327	2.9511411022669638e-05	0.003190440891763964	0.002361694882488054	0.022062707787068526	-1.317628549511821e-05
Xe	1.407158236679391e-05	-0.00010616697684155819	0.00277927683021903	-0.008545492427818567	-0.000869692435317883	6.651049671736865e-05
2
27200
Ar	-0.00018519141879548128	0.0002200254036516687	0.0031915538922117044	0.01740404244257056	0.014143029580554347	0.00022038295295596523
Xe	-6.682145256736144e-05	-8.383234970098295e-05	0.0027799815270760403	-0.006839772548368989	0.005108851448796368	6.227614079523875e-05
2
27400
Ar	2.4755006008864114e-05	0.0002848424115001684	0.0031943811163404764	0.022464371189909155	-0.00184712906375169	0.00032681050816595877
Xe	-0.00010923670541625177	-1.3615875612208681e-05	0.0027802026654802935	-0.0012210963809168116	0.00820668087902262	-7.234952203015752e-06
2
27600
Ar	0.00022029403032251308	0.00018639512561999217	0.0031971607351977344	0.014636755049191626	-0.016854743855465995	0.00018677693041437411
Xe	-8.85603346548965e-05	6.454481003495454e-05	0.002780194517125051	0.005118885494708395	0.006638792375166073	1.8332109449850665e-05
2
27800
Ar	0.00028884525240765357	-1.9351050161886202e-05	0.003197512448326504	-0.001626573684624257	-0.02219177235114712	-0.00011037417437448575
Xe	-1.6858899877955524e-05	0.0001060760182107571	0.002780553072726395	0.00848617334026011	0.001227199557518171	4.1380046168193766e-05
2
28000
Ar	0.00019130487581549255	-0.00021391343245507797	0.003195223401669461	-0.016894144556671296	-0.014772951273935454	-0.0002973758852214039
Xe	6.474242704578172e-05	8.653167355350918e-05	0.0027807614964706225	0.007023144232612672	-0.004913699640352725	-1.8017642090420374e-05
2
28200
Ar	-1.6319097769355384e-05	-0.00028623737758814755	0.0031924396705837865	-0.022498284857920263	0.0010614689549250538	-0.00023709754910720661
Xe	0.00010956256200923051	1.7432269010511636e-05	0.0027801701720487288	0.0015057396994214152	-0.00822134077550715	-8.112287048932402e-05
2
28400
Ar	-0.00021489729747067304	-0.00019453070865607305	0.0031910807209523657	-0.015195024278311351	0.016333473555670292	-6.351409880600398e-05
Xe	9.193574254534256e-05	-6.157339308639655e-05	0.002779372892182364	-0.0048682077715168255	-0.006798738587945405	-9.341859292985365e-05
2
28600
Ar	-0.00029039684095701665	8.787252384300978e-06	0.0031910108400628667	0.0008309287514121773	0.022257292631414398	6.028960919656379e-05
Xe	2.1787446348874978e-05	-0.00010519494555070355	0.002779018521398631	-0.008444898405749947	-0.0014911238957270251	2.0902830690946003e-05
2
28800
Ar	-0.00019964050718631015	0.00020705134277875927	0.0031924844410380197	0.01639545090917182	0.015408664595285615	0.00023142168750900195
Xe	-6.0531340475734846e-05	-8.871420367345459e-05	0.0027793683669416532	-0.007180289416350823	0.004634027435268562	4.8227179416031664e-05
2
29000
Ar	5.683709561785444e-06	0.00028637896296042126	0.0031951640670592864	0.022567370904610796	-0.0003177887747294588	0.0002835466786664805
Xe	-0.00010787770204789668	-2.145951482144401e-05	0.0027797815001192726	-0.0018224061612578408	0.008150843487420404	2.2496475501733873e-05
2
29200
Ar	0.00020759839426226961	0.0002010311067630964	0.0031973739055151103	0.015746795543103372	-0.01588580423696143	0.00011484941210729757
Xe	-9.334623387076838e-05	5.811683683637173e-05	0.002779999955369156	0.004605620122117533	0.006949103429552119	4.624568199742404e-05
2
29400
Ar	0.000289812347412953	6.463511675109174e-08	0.0031971963314863256	-0.0001578832085534203	-0.022255024964389664	-0.0001651371258244808
Xe	-2.4888345214383473e-05	0.00010426583711064749	0.0027805696868745088	0.008396033166277381	0.0018186432415672573	6.360253232033281e-05
2
29600
Ar	0.00020509440444677803	-0.00020092630701479028	0.003194606204350943	-0.015904166197029907	-0.015905471959100716	-0.0003058198802911491
Xe	5.8364428504133515e-05	9.080070915299332e-05	0.0027809941862848055	0.00738257485605294	-0.004385737244637945	1.1287471631686383e-06
2
29800
Ar	2.8038218817927257e-06	-0.00028709074929821277	0.0031921711878052403	-0.02251610655894206	-0.0004529842510334607	-0.0001735410396322484
Xe	0.00010796403237973709	2.5322558082730544e-05	0.0027804750350017963	0.002043714730396222	-0.008044039472995118	-8.810204687516886e-05
2
30000
Ar	-0.0002012490661625338	-0.000208873218136298	0.0031909954035257058	-0.016212467645432157	0.015302440195356471	-4.2804099398346486e-05
Xe	9.539175403471143e-05	-5.443526380147207e-05	0.0027797036926169886	-0.004437915871217107	-0.007103129635195283	-4.382664744782091e-05
2
30200
Ar	-0.0002899169293945494	-1.1068233548230934e-05	0.0031912864591041906	-0.000617108996163534	0.022239276509981323	0.00010878890749555765
Xe	2.807378177356525e-05	-0.00010287825962214796	0.0027794427627007685	-0.008341300674984944	-0.002114122986394797	3.7837859141367607e-06
2
30400
Ar	-0.00021256772682342557	0.00019262788964520964	0.0031931279229552305	0.01530576111476441	0.016435670379478174	0.0002519791292141087
Xe	-5.515725569555662e-05	-9.233352878040588e-05	0.0027794083767224754	-0.007462612523012209	0.004082234948005397	-8.638750948366435e-06
2
30600
Ar	-1.3412480835147833e-05	0.00028561839745917697	0.003195793604272041	0.022515026895745797	0.0012150858651024615	0.0002450877466231099
Xe	-0.00010661542322410258	-2.8923623465169083e-05	0.00277924632159142	-0.0023013661159350792	0.007957854601158106	1.84604267607822e-05
2
30800
Ar	0.00019368850183822228	0.00021437090244430228	0.003197191704985575	0.016777605751881475	-0.014715407203098472	3.223497143514268e-05
Xe	-9.676975909381359e-05	5.1388369631915235e-05	0.002780030653089229	0.004176254996527383	0.007306884037908876	0.00010492726330079812
2
31000
Ar	0.0002892672405535028	2.0050942701603868e-05	0.0031962896526051966	0.0013992375173194971	-0.022176937647933603	-0.00019650543900780207
Xe	-3.1116116460632694e-05	0.00010248463743619388	0.002781212211808502	0.008299824677440466	0.0023844416274043556	0.00010852563130455755
2
31200
Ar	0.00021907854848387514	-0.00018599196100863114	0.0031939562420287247	-0.014728061755546262	-0.01694036628400457	-0.0002434487147502155
Xe	5.266697451179788e-05	9.487582150769507e-05	0.002781649590645729	0.007600961613209512	-0.003868591348052533	-3.0413044808001468e-05
2
31400
Ar	2.3373944136842672e-05	-0.0002856686593010313	0.003191893220510947	-0.0224150106154117	-0.0019963949140438895	-0.0001474051902644725
Xe	0.00010630329149355691	3.311221606433266e-05	0.002780998955492273	0.002576946094695626	-0.007871868203015641	-9.88492240822981e-05
2
31600
Ar	-0.00018568219596842798	-0.00022186944625053053	0.003191282401866894	-0.017266082185112528	0.01412605073692693	2.1395543535052237e-05
Xe	9.921526412261934e-05	-4.732891864833321e-05	0.0027799988539858062	-0.0039172400742125656	-0.007390089891600267	-8.496119006969287e-05
2
31800
Ar	-0.0002883768981031909	-3.093355148849153e-05	0.0031922697337443623	-0.0022306333521279914	0.022124921707921668	0.00019607302028000096
Xe	3.535018359915911e-05	-0.00010053398060255221	0.0027792574255896675	-0.008219093125253683	-0.0026999044340067866	-7.926934296311131e-05
2
32000
Ar	-0.00022580612798197167	0.00017759975214338893	0.0031946573355933453	0.014119857791939626	0.0174629958020461	0.00025939867340025134
Xe	-4.9015910677643576e-05	-9.616809736950694e-05	0.0027785873582781813	-0.007794978079889494	0.003561559551879454	-5.175314966085646e-05
2
32200
Ar	-3.3514135953201325e-05	0.0002839753903203563	0.003197038260170427	0.022409407362174227	0.0027444562205058928	0.00015624526301256654
Xe	-0.00010554878305885319	-3.630752890102813e-05	0.0027781211854123957	-0.002919427591872675	0.0077982926170633675	-2.357959852652643e-05
2
32400
Ar	0.00017827431285754743	0.00022684234869720582	0.00319750870233837	0.0177752579251631	-0.013585901547733766	-5.170625171688894e-05
Xe	-0.00010160499671440479	4.4996323592035255e-05	0.0027784549788244096	0.003693710672608723	0.0076333798630976845	9.890672714360206e-05
2
32600
Ar	0.0002869478134175022	3.907676089766396e-05	0.0031955986061212812	0.002876113412867055	-0.022009501929198712	-0.00032657798139302955
Xe	-3.8757356433581857e-05	0.00010096553343510016	0.0027800867756432915	0.008223482276886842	0.0029998800659029137	0.00021259204078468753
2
32800
Ar	0.00023055657129482195	-0.00017079045138230134	0.0031921953669458575	-0.013575613880390884	-0.017832635487122304	-0.0002895355432528368
Xe	4.631943721531042e-05	9.922650255628182e-05	0.0027820804756591372	0.007938080102282728	-0.00331597739080493	0.00014670813592808162
2
33000
Ar	4.202770579681548e-05	-0.00028273461014766994	0.0031904274204698816	-0.02220299673320186	-0.0034291638430209597	-3.569891546740721e-05
Xe	0.00010453399714324491	4.106589498857783e-05	0.0027826621643619056	0.0031234895602819477	-0.00771405727403465	-4.0399878649954244e-05
2
33200
Ar	-0.0001706510051479808	-0.00023305410055737624	0.003191076264598249	-0.01817425265402967	0.012866673004111139	0.00015689977351783925
Xe	0.00010262568988687616	-3.9922806080876555e-05	0.0027815824287601067	-0.003461757781309928	-0.007680996301454856	-0.0001368742609424091
2
33400
Ar	-0.00028566915227704834	-5.029528825640406e-05	0.003193045276635805	-0.0036602081506593464	0.021821628805458	0.00021423403585483705
Xe	4.207495155575784e-05	-9.7877382696265e-05	0.0027801056462969237	-0.008028415584257202	-0.003310057749658596	-0.00014968905318113248
2
33600
Ar	-0.00023692878698325208	0.00016110820933058857	0.0031953989546543923	0.012904959797309651	0.018312493253877883	0.00021160490537627992
Xe	-4.241331795825947e-05	-9.955753565799285e-05	0.002778720104860624	-0.008018619281162246	0.003005384417062845	-0.00014266149617896598
2
33800
Ar	-5.241728607136346e-05	0.0002802020343791572	0.0031964960737830977	0.022114814150307784	0.0042791076766596405	1.3256134137024682e-05
Xe	-0.00010285286564683935	-4.3744027629127346e-05	0.002777486153430391	-0.0034622679253157105	0.00759489294710448	-5.8031910919010565e-05
2
34000
Ar	0.00016209766961285777	0.00023812815503647391	0.003195565636512759	0.018624822885405182	-0.012273587400561257	-0.00018132066155185196
Xe	-0.0001044230913152819	3.7791308871688484e-05	0.00277767399246255	0.003171188484556496	0.007862394495775912	0.00011773147023623006
2
34200
Ar	0.00028323734631320336	5.892786823803938e-05	0.0031930870536333762	0.0044060292734116385	-0.02172792050900296	-0.0002747208627653009
Xe	-4.576582938303084e-05	9.80743523844064e-05	0.002779647122296494	0.007961989081123267	0.0035595957091022067	0.00025488321746147403
2
34400
Ar	0.00024187057236803352	-0.00015425407911799074	0.0031909710859676426	-0.012238708902456341	-0.018750897374431117	-0.00010676579804861551
Xe	3.910299281746441e-05	0.00010206224631395429	0.002781638727788989	0.008155521699426144	-0.002780808538729227	0.00013707217275220107
2
34600
Ar	6.200106974760429e-05	-0.00027979557512252057	0.0031914936160493293	-0.021905034652167945	-0.005062075100199479	0.00018991614457217223
Xe	0.00010118486028431892	4.8144894068504044e-05	0.0027823282254009853	0.003656910224675671	-0.007441921994301442	8.754790508786446e-08
2
34800
Ar	-0.00015378842508039734	-0.00024519745598318394	0.0031940187282867532	-0.019048497223685006	0.011643201681109761	0.00024892184178097716
Xe	0.00010515538818960593	-3.281974570076772e-05	0.0027817298041909414	-0.0028820387794841348	-0.007912582107438528	-0.00011643251356236202
2
35000
Ar	-0.0002813461540587853	-6.998519361123389e-05	0.0031960453468522316	-0.005166688346063996	0.021607684503604476	0.00013388395269504179
Xe	4.876562340225078e-05	-9.46862119732133e-05	0.0027805693422125427	-0.007812882686703463	-0.0038293650463539657	-0.00012014011055399986
2
35200
Ar	-0.00024729016394380406	0.0001448712934712863	0.0031967904966539464	0.011606405585243578	0.019190606190184967	1.1191377101040901e-05
Xe	-3.6172844482892074e-05	-0.00010185297756319513	0.0027794090146378834	-0.00828129990037952	0.002473859778716635	-0.00010675662115458173
2
35400
Ar	-7.152587995604701e-05	0.000276507735449217	0.003196184402686815	0.021788001890657417	0.005803410692989387	-0.00013277066914936145
Xe	-0.00010053777936032105	-5.0214649720088844e-05	0.002778469640857777	-0.003928571014732961	0.007327516159732162	-8.027600521005259e-05
2
35600
Ar	0.00014557641546884703	0.0002493392008818964	0.0031941839916142783	0.019418982622447893	-0.01095827500531377	-0.000277811249976731
Xe	-0.00010693662014575472	3.0447251542835018e-05	0.002778246604570131	0.0027146971779178635	0.007974934379419645	4.3713184527263186e-05
2
35800
Ar	0.0002787887145382804	7.898434109081495e-05	0.0031910080759237898	0.005891964465330587	-0.021394768694829647	-0.00029227192641005444
Xe	-5.182251857059977e-05	9.392288058707586e-05	0.002779619508405995	0.007770703308145901	0.00406106051921979	0.00019622519862851336
2
36000
Ar	0.000252383451733526	-0.00013700501800365618	0.0031894188144276055	-0.010926325016337576	-0.01960746993972325	9.131637042551405e-06
Xe	3.280282719029276e-05	0.00010368468078428437	0.0027815486503650036	0.008279641382135893	-0.002226140799418377	0.00014462522004236156
2
36200
Ar	8.131398776044506e-05	-0.0002750566300418884	0.003191107308279169	-0.021550574849293996	-0.006594385727766307	0.0003111125216911218
Xe	9.811394522280224e-05	5.4148477341224453e-05	0.002782010820313733	0.004137791963946191	-0.007190979798571014	-4.080117788093508e-05
2
36400
Ar	-0.00013679248876580628	-0.0002560030642988296	0.0031946671028869954	-0.019853513743519405	0.010259644383399241	0.0003170690454205726
Xe	0.00010730888517127097	-2.6246812173864948e-05	0.002781183234289692	-0.0024040356713957117	-0.008089129322096024	-0.00010954516926105421
2
36600
Ar	-0.00027658636656978727	-8.993196779306048e-05	0.003196945131919307	-0.00666638165079022	0.021264912238710895	0.00013304158579738242
Xe	5.474770878775604e-05	-9.174752805110595e-05	0.00278006203577299	-0.007590121459039168	-0.004328526291898029	-8.782909991314184e-05
2
36800
Ar	-0.0002571553319483263	0.0001276654268357726	0.0031972134335375197	0.010346780563214282	0.020042191975416544	-5.976691737503517e-05
Xe	-2.972600554726446e-05	-0.00010458109766990888	0.0027793201743160547	-0.008424135123350293	0.0019180324268544078	-7.257291803318599e-05
2
37000
Ar	-8.980511499401e-05	0.00027161893157266184	0.0031959090721291375	0.021416566315489848	0.00726282988307912	-0.00019524351194519148
Xe	-9.733644863642447e-05	-5.6858326946660205e-05	0.002778629205655274	-0.004405281383683333	0.007138670244906999	-5.2902549517838726e-05
2
37200
Ar	0.00012925785968864636	0.00025887651624295226	0.0031932791901039268	0.020153361805056887	-0.009667764230282119	-0.0003067584908777346
Xe	-0.0001092219351863209	2.3923259409658435e-05	0.0027784436579497483	0.002191204449827329	0.0082161052075478	4.462345813545242e-05
2
37400
Ar	0.00027416708884428975	9.721190213649547e-05	0.003190392821599817	0.007346178811197177	-0.021015588079362903	-0.00022180101337725925
Xe	-5.826118261585917e-05	9.133777536759945e-05	0.0027793162756598144	0.007480952625229196	0.004553744207365342	0.0001426612963753344
2
37600
Ar	0.0002619018982069095	-0.0001204186473982135	0.0031897268237986755	-0.009689871293572825	-0.020301468007460473	9.088422781978808e-05
Xe	2.5843158572920555e-05	0.00010638324392931939	0.0027806004538897255	0.008479445153344683	-0.0016898227961449806	0.00011580077633434049
2
37800
Ar	9.949367416395222e-05	-0.0002693177871497553	0.0031920275884000367	-0.021163211849865627	-0.00797685150071938	0.0003252832438004305
Xe	9.457595091750133e-05	6.088986474389452e-05	0.002781396172065942	0.00458978183799361	-0.006933641883595013	4.6753102483649386e-05
2
38000
Ar	-0.00012009994253643902	-0.0002639327639349266	0.0031954554264785116	-0.020513143024986975	0.009003761322324376	0.0003074658568146654
Xe	0.00010926424197725155	-1.9016470140011335e-05	0.0027815617364593676	-0.0017952463492156723	-0.008251534809760116	1.5493858216281544e-05
2
38200
Ar	-0.00027045876231791144	-0.00010689129350710403	0.003197476457110621	-0.008050205785788408	0.02080666411448715	7.663121388719418e-05
Xe	6.142699363951559e-05	-8.804944388607866e-05	0.002781941768097417	-0.0072773682621014284	-0.00485805914462207	3.4351318363234474e-05
2
38400
Ar	-0.00026535558274126735	0.00011143627089689351	0.0031970092598097542	0.009029652789499477	0.020648053579344298	-0.0001356509622323224
Xe	-2.192176158174153e-05	-0.00010667816106028758	0.0027816766608992267	-0.008524177508667194	0.0013259432912303547	-8.940902921819745e-05
2
38600
Ar	-0.00010767890967890117	0.0002659383734077843	0.003195137651327631	0.02091916176647406	0.008672124042485206	-0.0002440054240975559
Xe	-9.253278405094605e-05	-6.393725269179987e-05	0.00278022854592159	-0.004872892226629987	0.006777241427215154	-0.00017855887532192136
2
38800
Ar	0.00011216404639056392	0.00026774796183819507	0.0031927054503748994	0.02080260642551086	-0.00832830074140212	-0.00024417956276940586
Xe	-0.00010978283474697358	1.5613812130102427e-05	0.0027787996171448398	0.0015660777777647137	0.008311005401634116	-9.662685632502576e-05
2
39000
Ar	0.00026761350034864423	0.00011578845023151668	0.0031906540711918114	0.008723514013152626	-0.02051563747582237	-0.00013017158502021635
Xe	-6.423582343695535e-05	8.61587266197815e-05	0.002778598110747277	0.007096620568794039	0.005076337572314565	4.5050877046053076e-05
2
39200
Ar	0.00026968321972629125	-0.00010245131299537276	0.0031905899286251154	-0.008316744928022273	-0.020912296768531072	0.00011674502742813243
Xe	1.810583997103932e-05	0.00010754660944206253	0.002779488846722849	0.008549615113262313	-0.0010239925479622759	0.00011206676492028322
2
39400
Ar	0.00011713256710605225	-0.0002618806522077092	0.003192658326225475	-0.02065352907544952	-0.009345738276733538	0.00027819812885609334
Xe	8.991176399808469e-05	6.775564139746569e-05	0.0027804498974687273	0.005096329527254487	-0.006533748060436253	6.971598557411769e-05
2
39600
Ar	-0.00010290589601486157	-0.0002709283507267597	0.003195606750171627	-0.0211077504857721	0.007632461334323686	0.0002555342483139778
Xe	0.00011035221862479581	-1.0521128775166826e-05	0.0027809389291234173	-0.0012417463515556923	-0.008341934826374074	5.209260665833079e-05
2
39800
Ar	-0.00026357291772721584	-0.0001244383855342693	0.0031969254046157946	-0.009421116930819966	0.020182852203913627	7.151314602707143e-06
Xe	6.7367522945931e-05	-8.30246531098241e-05	0.0027815513294741196	-0.006915961798661919	-0.005384745700746611	6.838544059627141e-05
2
40000
Ar	-0.0002728482841499942	9.342648429347579e-05	0.0031960145575998947	0.007667172469769754	0.02118154218571522	-0.00015928056376812212
Xe	-1.4372079816336336e-05	-0.00010778245533515563	0.0027817203131624718	-0.00857776022844933	0.0006882575926242732	-2.9713140873193077e-05
2
40200
Ar	-0.00012536885132217895	0.00025788208868401285	0.0031940205993679343	0.020364165107623983	0.01003147037835116	-0.00023594413722023052
Xe	-8.748211754497919e-05	-7.053986189369655e-05	0.0027810442266357435	-0.005296423896861509	0.006384911410316348	-0.00012441254659836852
2
40400
Ar	9.43851962071971e-05	0.00027452250136893565	0.003191911873660211	0.021355712079107404	-0.006875403073105942	-0.00019469445925569242
Xe	-0.00011027459387132043	7.45576129442379e-06	0.002779849461985973	0.0009891262475935038	0.008428968349982531	-7.901504446920024e-05
2
40600
Ar	0.00026005186081324194	0.00013353571377477992	0.0031903209078539795	0.010087759272880753	-0.019877266187506747	-9.673558100255732e-05
Xe	-6.988064008883994e-05	8.120247255923958e-05	0.002779554340439654	0.006695905147665178	0.005579120996805108	9.643309971960924e-06
2
40800
Ar	0.0002766009970025666	-8.378906448138378e-05	0.0031903814416728085	-0.006929716656407872	-0.021440149461824494	0.00013930939296563988
Xe	1.0439786058698045e-05	0.0001081840719615189	0.0027795253485039723	0.00855310011505539	-0.0004392329916584773	-1.9065429524500492e-05
2
41000
Ar	0.00013489961041863682	-0.00025342302460222576	0.003192879841421472	-0.02000596026044297	-0.010767353208902833	0.00030635190336094985
Xe	8.451376530853823e-05	7.340521286181324e-05	0.002779206786940618	0.005507568400704296	-0.0062087169271239145	-2.5801626615930736e-05
2
41200
Ar	-8.422044661983442e-05	-0.0002779809419304316	0.0031955709466531855	-0.021570609851076977	0.006134052850184509	0.0001760859037212167
Xe	0.00011004674493461867	-3.7750013724372327e-06	0.0027790701672953735	-0.0006956557296088321	-0.008440465309674999	3.079423379017281e-05
2
41400
Ar	-0.0002542629803615906	-0.0001427947757386406	0.00319623416684049	-0.010724590938532829	0.019529516772538905	-3.5021337411518866e-05
Xe	7.202808570524422e-05	-7.902253537012364e-05	0.0027800666394170387	-0.006543908379206146	-0.005857537195785995	0.00014983055049566703
2
41600
Ar	-0.00027799014312434407	7.436749330278188e-05	0.003195392420564538	0.006200461942960797	0.021674809481282177	-0.00011240828717755706
Xe	-7.838152199186983e-06	-0.00010891724501051965	0.002781292202124665	-0.008632661550887806	0.00017601770195860763	6.945156958553418e-05
2
41800
Ar	-0.00014226973387745985	0.00024872304367174847	0.003194042285770767	0.0195615446618247	0.011418753608698089	-0.00014887346540299777
Xe	-8.340095966078852e-05	-7.611362666179405e-05	0.0027814986764597063	-0.005704080391101577	0.006042434572756155	5.649511156166198e-06
2
42000
Ar	7.517043157812389e-05	0.00028034563759732204	0.003192557271500543	0.02169244094348829	-0.005417698094032846	-0.00015762146070413192
Xe	-0.00011093917195933508	2.792186783401856e-07	0.002781243973704277	0.0004540179908166033	0.008436037549826782	-3.1457331517177026e-05
2
42200
Ar	0.0002494393180930016	0.000150915789152531	0.0031911656276554096	0.011365767775778352	-0.01914370986725824	-9.390833273448804e-05
Xe	-7.519280248748738e-05	7.621857298923427e-05	0.002781199381106928	0.006335489886324358	0.005971135807208925	3.355168377138005e-06
2
42400
Ar	0.00028049385499759484	-6.520085425467896e-05	0.0031913482481165352	-0.005466799089939491	-0.02191952563908722	0.0001375658081825416
Xe	3.111854758902663e-06	0.0001083275033776479	0.002780885814295844	0.008530284437500991	0.00011791167496861646	-8.218088293863413e-05
2
42600
Ar	0.00015081789841142935	-0.00024445782261501995	0.00319365333423402	-0.019149125907542298	-0.012093002807888558	0.0002720487249853358
Xe	7.920008471734455e-05	7.834832048959786e-05	0.0027797637363844835	0.005927279006900385	-0.005823566465830504	-0.0001141698149831606
2
42800
Ar	-6.531689088587937e-05	-0.00028327469082683944	0.0031957554731982434	-0.021879245904318997	0.004705470964372969	0.00011889366395267435
Xe	0.00010993811982709646	3.1795841749694364e-06	0.002779133590140934	-8.328008847661205e-05	-0.00846205338222312	-6.503378507960953e-06
2
43000
Ar	-0.00024388721066575663	-0.00015940447126006733	0.003195713416717632	-0.012024790750992206	0.018824336394515317	-0.000132180440485991
Xe	7.739888496984519e-05	-7.431264573264954e-05	0.002779640095086455	-0.00609973936094146	-0.006242597478561443	0.00011042903738161962
2
43200
Ar	-0.00028222637873728774	5.6300351926955405e-05	0.003193815801103028	0.004744635672358471	0.022121003055170084	-0.00019175467890450285
Xe	1.6082014171639052e-07	-0.00010919427960687258	0.0027808170426314336	-0.008540314673483226	-0.00038101719080969523	8.865173713476816e-05
2
43400
Ar	-0.000158399946230403	0.00023967082145777391	0.0031924569589120945	0.018741842228094593	0.012703348600867291	-9.192945743769747e-05
Xe	-7.676547886772981e-05	-8.13405846988301e-05	0.002781358726344439	-0.00608200139066937	0.005674393113443124	6.6668710530932655e-06
2
43600
Ar	5.618395688607963e-05	0.000285485464561206	0.003191635923160366	0.021993275157107795	-0.003993598331140113	-5.583851088944739e-05
Xe	-0.00010965980379928557	-6.9029428549671365e-06	0.002781181312431471	-0.00015163591493679495	0.008448212484978396	-3.0527627660312634e-05
2
43800
Ar	0.00023833245692585138	0.00016749820835795608	0.003191867334711324	0.012608063635153908	-0.01841753495399705	7.369440576740182e-05
Xe	-7.968739789508999e-05	7.131875576223476e-05	0.002780876059937116	0.005835388775695609	0.006408613204625256	-4.828646028577783e-05
2
44000
Ar	0.0002837947110861556	-4.6454827930229094e-05	0.003193237455372798	-0.003990562317697625	-0.022207712137517436	0.0001902727343266186
Xe	-4.391492237017339e-06	0.00010873637237902285	0.0027801048790246333	0.008462118853917375	0.0006933970497090293	-0.00011318718169231564
2
44200
Ar	0.0001666378047895148	-0.0002337802744941951	0.003195237164676709	-0.018273301736442368	-0.01329600603855551	0.0001596844710778509
Xe	7.353028191429529e-05	8.373728837674755e-05	0.0027792471143312956	0.0063267113752724586	-0.005423954266156395	-6.850839591872775e-05
2
44400
Ar	-4.6170196108604135e-05	-0.0002865165377298634	0.0031960253196562528	-0.02211220078142231	0.0032703589372036625	-5.300191563209796e-05
Xe	0.0001094402331265071	1.071987137539798e-05	0.0027790549087002327	0.00047574418593323686	-0.008430199934046222	4.075076480918639e-05
2
44600
Ar	-0.00023217427087893894	-0.0001747657960467895	0.003194583034114026	-0.013185340520186686	0.017950104147098828	-0.0002088612066934373
Xe	8.225521367890555e-05	-6.875317773335323e-05	0.0027799751378982406	-0.005638416494200559	-0.00664793642407307	0.00013225850517163774
2
44800
Ar	-0.00028444491154915155	3.721820564246846e-05	0.003192594573966442	0.0032326309628585635	0.022299105294841668	-0.00013210156249955624
Xe	7.875433348455937e-06	-0.00010896640140526597	0.0027812908638230995	-0.008464648808722124	-0.0009804806441706857	0.00011923041913120732
2
45000
Ar	-0.00017392965806848135	0.0002281090573759228	0.0031921252571296996	0.017754432141540048	0.013940793667552933	2.577349569641904e-05
Xe	-7.053593075929024e-05	-8.680401600600156e-05	0.002781705760176002	-0.006439989117604865	0.00521168696754812	-2.31483878460425e-05
2
45200
Ar	3.6225160804043685e-05	0.0002885341420600943	0.0031926607192882006	0.02216491942328978	-0.002472402569677092	7.325799762102087e-05
Xe	-0.0001085323981358222	-1.4974430173280753e-05	0.002781250491720642	-0.0007525083507837892	0.008440431765671847	-7.297029829889642e-05
2
45400
Ar	0.00022576139971403948	0.00018333034278297184	0.003193586207423093	0.013818602935948977	-0.017468852408391272	8.930701505037967e-05
Xe	-8.410009578655828e-05	6.550013913570164e-05	0.0027805014047229343	0.005403650222277975	0.006821163283245393	-5.884630213770633e-05
2
45600
Ar	0.00028562564529642916	-2.6968579128960513e-05	0.003194614933449721	-0.0024121417566808664	-0.02246495121241743	8.803942636530334e-05
Xe	-1.1266154516414985e-05	0.0001081624657598912	0.0027797619825651564	0.008406561060201205	0.0012671788330892919	-0.0001114089656218455
2
45800
Ar	0.0001818779987038708	-0.00022209154009401253	0.003195317531756802	-0.017303375501643965	-0.01458899535362323	2.6235797048895525e-05
Xe	6.785139213669423e-05	8.853415057423024e-05	0.0027784517933386868	0.0066096799738968376	-0.005028447853117086	-0.00011776046042631613
2
46000
Ar	-2.6373814609770314e-05	-0.0002898220306058367	0.003194733298464173	-0.022225225487208542	0.0017473199948341094	-0.00013686654606653666
Xe	0.00010792674377591534	1.7382765040368208e-05	0.0027778504071721832	0.0009952412368873865	-0.008449950925576247	1.7304219095832662e-05
2
46200
Ar	-0.0002191181477162058	-0.0001905223785373746	0.003193089200189443	-0.014365039790288626	0.017065296225413147	-0.0001632380814917997
Xe	8.57943224532234e-05	-6.40661796282498e-05	0.002778804098839199	-0.00517171531913446	-0.0069980792826471365	0.00015821175567672026
2
46400
Ar	-0.0002858250314028437	1.8126481041330852e-05	0.00319205460997977	0.0016868218103652398	0.022549821835588745	-1.8278652211721584e-05
Xe	1.435898399465972e-05	-0.00010892877007446379	0.0027805061109408414	-0.008347254094962052	-0.0015200805278885639	0.00013436802607275723
2
46600
Ar	-0.0001887682063821741	0.00021663960883666034	0.003192725310140732	0.01674813220933742	0.01512623811182789	0.00011486621575411892
Xe	-6.489368036447318e-05	-9.14892675225261e-05	0.0027812568730233673	-0.006695171864057176	0.004825629109568966	2.300872402329745e-05
2
46800
Ar	1.64681143231326e-05	0.00029080310078215103	0.0031940509017161227	0.022205565187004058	-0.0010317086530426901	0.0001128928952954541
Xe	-0.00010669297734907544	-2.1665564961444553e-05	0.0027812575919148965	-0.0012405572983095609	0.008433666406979927	1.3426900685139452e-05
2
47000
Ar	0.00021204811653827534	0.00019821451535012374	0.003194711147823918	0.014918235155112664	-0.01654680678758695	1.1859749531383011e-05
Xe	-8.725928691024091e-05	6.057252886657542e-05	0.002781202437465048	0.004978952676006157	0.0071932025001575335	-2.7621668583858668e-05
2
47200
Ar	0.000285988919272101	-7.87594862319993e-06	0.0031943998992993213	-0.0008865179265570382	-0.02259428715737928	-3.880604453514962e-05
Xe	-1.7299420455670065e-05	0.00010816762145663092	0.002780441929543582	0.00833023909560806	0.001818915104009944	-9.57401488565805e-05
2
47400
Ar	0.0001959776931750834	-0.00020967026419633955	0.0031944639905576587	-0.016208282710196305	-0.015681710918239805	8.158194252459308e-06
Xe	6.292012568030552e-05	9.356840643015174e-05	0.0027793572332806844	0.006918968832507915	-0.004594144844289824	-0.00010192605727012838
2
47600
Ar	-6.706572851658443e-06	-0.0002909898747089879	0.003194010461741743	-0.02224196539294357	0.00023651691205885345	-0.00010566887050337323
Xe	0.00010729785172851087	2.5109447152753463e-05	0.0027787069713891303	0.0015079753294166662	-0.008389442532472903	-1.5069668653221936e-05
2
47800
Ar	-0.00020543147322012788	-0.00020484465126813646	0.0031928220619196167	-0.015481821146809597	0.01610862818428365	-0.00011677835727587551
Xe	9.00485466269888e-05	-5.7959676066315085e-05	0.0027789363908349565	-0.004760969473847133	-0.007359384865368474	5.9584691877691855e-05
2
48000
Ar	-0.00028638203636833376	-6.322998128351239e-07	0.0031924774809648335	0.00010279652980298884	0.022646225065495986	4.5500311998985995e-05
Xe	2.131059712685231e-05	-0.00010786721800743347	0.0027795258600258406	-0.00828287047748325	-0.002120786327216773	4.077717395509085e-05
2
48200
Ar	-0.00020327771398445603	0.0002041990370575777	0.0031934428460915947	0.0156702685193136	0.01623498664632214	0.00012655682896176278
Xe	-5.9420440150240565e-05	-9.619034008082873e-05	0.002779735671535607	-0.007039119641820912	0.004332762040505929	3.089958783109075e-05
2
48400
Ar	-3.219032800650778e-06	0.00029195834166243845	0.0031943936896631376	0.02230260851467511	0.00042411752220616086	4.204332332023952e-05
Xe	-0.00010577646306622855	-2.9413825786888314e-05	0.002780246254946247	-0.0017586964351588986	0.00834394998358099	9.569299405078279e-05
2
48600
Ar	0.0001989175855954466	0.00021180100215385708	0.003194127087750862	0.01608330641368241	-0.015612009479077175	-7.309589885684708e-05
Xe	-9.112623627878893e-05	5.4512082863040955e-05	0.0027812112873236237	0.004520259340206578	0.0075686641277276255	9.596102597913342e-05
2
48800
Ar	0.00028712212889856777	1.0372348972972208e-05	0.0031933948530993832	0.0006641562358951122	-0.022644281039486264	-3.656970549586678e-05
Xe	-2.4447761414813623e-05	0.00010690702778807785	0.0027814462329109604	0.008146901365091476	0.002401468267499813	-3.317664109894608e-05
2
49000
Ar	0.00021094947981371615	-0.0001970649980027481	0.003193683698312308	-0.015114817573857506	-0.016760604471588673	7.543277109256357e-05
Xe	5.6103110558410464e-05	9.797916322512456e-05	0.0027806175063310856	0.007151630935798896	-0.0041134609474253875	-0.00012340111416572522
2
49200
Ar	1.3954155101612584e-05	-0.00029160635321130783	0.0031940785630529224	-0.022280342327295848	-0.0011750914300151516	-2.5714135145229465e-06
Xe	0.0001048223571362051	3.257570437768064e-05	0.002779480110314473	0.0020843199973224285	-0.008315388824829425	-8.946349715135096e-05
2
49400
Ar	-0.00019074571621395693	-0.00021848274678373824	0.003193888506235833	-0.0166099799032476	0.015046112031164925	-2.1696962962110398e-05
Xe	9.353497485385143e-05	-5.1925931373968755e-05	0.002779147221142707	-0.004254693661437029	-0.007737122857082597	1.3135883085095885e-05
2
49600
Ar	-0.00028603267290401417	-1.9881480819393694e-05	0.0031938377582759435	-0.0014945094575417217	0.022665199494586907	3.376476910887833e-05
Xe	2.8290930035003476e-05	-0.00010680634322006865	0.002779211918189199	-0.008137508584620182	-0.002687671385183387	-7.93738697344108e-06
2
49800
Ar	-0.00021728534555606383	0.00019041561557243586	0.003194204180693774	0.014573649960714492	0.017252196837354298	2.2449277509205876e-05
Xe	-5.35087861207901e-05	-0.00010025609878271879	0.002779200959205102	-0.00738271554034144	0.0039287224467738765	4.097722992398786e-06
2
50000
Ar	-2.374341460319744e-05	0.0002912921027146686	0.0031938643616659357	0.02216866842397404	0.0019013138662850176	-7.70324740618012e-05
Xe	-0.00010483055390386091	-3.580343150607923e-05	0.002779854844973676	-0.002341098783127416	0.008298177699675368	0.00011848707798874465
2
50200
Ar	0.00018313371659920427	0.00022477321364981675	0.003192928196038736	0.017110327151849295	-0.014527478174502532	-7.375377487641187e-05
Xe	-9.573890234351787e-05	4.940105425623165e-05	0.002781374683102104	0.004057893429025362	0.007858732226030004	0.00015152453706193973
2
50400
Ar	0.00028502204322016693	2.9402373591498965e-05	0.0031925971002884565	0.002229876216166117	-0.02256781344120474	4.356767245008939e-05
Xe	-3.224204618249448e-05	0.00010604737772423456	0.0027825190375391955	0.007998276356956673	0.002885646217223397	3.985470503794767e-05
2
50600
Ar	0.00022341605420935908	-0.00018276978259416796	0.0031935055635503753	-0.013921613228423606	-0.01772624759186294	0.00012563232482961444
Xe	4.915427313318483e-05	0.00010168586856464474	0.0027822400468497707	0.007439114051066215	-0.0037160449900718625	-0.00011190534522120315
2
50800
Ar	3.374719264399463e-05	-0.0002900306446225922	0.0031943168618110244	-0.022083109800343916	-0.0026391480956532696	4.747053912598068e-05
Xe	0.00010200252459432003	3.9007628092227474e-05	0.002780911778477575	0.002617341876649294	-0.008178667375921534	-0.00012631384134513874
2
51000
Ar	-0.00017492611313303386	-0.00023057974443396154	0.0031946835348624835	-0.01754577424166273	0.013917922783723983	2.67625775959023e-05
Xe	9.63890451602382e-05	-4.609339318658148e-05	0.0027799771750211862	-0.003691017416762644	-0.007976272352461658	-7.149801827394595e-05
2
51200
Ar	-0.00028305003017824225	-3.8702048543426965e-05	0.0031948852530206784	-0.002990784869677831	0.0225116483716112	5.917575343739236e-07
Xe	3.557198719242162e-05	-0.00010491265181298011	0.002779118656245552	-0.007857757732668034	-0.003180252848318449	-0.00010493080090218683
2
51400
Ar	-0.00022867851148764893	0.00017577494249232433	0.003194904239862288	0.013332084934587037	0.018186295141181464	-4.426378701761881e-05
Xe	-4.5844904692005416e-05	-0.00010341543347466382	0.002777956385042944	-0.007590614732610857	0.0034605718953526357	-7.4250643559672e-05
2
51600
Ar	-4.265861037786197e-05	0.00028900892945800963	0.0031937340388955545	0.021969142877487982	0.0033244077269739365	-0.00016284956480031612
Xe	-0.0001013721131335146	-4.2008291827355055e-05	0.002778034029791355	-0.002957885145118505	0.008192778241690865	8.926652637145935e-05
2
51800
Ar	0.00016753403888956423	0.000235781210810679	0.0031918903615911712	0.017958930368579085	-0.013413299307602716	-0.00015838952119297093
Xe	-9.881588419167598e-05	4.413291779310388e-05	0.0027795981625575654	0.0034263506635062394	0.008124199433198665	0.00019271763398053524
2
52000
Ar	0.00028195748693206753	4.700564938116224e-05	0.0031912717773226957	0.0037524807777013993	-0.022421973917328232	6.426671245538437e-05
Xe	-3.990713569312121e-05	0.00010465954073536133	0.0027808219309565277	0.007767842175314241	0.0033955029920181043	5.317655743917321e-05
2
52200
Ar	0.00023501487930999298	-0.00016913796761155179	0.00319296767577926	-0.012680344613160678	-0.018611831187822104	0.00021221655506540156
Xe	4.15050914227488e-05	0.00010552402995285901	0.0027810574334307526	0.007686151058056492	-0.0032390973449193078	1.6710760775443708e-05
2
52400
Ar	5.299882080323868e-05	-0.0002880244745388835	0.0031947599998820267	-0.021863621832627297	-0.003976953347948032	0.0001245965342073396
Xe	9.896885343246332e-05	4.603105741082509e-05	0.0027812610476961462	0.003214605510443523	-0.008058704953071986	1.4555920594161422e-05
2
52600
Ar	-0.0001595967902374597	-0.00024119040679762056	0.0031953548416676692	-0.018486424481185187	0.012866072418044158	1.2265242569205404e-05
Xe	9.993014304457589e-05	-3.9736096951934986e-05	0.002781343555569389	-0.0030500029595029146	-0.00821834038933409	-3.1406834671059364e-05
2
52800
Ar	-0.0002805024502702134	-5.589579890483644e-05	0.0031949549090502477	-0.004480350627745678	0.02230930753184096	-8.200811695451494e-05
Xe	4.3895299729392977e-05	-0.00010254302184054158	0.002780489560990924	-0.007582154464510248	-0.003722098631655504	-0.00015239096335711006
2
53000
Ar	-0.0002403937010442708	0.0001616429920917894	0.0031940153703042	0.012086780652793169	0.018957172035323402	-0.00011304381956693123
Xe	-3.710475452956255e-05	-0.0001067289472938295	0.0027788081855578844	-0.007791477648286041	0.002944733039264845	-0.0001378802034296826
2
53200
Ar	-6.243880058522869e-05	0.0002860142434678473	0.0031924634297570064	0.021706451656421856	0.004666095308168923	-0.00018666252215427493
Xe	-9.70623797579864e-05	-4.939233763147955e-05	0.0027782769841562982	-0.0035778863821238874	0.007946941283620857	3.748876368195615e-05
2
53400
Ar	0.00015115602431320558	0.00024593748280601083	0.003191043792739458	0.018857019031733046	-0.012240478324341112	-7.427292949433142e-05
Xe	-0.0001015176842575331	3.655781910166429e-05	0.0027793208883794434	0.0027499127300611745	0.008352906147737572	0.00011769286711734082
2
53600
Ar	0.00027818774737130845	6.49605587795257e-05	0.0031915536521908805	0.005270755575491727	-0.022122081497457854	0.00016990115996889935
Xe	-4.776155912389597e-05	0.00010145254319042996	0.002780271378079639	0.007455974322828646	0.003980589735630474	7.10653705104148e-05
2
53800
Ar	0.00024603323618451904	-0.0001536380176186977	0.003193738626289955	-0.011411173388872627	-0.01935894899798322	0.00021216723925325808
Xe	3.320866267083958e-05	0.00010833495610060023	0.002780730151162939	0.007914271209920342	-0.002671995816512297	6.865133028746774e-05
2
54000
Ar	7.209873981412008e-05	-0.0002840581111495111	0.0031950553205457874	-0.021579403424050153	-0.005391778337785497	4.068520539872681e-05
Xe	9.532585749286906e-05	5.3149118828355395e-05	0.002781654459066686	0.003882825624308648	-0.007823344011074543	0.00010260602539477401
2
54200
Ar	-0.00014317409689287521	-0.00025117853222165267	0.0031945552026686015	-0.01929228312079782	0.011650548226176888	-0.00010313961918061504
Xe	0.00010283339119558722	-3.245866558545284e-05	0.0027825585522431675	-0.002440198602133603	-0.008419977726597224	7.486270416002829e-05
2
54400
Ar	-0.00027653754997516094	-7.407354973221593e-05	0.0031937574945402835	-0.0060176340413583594	0.021990655838937754	-5.1562231526228384e-05
Xe	5.13211568371321e-05	-9.887297589479176e-05	0.0027824840655001973	-0.007341396037763448	-0.004197923794709229	-9.058620552298894e-05
2
54600
Ar	-0.0002515872672519046	0.0001456558643064171	0.003193251983592798	0.010775362862487665	0.019708344598187953	-5.182611147079221e-05
Xe	-2.9513371976134543e-05	-0.0001086765754657347	0.0027810826412434436	-0.00801179525763477	0.002362756988436613	-0.00017198932027220082
2
54800
Ar	-8.209128272075653e-05	0.00028151974576608993	0.003192542247497929	0.021387062043156334	0.006081167121684269	-9.095207174988988e-05
Xe	-9.358295094979708e-05	-5.588043045451879e-05	0.0027798666362755637	-0.004130261765772721	0.007650634630445666	-6.796002937407116e-05
2
55000
Ar	0.00013436655029540337	0.00025551308620920136	0.003191993439551215	0.019744322414440404	-0.011017154754757159	2.355260161944356e-07
Xe	-0.00010412679182131935	2.9251646854326394e-05	0.002779702090277685	0.002157392621528277	0.008499610504465346	1.6914588951366836e-05
2
55200
Ar	0.0002741188568583908	8.30323543198454e-05	0.0031927885271572083	0.006779367114179133	-0.021746374172257093	0.00015406826467681767
Xe	-5.498942573133029e-05	9.728414199144905e-05	0.002779855541137563	0.0071746318945874405	0.004425746376800991	1.445258276717464e-06
2
55400
Ar	0.0002567785228438946	-0.0001370778385308875	0.0031944974668523026	-0.010101463490838628	-0.02003110345054399	0.00015942641292165791
Xe	2.5435068405465496e-05	0.00010917404660460823	0.0027798626532529558	0.008096673244026867	-0.00217585566890361	2.179156023632837e-05
2
55600
Ar	9.189229106319359e-05	-0.00027847323773115735	0.0031950051553116844	-0.021194124717849715	-0.0068073664061209325	-4.613060812159148e-05
Xe	9.142640063513022e-05	5.811188270925402e-05	0.002780617758856706	0.004419864738274134	-0.007514689337335653	8.891405795071688e-05
2
55800
Ar	-0.00012554183585217077	-0.0002595909613455699	0.0031938868629104136	-0.020095924728452005	0.010357198638037975	-0.00013147153213844892
Xe	0.00010520637434652322	-2.6466571159953064e-05	0.002781373593616053	-0.0018024333183811305	-0.008537755572570273	2.3800736898491865e-05
2
56000
Ar	-0.0002708501177602309	-9.194733880522489e-05	0.003193166585904859	-0.00751317896322698	0.02148276147625613	-2.7511548212291285e-05
Xe	5.8843825713416016e-05	-9.586785931749444e-05	0.002781036821521319	-0.006997484808270216	-0.004633441305206103	-7.803503915616707e-05
2
56200
Ar	-0.0002607996625978877	0.00012841225142067448	0.0031931200538712783	0.00942607234890943	0.02034387715132217	-1.9140432807294632e-05
Xe	-2.1307224658629507e-05	-0.00011023864574758553	0.0027799974917210616	-0.008225596272288785	0.001925669339396815	-6.71555002426305e-05
2
56400
Ar	-0.0001010216976872741	0.00027505539520093585	0.003192343204795204	0.020915555492414164	0.007498245060408284	-8.537592525105835e-05
Xe	-8.93863277166285e-05	-6.113457897645376e-05	0.002779983205709199	-0.004676439898427785	0.007399147473990038	7.661282296302386e-05
2
56600
Ar	0.00011639828736028267	0.0002637715551096998	0.0031919344597877305	0.02035846965359492	-0.009611014904084796	1.0921626588599283e-05
Xe	-0.00010603933385629407	2.312108616075586e-05	0.0027808083888874163	0.001517785823697009	0.008587806964509481	8.336929544744969e-05
2
56800
Ar	0.00026697200404565837	0.0001011773316247896	0.0031927013617504864	0.008232131073666066	-0.021233988368752326	0.00012301898929630484
Xe	-6.190422703006065e-05	9.371893310328852e-05	0.0027812242252800907	0.006856713998445254	0.004851064029859917	-1.808749264671991e-05
2
57000
Ar	0.00026473511029236497	-0.00011934852241277955	0.0031939170609557813	-0.008682087616395473	-0.020635013193368433	8.279160077349367e-05
Xe	1.782039964802402e-05	0.00011064201550763652	0.0027808234020618833	0.008278372604008532	-0.0016213697035062237	-1.628755653157411e-05
2
57200
Ar	0.00011036213925469389	-0.0002709706109148741	0.0031940772754188123	-0.02061192706998582	-0.008160202276569639	-6.153553199713366e-05
Xe	8.760546549167712e-05	6.43322396355918e-05	0.0027807303928241373	0.004964604714381582	-0.007158501362710282	1.7903792129983678e-05
2
57400
Ar	-0.00010734259689628788	-0.0002668348574350834	0.0031932863944147067	-0.020746506206322943	0.008936221711431973	-5.727066852611348e-05
Xe	0.00010752611349632678	-1.8440454916450518e-05	0.0027809990308623814	-0.0012109411971149464	-0.008562325795143233	1.2015380651168036e-05
2
57600
Ar	-0.00026385563648638873	-0.0001097156838834526	0.0031932370452208243	-0.008970370356175945	0.020900438657324855	4.4914788285976185e-05
Xe	6.596413028110156e-05	-9.014173161768499e-05	0.0027808009492710176	-0.006692135722451613	-0.0050553493015612	-5.117215383404316e-05
2
57800
Ar	-0.00026913808324452275	0.00011026201074897992	0.003193662054854555	0.007997444033740761	0.020857933049262575	2.4644654512361145e-05
Xe	-1.3499708481070557e-05	-0.00010985205324283116	0.002780096962762796	-0.008356089674039023	0.0013152853238578644	-6.336595179470996e-05
2
58000
Ar	-0.00011968825092544424	0.0002665970491463066	0.003193519945274446	0.020379350936443427	0.008810893730417024	-4.329940047040248e-05
Xe	-8.5158668069264e-05	-6.631766952145279e-05	0.0027802611289459464	-0.005246994230015013	0.006946730000611493	8.232886270024277e-05
2
58200
Ar	9.868128585307934e-05	0.0002697583877278099	0.0031930979210991815	0.02106123622635025	-0.00821758556149182	-2.8477468769302308e-05
Xe	-0.00010843951579597914	1.5465535853505236e-05	0.002781099624975937	0.0008472124881066444	0.008580465152628277	5.255797568473608e-05
2
58400
Ar	0.0002609275213810094	0.00011831335785033627	0.0031932913639991086	0.00974765609596169	-0.020530738161133398	4.895651001717657e-05
Xe	-6.965431289342004e-05	8.854247052862742e-05	0.002781067017471235	0.006499554929280693	0.005311450495695407	-4.166563481520061e-05
2
58600
Ar	0.00027405580095300037	-0.00010094089283320311	0.003193444473363486	-0.007274357096683722	-0.021086779366840055	-2.5409135477960505e-05
Xe	8.885495000013959e-06	0.00011089084047798366	0.0027804056461123547	0.008417230775738421	-0.0010651790052425552	-7.018975361457103e-05
2
58800
Ar	0.00012956645870071076	-0.00026208344491801235	0.0031926837476482428	-0.020139681217621972	-0.009517365102277766	-0.00010394012583252217
Xe	8.253002337452596e-05	6.958148721917849e-05	0.0027801682970816453	0.005541003485217963	-0.006783938794287222	4.278609625950484e-05
2
59000
Ar	-8.955933161111491e-05	-0.00027293094965660265	0.0031920455406544844	-0.02143171421541756	0.00744744251461854	6.6722521654817395e-06
Xe	0.00010917445217846719	-1.1386482788136069e-05	0.0027805061260776174	-0.0005012259940128909	-0.00860614955745268	-4.932675730093684e-06
2
59200
Ar	-0.00025721448912670547	-0.00012751780995152288	0.0031928645348283796	-0.010405981147998334	0.02016603750746743	0.00013632256121526718
Xe	7.336583161871688e-05	-8.566716815517535e-05	0.0027801477341207266	-0.006309035133639638	-0.005475250582033275	-4.3299733313956176e-05
2
59400
Ar	-0.00027716082242712465	9.095616830343198e-05	0.0031939169854010357	0.006640610048971398	0.021295700923941254	7.140710454027131e-05
Xe	-4.83221513101096e-06	-0.00011042574937200053	0.0027799320618617724	-0.008529958642234398	0.0007946455557122996	1.5438982851880534e-05
2
59600
Ar	-0.0001375657145909152	0.00025682159332533294	0.0031939692913714947	0.019849884874943328	0.010174552501744033	-6.131465740394721e-06
Xe	-8.045117239294322e-05	-7.158170754031422e-05	0.002780438334500119	-0.005822691398666114	0.006563288978420203	7.240708199101792e-05
2
59800
Ar	8.090842049700002e-05	0.0002747658573377111	0.0031939348400407577	0.02164506750957454	-0.00673933330718388	3.020148204375476e-05
Xe	-0.00010998508556134544	8.440787821522763e-06	0.0027810652546514775	0.00022270930059681827	0.008603948031205049	6.0081964026942634e-05
2
60000
Ar	0.00025323432105445296	0.0001351202622463316	0.0031941205796447185	0.011078605222796701	-0.01979020320528581	1.447022927366623e-06
Xe	-7.637456207789474e-05	8.340378843682672e-05	0.002781030386442601	0.006152425353051209	0.005645364675969959	-3.489044341758879e-05
2
60200
Ar	0.00028036964425250176	-8.230315249996456e-05	0.003194020480072138	-0.005928121822794181	-0.021468918737879393	-6.005572499728786e-05
Xe	1.0271416071274077e-06	0.00011012031103813121	0.0027810753756478293	0.008518996876339321	-0.0005560451070049734	4.286446679057835e-05
2
60400
Ar	0.0001464756837031952	-0.00025209566116348933	0.0031929993296496294	-0.019466325545510133	-0.010792648890857116	-0.00010123788602009354
Xe	7.774896906541206e-05	7.342785001052887e-05	0.002781376774588426	0.006055465501444114	-0.006407697833768154	7.874396156863698e-06
2
60600
Ar	-7.11417770284532e-05	-0.0002772882190614716	0.003192462541311848	-0.021842561217418673	0.006001363683150781	6.574695986709925e-06
Xe	0.00010995016593940621	-4.973718288332535e-06	0.002780987814375843	7.549728147445225e-05	-0.008495814501982966	-8.169024149388865e-05
2
60800
Ar	-0.0002480333899741415	-0.00014371379888732534	0.003193114432892845	-0.011738354680900235	0.019374881130297193	0.00010628421552708256
Xe	7.926938279342858e-05	-8.02102359956465e-05	0.00278000703505893	-0.005905909387380528	-0.005801891278102083	-8.793206883890177e-05
2
61000
Ar	-0.0002825527922217797	7.249557370714858e-05	0.0031938831475239074	0.005190136443854288	0.021673134843287072	2.264437565426539e-05
Xe	3.0519046321819857e-06	-0.00010970151342905867	0.0027794558484413746	-0.008559653694344228	0.00023060541907689135	-3.269436480897854e-05
2
61200
Ar	-0.00015439340589149398	0.0002470481734750105	0.0031937162787590494	0.0191182732838612	0.011468824238447015	-3.329714621054687e-05
Xe	-7.521973617637156e-05	-7.563670575069292e-05	0.0027794845751359285	-0.006298715867506796	0.006205493760159869	4.8210947032393465e-05
2
61400
Ar	6.229865486548479e-05	0.0002795776825364245	0.0031934108441845866	0.022018387071163513	-0.005268905155335204	-1.5821203328745625e-05
Xe	-0.00011028916631213002	2.240092564848516e-06	0.0027800498471173777	-0.00033416402983646145	0.008568823767709491	5.542298966236448e-05
2
61600
Ar	0.0002431983134128821	0.0001518713423407584	0.003193595686046462	0.012346893128840504	-0.019002594210459346	5.2274574111451794e-05
Xe	-8.184492636305862e-05	7.86680711807872e-05	0.0027803969755768416	0.005743452336711528	0.0059593777796578505	2.64559275875302e-05
2
61800
Ar	0.00028448788759233507	-6.313550677423832e-05	0.0031938155319715953	-0.004514400661463795	-0.021809855136051347	-1.8067891867024723e-05
Xe	-6.22798443226466e-06	0.00010991896726007325	0.0027807516824648014	0.008614550797898	-4.811674108240084e-05	5.863695496399063e-05
2
62000
Ar	0.00016197199248284776	-0.00024176666515173363	0.0031931490673104785	-0.01871902737419336	-0.012091895073696523	-8.52420529974588e-05
Xe	7.345742145512225e-05	7.788809006323624e-05	0.002781364936719189	0.006499589337216401	-0.006029580808904984	5.367846829890616e-05
2
62200
Ar	-5.315786843476816e-05	-0.0002814585550124599	0.003192573600251515	-0.022150928766904304	0.004545782191737991	-2.469562005048235e-05
Xe	0.00011090070530648967	1.4446957765767672e-06	0.0027812975669700432	0.0005995611201547619	-0.008501660882502378	-8.829831668661653e-05
2
62400
Ar	-0.0002378072893087748	-0.00015997980461071774	0.0031929444417747067	-0.01290013841671342	0.018514438588948398	9.582934555565831e-05
Xe	8.447934221781603e-05	-7.573902675093055e-05	0.002780099676038393	-0.0056292163510974925	-0.006148399504451617	-0.00013499189378362117
2
62600
Ar	-0.00028558054751178733	5.298633944003885e-05	0.003193730661521326	0.0038109686654518417	0.021920741517189944	5.5981073961276304e-05
Xe	9.390327693458521e-06	-0.00010960191545770793	0.002779267023996518	-0.008635870277266828	-0.00026775788306301104	-9.651260326653473e-06
2
62800
Ar	-0.00016867047491811004	0.0002356252726300254	0.003193794293158704	0.01835908309611824	0.012734131474580603	-3.519832700445228e-05
Xe	-7.143945705551253e-05	-8.06738456935403e-05	0.0027797024443900285	-0.0067265498631228935	0.005774291965964925	8.639550407286513e-05
2
63000
Ar	4.532228880772483e-05	0.000282970497147052	0.0031936333105972406	0.022276647779383173	-0.003732474239209921	1.2927786213450058e-05
Xe	-0.00011156295469559465	-5.67728907637823e-06	0.002780568541605458	-0.0008687962546261807	0.00845704699511834	7.282931107114586e-05
2
63200
Ar	0.00023332128528933595	0.00016799835534132693	0.00319376461456802	0.013399740777615358	-0.0180910946918302	6.299052336734279e-06
Xe	-8.751868637696046e-05	7.221909656381548e-05	0.0027808778550011425	0.005449808189658257	0.006328009406618285	1.0717653344471402e-05
2
63400
Ar	0.0002872667377380626	-4.356468434541727e-05	0.0031936327659546422	-0.0031644287195740687	-0.022082048243052734	-5.418668998769164e-05
Xe	-1.3213334981344872e-05	0.00010882336770516235	0.002781072414998914	0.008643606870442449	0.0006196299390991752	2.7860530546212497e-05
2
63600
Ar	0.00017621592755785677	-0.00023030342655848784	0.0031927190076155927	-0.017932885768342892	-0.013406015480281233	-7.487892902816913e-05
Xe	6.864350746595797e-05	8.314265062714902e-05	0.002781192849509724	0.006869528194077836	-0.005457683338374875	-9.733993533440613e-06
2
63800
Ar	-3.615514252651069e-05	-0.0002854029393497436	0.003192600540167485	-0.022384382842602028	0.0029287864774887235	4.966020079599349e-05
Xe	0.00011106602676440394	1.0073891070678171e-05	0.0027809159995490847	0.001195227584075428	-0.008430806632832575	-1.57910147331593e-05
2
64000
Ar	-0.0002277813032320515	-0.00017710029957578426	0.003193389388282472	-0.013995113432564772	0.017655520328377153	6.108405130042539e-05
Xe	9.00904294329277e-05	-6.867119165873133e-05	0.0027806437639635987	-0.0051710285291673595	-0.006515931632000862	-3.264360023043452e-05
2
64200
Ar	-0.0002887935879576681	3.315308267187245e-05	0.0031936990471246713	0.0023917164514817304	0.022269679921562847	7.574891901316854e-06
Xe	1.7363419781753716e-05	-0.00010780857990924523	0.002780647354246891	-0.008637738593524336	-0.0009210625548388663	2.6830456147244453e-05
2
64400
Ar	-0.00018424489519827414	0.00022434387602085582	0.0031935837681996773	0.017453612847098142	0.014044473267133527	-8.930854653433588e-06
Xe	-6.5868909253322e-05	-8.49662482108635e-05	0.0027808710229198235	-0.007124278782184845	0.00526244096089829	1.2657126410017219e-05
2
64600
Ar	2.624610233741013e-05	0.0002866646496012039	0.003193678033749182	0.022500780529260092	-0.002203314402292391	4.581324722982789e-05
Xe	-0.00011121448374204212	-1.2917200974058886e-05	0.0027809560991620616	-0.0014972562521624881	0.008428708866014305	-1.136207338824215e-05
2
64800
Ar	0.00022193140620786923	0.00018449270600825508	0.0031941900642025304	0.014632436023912026	-0.017196650962566475	1.7595244772430867e-05
Xe	-9.256790494989452e-05	6.691375202989596e-05	0.002780635868170359	0.005056376530101045	0.006735393610933248	-1.4875876254840849e-05
2
65000
Ar	0.000290057348270234	-2.367134765137347e-05	0.003193726214858126	-0.0016717932475233694	-0.022309128221620924	-8.053762507936905e-05
Xe	-2.0064384700958792e-05	0.00010807939090908088	0.002780632914275387	0.008678532339127364	0.0010774664557710823	8.851908385478947e-06
2
65200
Ar	0.00019149665906842878	-0.00021786882716071917	0.00319271883983799	-0.017039814979440526	-0.014591063694932535	-7.653456556253553e-05
Xe	6.422311326600626e-05	8.691377605849974e-05	0.0027810748458789183	0.007297836010299551	-0.005098687303773992	4.8366429319298594e-05
2
65400
Ar	-1.7242718427096397e-05	-0.00028707978163374686	0.0031924076502690846	-0.0225939179706534	0.0014571811166734449	3.9585766336807205e-05
Xe	0.0001115884398420547	1.6509474678370345e-05	0.0027810093547683164	0.0016989186138835985	-0.008291920292815742	-5.3262441041351856e-05
2
65600
Ar	-0.00021651282033650462	-0.0001917539353660924	0.0031932418619809735	-0.015213582180620161	0.016646852396513447	8.261566385347368e-05
Xe	9.512889047814156e-05	-6.330930731639867e-05	0.0027802306607241155	-0.0048352515732665545	-0.006837286160300806	-4.9870946135139265e-05
2
65800
Ar	-0.0002916063838961283	1.3187962357569259e-05	0.003193706898721509	0.0009562941558944698	0.022282118718171026	7.531421272197354e-06
Xe	2.4225491139637768e-05	-0.00010682416317574991	0.002779979307831272	-0.008617236806038042	-0.001417119167770479	1.3937748647425203e-05
2
66000
Ar	-0.00019922279243038082	0.0002103732854265308	0.003193575567712128	0.01657514264507677	0.015167554424697766	-9.252617959209437e-07
Xe	-6.0417715842585045e-05	-8.913135953682637e-05	0.0027806191477234765	-0.007446129502551622	0.0047823169013242245	8.75551348525494e-05
2
66200
Ar	7.349815366849088e-06	0.0002867278966453642	0.0031937659692934353	0.022638520516451023	-0.0006775966376165154	4.22921603371505e-05
Xe	-0.00011000296830990397	-2.0425380426609765e-05	0.0027812346468792538	-0.0019905564948695755	0.008260076346474651	2.719282994503245e-05
2
66400
Ar	0.00020952049547446223	0.0001984802706615627	0.0031941813680751822	0.015725346098770313	-0.016093667566099167	1.0651915140678354e-05
Xe	-9.6196032286484e-05	6.012296450541444e-05	0.002781263813941183	0.004591151820231791	0.007046734706231528	-1.2184488087499808e-05
2
66600
Ar	0.0002910685916975752	-3.777240774868799e-06	0.0031936945301854545	-0.0002367709290069318	-0.022272521575219376	-0.00010041025577067929
Xe	-2.7013829323191057e-05	0.00010648874157648143	0.0027812543503414125	0.008556941350898892	0.0017614067122422709	1.1927819310652418e-05
2
66800
Ar	0.00020536239395098927	-0.00020366079275293173	0.0031928298342678717	-0.016037542816039523	-0.015665163452529135	-4.2125640138361e-05
Xe	5.7708432089540184e-05	9.171224589626752e-05	0.0027813258938802843	0.007504260699718057	-0.0045312993121242005	-1.0302105970454536e-05
2
67000
Ar	1.4982218906307034e-06	-0.00028685877876644594	0.0031929523372142142	-0.02265848070872889	-0.0001236800192851215	6.743294568221717e-05
Xe	0.00010905625780753931	2.5151702382283483e-05	0.002780577358040183	0.002239395638450583	-0.008127097147857625	-0.00011696530375530657
2
67200
Ar	-0.00020349786517703366	-0.00020552555752446604	0.0031936826845853513	-0.016247960003963016	0.015554579369707926	7.945892846605e-05
Xe	9.79650836218214e-05	-5.549650052663289e-05	0.0027793371031059524	-0.0043650641414473565	-0.007178137085921572	-0.0001000656950452431
2
67400
Ar	-0.0002914390800713014	-6.014838985826429e-06	0.003194060457959767	-0.0004292493926987645	0.022311720780493167	-3.4582480831194144e-05
Xe	3.0306470434862338e-05	-0.00010441352979123607	0.0027792581692581745	-0.008458342511623324	-0.0021051752900313283	5.151282999767952e-05
2
67600
Ar	-0.00021157789859745798	0.00019692750608022683	0.0031935380893164432	0.015598632204318183	0.01621776501894143	-5.2618252868919275e-05
Xe	-5.465422699315211e-05	-9.34031583715644e-05	0.0027801965651490838	-0.007666977136710116	0.004186991152981268	0.00012539842763720544
2
67800
Ar	-1.0135032926228544e-05	0.0002868790150679979	0.0031933081592169163	0.02266307026649033	0.0008797798426677791	1.677427777631239e-05
Xe	-0.00010805079649634563	-2.8671574762211675e-05	0.00278111480217734	-0.002477409948272652	0.008083516023335171	6.453516263350449e-05
2
68000
Ar	0.00019707503189559582	0.00021230022818717799	0.003193643690644923	0.016688122676825838	-0.015044554425848199	1.655477397771337e-05
Xe	-9.92671412889377e-05	5.2345827202938425e-05	0.002781541474799721	0.004136833963905043	0.007312402261546258	4.904169634954039e-05
2
68200
Ar	0.000291071948218517	1.5763512423109483e-05	0.0031934755079664387	0.0011664416101624768	-0.022270197233400048	-4.5734117552276784e-05
Xe	-3.349924650672416e-05	0.00010320357938048571	0.0027820441712273192	0.008354681159623607	0.002353686171733448	3.415787689732775e-05
2
68400
Ar	0.00021802756192346935	-0.00018972431413710224	0.003193025133532174	-0.015048359622808738	-0.01674104481896927	-4.5880698210875206e-05
Xe	5.150020153986509e-05	9.497600058652084e-05	0.002781799154361208	0.00776627940691207	-0.003923598963627645	-7.635152232120539e-05
2
68600
Ar	1.9857566079442984e-05	-0.0002867804073071618	0.003193023302813828	-0.02258105750906617	-0.0016754979531110787	5.703935425937903e-05
Xe	0.00010677291475599402	3.253461820464816e-05	0.0027806313166332808	0.0027345922392156036	-0.007949068272565108	-0.00015350331969287448
2
68800
Ar	-0.0001893594407246291	-0.00021961071405812626	0.003193442335188525	-0.017159971235640843	0.014462429939656683	3.654878118786362e-05
Xe	0.00010079354277456785	-4.868741006786492e-05	0.0027791540484016263	-0.003887296009943235	-0.007475391162208687	-0.00011773311248006979
2
69000
Ar	-0.00028957284288614384	-2.6104784338219423e-05	0.0031932702589343143	-0.0018582143311878505	0.022269846017662995	-4.130531766686001e-05
Xe	3.659320675727575e-05	-0.00010257040368429468	0.002778940258851063	-0.00827120504425765	-0.0027477537200433512	6.703031245912674e-05
2
69200
Ar	-0.00022335322963438762	0.0001822794220709067	0.003193041197413886	0.014418462635030835	0.017306500728806486	-4.125568744502476e-06
Xe	-4.859287165201021e-05	-9.780499265373791e-05	0.0027799265584244844	-0.007891625117912823	0.003650867437719808	0.00011798835001673826
2
69400
Ar	-2.8923581214265454e-05	0.000286207339157928	0.0031933035422579852	0.02247480933735541	0.0024386427547312467	5.760639093992996e-05
Xe	-0.00010594572734661903	-3.685851497507548e-05	0.0027811278836086966	-0.002986259461866462	0.007921885118807235	0.00011388687363689843
2
69600
Ar	0.00018222363035185792	0.00022613360839825137	0.0031935659111681064	0.017598442136137784	-0.013865889546104317	-2.6038084997972748e-05
Xe	-0.00010243357981058787	4.519930643804692e-05	0.0027819361311157715	0.003652836084186657	0.007640181356203802	6.485874612062856e-05
2
69800
Ar	0.0002887253540799408	3.6251428598195735e-05	0.0031930597242871535	0.002604740719282185	-0.022172621854706327	-5.1973734044225704e-05
Xe	-4.02040000852051e-05	0.00010113715523832609	0.0027823781739286287	0.008184995483026229	0.002993024200130771	1.987709414320636e-05
2
70000
Ar	0.00022950842540770376	-0.00017404071420179244	0.0031927243890360864	-0.013863607144220533	-0.017770540786935143	1.1925397290515412e-05
Xe	4.5263923564239764e-05	9.933920292625183e-05	0.0027819841494581108	0.008036685341372517	-0.003334791406032395	-0.00011605928685620172
2
70200
Ar	3.885415529279516e-05	-0.0002843647968773019	0.0031933622341898675	-0.02235820195382304	-0.0031897060545050576	0.00010332923676964759
Xe	0.00010468980204433519	4.101085586590054e-05	0.002780475484508367	0.0032537248160589265	-0.0077729318426417145	-0.00018971581227686954
2
70400
Ar	-0.0001742374500526148	-0.00023139948677387034	0.003194156498951807	-0.018076505905609722	0.013254176425523604	2.6857718675929762e-05
Xe	0.00010413926061349906	-4.095224886982664e-05	0.0027792382390577257	-0.0033713466267285726	-0.0078042489876294615	-6.741762824077361e-05
2
70600
Ar	-0.0002871262353697281	-4.534849499459677e-05	0.0031937931818745513	-0.003363301525300491	0.02207122369519103	-9.112432242787584e-05
Xe	4.3744165349799404e-05	-9.973695538473538e-05	0.002779417077158622	-0.00811973292000431	-0.0033464172964523466	7.854242036152834e-05
2
70800
Ar	-0.00023511685490477607	0.00016662729841137263	0.003192970281942164	0.013234659135056207	0.018157781634366484	-5.13547906114405e-05
Xe	-4.2048354398755074e-05	-0.00010124757261478892	0.0027802842006665607	-0.008150908782298044	0.003026854331498854	0.00010343371626842501
2
71000
Ar	-4.823411748822275e-05	0.00028288185837732264	0.003193141067353091	0.02225052562804066	0.0039184682676436395	6.215530303264163e-05
Xe	-0.00010326745801406968	-4.5152678428827816e-05	0.002781223186735502	-0.0034833808520028284	0.007608627608035293	5.3899405307505826e-05
2
71200
Ar	0.00016644953372725818	0.00023681294311073562	0.003193984500468898	0.018521808852057894	-0.012660268565770653	7.30406699778832e-05
Xe	-0.00010512018876804122	3.627969175024659e-05	0.002781393554891875	0.0031368295944958456	0.007863116670197247	-7.822615146591238e-06
2
71400
Ar	0.0002857932509950873	5.455952505595329e-05	0.003194291763402568	0.004139421771932756	-0.021929629187636725	-2.6613587581751837e-05
Xe	-4.664344068554203e-05	9.701496967837762e-05	0.0027812750464096367	0.007965360558300142	0.0036380387713882906	-3.913256409462185e-05
2
71600
Ar	0.00024116518686309368	-0.00015905283320378908	0.003193645219711364	-0.012613818867687608	-0.018619204668276757	-7.223453651224274e-05
Xe	3.860543221199601e-05	0.000101995879366162	0.002780759457356956	0.008226007857617897	-0.0026950826236812825	-5.282257756738704e-05
2
71800
Ar	5.839129473576033e-05	-0.00028165721204899196	0.00319312528143191	-0.02210076522678619	-0.0046456207560315555	-1.0287583610536498e-05
Xe	0.00010142264899526591	4.839353383006785e-05	0.0027802936718485365	0.0037206557426106026	-0.007496148032818471	-2.352803964358603e-05
2
72000
Ar	-0.000157977198188347	-0.00024256246606352397	0.003192868908165953	-0.018947796284045287	0.012073896185452274	-5.15930050933638e-05
Xe	0.00010572293519406965	-3.3090554695993256e-05	0.0027801612455591387	-0.002892610981579415	-0.007983410632923642	2.537354041201452e-05
2
72200
Ar	-0.0002836213071568066	-6.436056138558822e-05	0.003192381728690483	-0.004871446666777343	0.02176607812740106	-9.135372863119373e-06
Xe	4.9079253565203254e-05	-9.530510757460185e-05	0.0027806084962242097	-0.00784328761685265	-0.0038374581319486124	7.287227793155787e-05
2
72400
Ar	-0.00024615738326558983	0.00015046194652578547	0.0031927121734984963	0.012004662153223442	0.01900607553189161	7.897948106368786e-05
Xe	-3.566098819732659e-05	-0.00010249363116338894	0.002781143621118795	-0.00823894329765313	0.0024782622080736817	3.515168780328536e-05
2
72600
Ar	-6.73988269548388e-05	0.0002788141936508852	0.003193707174494712	0.021937887439223532	0.005356811026148997	0.00011258295109329456
Xe	-9.965260089664734e-05	-5.085042971593964e-05	0.002780949364872713	-0.003918071339101212	0.007346541255820233	-5.2080302985251474e-05
2
72800
Ar	0.00014995581450830998	0.00024720500719367417	0.0031947330746119463	0.01931060659081932	-0.011333639241795986	5.2135397826362986e-05
Xe	-0.00010629644776977808	3.01528432380412e-05	0.002780480705002908	0.002643810350384611	0.008041240734298979	-1.5303793233227007e-05
2
73000
Ar	0.0002809370774554781	7.407466667795367e-05	0.0031946613208649454	0.005555164020372746	-0.021541909649161386	-4.816795409611663e-05
Xe	-5.171908073984488e-05	9.412662937943362e-05	0.0027803814482179746	0.007733392004142138	0.004095448036933935	-1.1778734311019534e-06
2
73200
Ar	0.0002506113049584826	-0.000141592909963859	0.0031940286755269363	-0.011302787185421343	-0.019410571817088787	-6.739756282914656e-05
Xe	3.2886716682737506e-05	0.00010427703259298639	0.002780493935519743	0.008329167764749375	-0.002167260191455514	1.992567226746642e-06
2
73400
Ar	7.671093458909505e-05	-0.0002762257861055416	0.003193332428680187	-0.021726145266567937	-0.0061669597061001485	-5.757069295712388e-05
Xe	9.855020787898259e-05	5.4992506295205486e-05	0.002780376464134155	0.004160975858298117	-0.007187298036153778	-3.1675276128856695e-05
2
73600
Ar	-0.00014114038273677076	-0.000252707308424019	0.003192830491445824	-0.01963063419949113	0.010635185256196484	-4.820584962844634e-05
Xe	0.00010781148370899942	-2.558009403726969e-05	0.0027802004884410576	-0.0024065478626356476	-0.008112820183261316	2.547309017592737e-05
2
73800
Ar	-0.00027780529075474016	-8.442476671249134e-05	0.0031923580937459	-0.006305543778199916	0.021306632964389692	-3.5757080120749855e-05
Xe	5.495925310316722e-05	-9.144445423698338e-05	0.002780584703284941	-0.007585567670788179	-0.004390293712320587	4.6382355925958605e-05
2
74000
Ar	-0.00025497993743290166	0.00013204214854415996	0.0031924966478664774	0.010609417031783537	0.019796574641051827	6.840942382812543e-05
Xe	-2.885620857599248e-05	-0.00010485536611702881	0.0027804657836432377	-0.008337321630606789	0.001842640838575159	-5.566508558194022e-05
2
74200
Ar	-8.598799301739501e-05	0.0002729384505611924	0.003193881244630577	0.021475160767611415	0.006930224723707981	0.00020233222468529663
Xe	-9.562111706673364e-05	-5.827333435892732e-05	0.0027798426204476588	-0.004351445165335552	0.007036690031515079	-5.605303601663036e-05
2
74400
Ar	0.0001323817534201431	0.0002571718986428245	0.0031955096503028333	0.019976269253908975	-0.009941589455685	9.347486911436424e-05
Xe	-0.00010731338219567262	2.1917447222864814e-05	0.0027795595522184958	0.0021478122399931922	0.008191964202593448	2.6988494354784972e-05
2
74600
Ar	0.00027441641123105765	9.364124741352437e-05	0.003195568220311403	0.0069808166610929	-0.021092749672973265	-0.00011548747296798257
Xe	-5.676348812363283e-05	8.971508337601436e-05	0.0027799748005198754	0.007460761565081682	0.004660619728725723	3.339278857269988e-05
2
74800
Ar	0.00025865024291111855	-0.0001233678637744867	0.003194405908515825	-0.009986445918865796	-0.02012146780009761	-0.00011944511376583988
Xe	2.6971841450890133e-05	0.0001063525950757176	0.002780562073078414	0.008436060327086698	-0.0015231545129866474	6.213367846518026e-05
2
75000
Ar	9.430708866247e-05	-0.000269889143524333	0.003193374899374845	-0.0212304927040465	-0.007708465529275942	-0.00012579017499304122
Xe	9.532211932289651e-05	6.22206076884848e-05	0.0027806502317093327	0.0045370052210533	-0.006852667393023548	-4.242231837735258e-05
2
75200
Ar	-0.00012429746438814986	-0.00026201236569088816	0.00319215836411756	-0.020257534384822064	0.009190292848139945	-0.00011469525024231554
Xe	0.00010902385683720114	-1.7427586008604693e-05	0.002780317071373427	-0.0019351305820746012	-0.00828679021835781	-8.497162845465159e-06
2
75400
Ar	-0.0002713935564223129	-0.00010400452729661825	0.0031913572799252	-0.007694370950493277	0.020791677903187977	-2.5009855143270727e-05
Xe	6.040026606013378e-05	-8.732594400592612e-05	0.002780576641838735	-0.00728817669088871	-0.0049698755756622855	4.3199120909475585e-05
2
75600
Ar	-0.0002630416522830256	0.00011360063613775757	0.0031922248084568752	0.009276518886505708	0.02051285280315238	0.00019666111581639333
Xe	-2.2632328918309452e-05	-0.00010730197935093848	0.002780533672457617	-0.008461270343176367	0.0011820248029715346	-6.913942031754034e-05
2
75800
Ar	-0.00010386271033066696	0.00026642636069035405	0.0031944064372333284	0.020931915403037054	0.008473266001956501	0.00020331079442788153
Xe	-9.24876699900913e-05	-6.58885697500127e-05	0.0027797434255952234	-0.004781988965631298	0.006706978396051764	-7.64828073630472e-05
2
76000
Ar	0.00011470974863124561	0.0002664528572551552	0.0031956734148465495	0.02054790901055026	-0.008477945872325096	3.945878612413232e-05
Xe	-0.00010898111280496272	1.3827918091308491e-05	0.0027794637818560268	0.0016590106770269816	0.00842190987656946	3.322711793380627e-05
2
76200
Ar	0.0002670989242205084	0.00011339892257443165	0.0031950253999262993	0.008396861743165946	-0.020566880049895573	-0.00014029251170255815
Xe	-6.274386845652853e-05	8.590616579030745e-05	0.0027800964945042454	0.007143870843981139	0.005251637935088317	9.507524066711077e-05
2
76400
Ar	0.0002660306313960177	-0.00010484800342370577	0.00319370992183176	-0.008599569283293987	-0.020865847095317747	-0.00012063928068604499
Xe	1.9754572651785184e-05	0.00010840290939645653	0.0027807979641490117	0.008493035660342534	-0.0009407618639406814	2.7151868646998947e-05
2
76600
Ar	0.00011219848838791914	-0.0002632475141768954	0.003192663574776819	-0.020625756667410938	-0.00919427021311108	-7.79033853450293e-05
Xe	9.058774712954082e-05	6.875666267005517e-05	0.0027807577017256277	0.004960164812947895	-0.006567785893471114	-1.7424376721481475e-05
2
76800
Ar	-0.00010606858318554943	-0.00027046615794634575	0.0031922795624142876	-0.020804710418285285	0.00783515082499842	-2.302593626073886e-05
Xe	0.00010918735974547078	-1.0276539611697435e-05	0.00278087788084763	-0.0014216707585025653	-0.0084348606896905	3.681678509088118e-05
2
77000
Ar	-0.00026310302892953324	-0.00012218941128795384	0.0031923600420656964	-0.00900647217108254	0.020295281783865627	5.8568750098201345e-05
Xe	6.497000307381766e-05	-8.321208488379716e-05	0.002781281324333117	-0.00696535483418808	-0.005401840377241705	7.490556326485445e-06
2
77200
Ar	-0.0002690706761179776	9.6096461385156e-05	0.0031933253041385953	0.007882165510199275	0.021151853517830353	0.0001466549576947833
Xe	-1.6286545528339007e-05	-0.00010794525814911066	0.0027808843422773358	-0.00845675871039093	0.0007105060140537058	-8.640493961170479e-05
2
77400
Ar	-0.00012103508999844343	0.00025954618084550723	0.003195108925989716	0.020243842745022222	0.009848983383932931	0.00014464392532076
Xe	-8.786098362255151e-05	-7.06793272584483e-05	0.0027795115271911594	-0.005138937578693657	0.006394291368412922	-0.0001376456198980911
2
77600
Ar	9.630856081726112e-05	0.00027363303521600076	0.003195848626785435	0.02099622642535857	-0.007164579357857238	-4.043829751290983e-05
Xe	-0.00010897159592565084	7.632292817526644e-06	0.0027788434176968494	0.0011206922252459482	0.008480530168207195	1.5018356523114582e-06
2
77800
Ar	0.0002579983741007634	0.00013019584606508108	0.0031945498998601305	0.009702661018014843	-0.020062904693259765	-0.00017802504391536012
Xe	-6.729812656877149e-05	8.197683133835126e-05	0.0027792646047028217	0.006797816482444231	0.005641163786340688	6.873121131598683e-05
2
78000
Ar	0.0002717136694878633	-8.811765634703774e-05	0.003193239055523268	-0.007101780633959625	-0.021383916854117665	-8.447931170504235e-05
Xe	1.3115395296944367e-05	0.00010935143729172597	0.0027798493389465805	0.008479600658453412	-0.00045674702580954176	5.950599323010791e-05
2
78200
Ar	0.00012968624888751471	-0.0002560876410003722	0.0031929192813559227	-0.019867644333689996	-0.010486537707027219	1.2373536870923743e-05
Xe	8.593347066596842e-05	7.386783628807854e-05	0.0027802716004883335	0.0053253774253821055	-0.006275632364148041	2.4994104564356422e-05
2
78400
Ar	-8.67207292527677e-05	-0.0002771211075597617	0.0031931027808960975	-0.021231925065029494	0.006512065821641496	-3.6833267572687004e-06
Xe	0.00010943372624441042	-4.03734152296735e-06	0.0027805030740013677	-0.0008573676653342568	-0.008516893373144013	5.392650447809418e-05
2
78600
Ar	-0.0002534886589431402	-0.00013887660566082416	0.003193118748526493	-0.010438773688567774	0.019733955044502805	5.1038033424366066e-05
Xe	7.039263868733689e-05	-7.991820990771064e-05	0.0027811283428155953	-0.006542190223658179	-0.0058766430126416525	4.81819407050936e-05
2
78800
Ar	-0.00027499359210449295	7.863019699140544e-05	0.0031940730622663544	0.0063353468317461316	0.021605125974931184	0.00011972168819390987
Xe	-8.674054474277794e-06	-0.0001099796003788896	0.0027810595778634253	-0.008490158002575663	0.0001726187066443864	-7.296231642405633e-05
2
79000
Ar	-0.00013900512324913555	0.00025125623571568985	0.0031949918994566484	0.019502282273798244	0.01117019579093796	3.92994381114662e-05
Xe	-8.257824512699629e-05	-7.674432921307646e-05	0.0027800938295595443	-0.005554026935955313	0.006118632128981948	-8.105418205011221e-05
2
79200
Ar	7.661783743697894e-05	0.0002798557611246263	0.0031946757548673367	0.021436866902623346	-0.005742405134631275	-8.740214690512127e-05
Xe	-0.00010930140558842297	6.799723090508339e-07	0.002779659511322383	0.0005026584069111872	0.008587117411322625	-6.2113434724670034e-06
2
79400
Ar	0.000247747981440382	0.00014774759140376788	0.003193557623077495	0.011097697238617539	-0.019319217909024106	-0.00010168270591511534
Xe	-7.318116941452604e-05	7.792910447420783e-05	0.002779900965197827	0.0063355783643896605	0.006091110630320149	3.625693187187624e-05
2
79600
Ar	0.00027698871363225137	-6.870159327148216e-05	0.003193166398846087	-0.005539633529251922	-0.02178947924421935	5.308726833053766e-06
Xe	4.9137685027543165e-06	0.00011048729201345828	0.00277998020011067	0.008505924965218044	7.346309386302156e-05	-2.7464263128439485e-05
2
79800
Ar	0.00014783815672890038	-0.0002456191828945964	0.0031937284873457634	-0.019008320133774573	-0.011806777461646578	8.344256311678892e-05
Xe	8.003481079375954e-05	7.932736669314791e-05	0.002779687215615751	0.005799685319522153	-0.0059823516783463	-4.447830085795497e-06
2
80000
Ar	-6.629389606952192e-05	-0.00028168619635511496	0.003194215150734789	-0.02163085738457606	0.004987193238072554	1.1701968020693321e-05
Xe	0.00010928245995664803	2.542243127937001e-06	0.002779984503383608	-0.00023957767146066852	-0.008590743516637201	6.13155376403351e-05
2
80200
Ar	-0.00024246767807534943	-0.00015560205785317843	0.0031941911606341044	-0.01181890587668082	0.018930996503823072	-2.4597111696508232e-05
Xe	7.566486571145559e-05	-7.592653410885865e-05	0.0027808481901653915	-0.006125833363281733	-0.006295962405310557	9.707187415639471e-05
2
80400
Ar	-0.0002797368727525798	5.9975582002698484e-05	0.003194256784056577	0.004760015995542886	0.0220094718422156	2.586189817409442e-05
Xe	-1.276138722249685e-06	-0.00011101899302193219	0.0027814197025958685	-0.00847596131632297	-0.0003749664209212591	-6.237566885945289e-06
2
80600
Ar	-0.00015665122407943283	0.000241298248255	0.0031946809368352223	0.01862323333767841	0.012411867190190726	2.450416682176215e-05
Xe	-7.753947364637308e-05	-8.247421947675559e-05	0.00278095116793657	-0.005989506534799467	0.005778204192605844	-6.164579917949772e-05
2
80800
Ar	5.6359829054338825e-05	0.00028381214814352114	0.00319451293663154	0.021802652000540764	-0.004311888717491188	-5.7908295390824826e-05
Xe	-0.0001092964800871184	-6.694746454952818e-06	0.002780564472151763	-3.2528310015598395e-05	0.008608967520826696	1.7966033010506571e-06
2
81000
Ar	0.0002368485063595513	0.0001636132247007533	0.003193499819665233	0.012458266431803302	-0.018500650741349312	-9.939112599862643e-05
Xe	-7.810876318764538e-05	7.270755340902998e-05	0.0027803973253383214	0.005930343081612454	0.006464828033118999	-4.6450936067722376e-05
2
81200
Ar	0.00028162241216057784	-5.003798351182836e-05	0.0031930177421666092	-0.003944470509209409	-0.022068505086852243	1.9729317371902705e-05
Xe	-2.2717046733584433e-06	0.00010995800251461408	0.0027795093429526362	0.008464749461764037	0.0006331742132026877	-0.00013057774864677553
2
81400
Ar	0.00016485863975887466	-0.00023525642631002158	0.0031936646003923336	-0.018205267495859094	-0.013071009689439791	7.310570595365804e-05
Xe	7.47452822812261e-05	8.403127316433872e-05	0.0027783659569546393	0.006168143779701098	-0.005563983328795404	-5.5074357401129194e-05
2
81600
Ar	-4.67429112611046e-05	-0.0002855707590788107	0.0031942365686637992	-0.021954169823644322	0.0035178829097786543	2.3851202722523222e-05
Xe	0.00010887806537943102	9.546706775576114e-06	0.0027783916596843916	0.0003102647234003013	-0.008581138799409577	6.872115892368759e-05
2
81800
Ar	-0.00023142596289487592	-0.00017150536982282746	0.0031942027739731566	-0.013122247755664486	0.018106420770557987	-2.617390872772954e-05
Xe	8.04461743283337e-05	-7.064991182127229e-05	0.00277959643394152	-0.0056920481773854465	-0.00664429324682927	0.00015649141070190855
2
82000
Ar	-0.00028347104879055	4.096567211875177e-05	0.0031941002954381124	0.003248201873340207	0.022255899732072527	-9.674452225919038e-08
Xe	6.213410415502544e-06	-0.00011052293755840748	0.0027808800691091085	-0.008410383237560834	-0.0009113685740188923	9.428293653262598e-05
2
82200
Ar	-0.0001727749847899512	0.00022976442529838866	0.0031941170444059514	0.017775374563442043	0.013611069270812065	-7.589282878581917e-06
Xe	-7.166086102424229e-05	-8.697433376701748e-05	0.0027813018121632337	-0.006393556634127073	0.005377773057075842	8.231066414919593e-06
2
82400
Ar	3.748772240494641e-05	0.00028657555784188023	0.003193705430446246	0.022122873043073296	-0.002808304916440742	-6.416544951384137e-05
Xe	-0.00010899009303887422	-1.3439966530309553e-05	0.0027812399992858906	-0.0006572573745196895	0.008571994551909082	-4.737907973660532e-06
2
82600
Ar	0.00022621272162348454	0.00017886112343337135	0.0031932325314575683	0.013722360575596391	-0.01763250533427158	-2.62714433429035e-05
Xe	-8.366055437573127e-05	6.767000943744457e-05	0.0027807953824971897	0.005471137778956082	0.006828816798134305	-7.654319829373964e-05
2
82800
Ar	0.00028493245963078607	-3.1422100451295135e-05	0.0031934632053387934	-0.002558728480639458	-0.022306276589388743	5.85606207150497e-05
Xe	-1.056804565503774e-05	0.00010964418801101204	0.0027799586382971637	0.008405787046435175	0.0011632737421223252	-0.00011208059985492815
2
83000
Ar	0.00017988671119329575	-0.00022378195319903936	0.0031941502167521173	-0.017376745286355515	-0.014188008411609464	5.28003468492814e-05
Xe	6.831013953835453e-05	8.861801541633364e-05	0.002778932728532933	0.006573058401280426	-0.005147250333515665	-7.602675033097642e-05
2
83200
Ar	-2.8584788878024594e-05	-0.0002874139011417274	0.003194389650543572	-0.022180283947703546	0.002120481854187699	-2.2962129944539017e-05
Xe	0.00010798104355886902	1.6637277601724546e-05	0.0027786484231168735	0.0009572854610187491	-0.00854645713671979	3.2876797063913876e-05
2
83400
Ar	-0.00022027259933110916	-0.0001858237563462927	0.0031938050191694105	-0.014221099856367677	0.017157927800918897	-9.052129466760001e-05
Xe	8.554699205205466e-05	-6.526787172240071e-05	0.0027796398743365194	-0.005222210510132662	-0.006999685015242313	0.00011818066662793394
2
83600
Ar	-0.00028525003794241323	2.2514804913112763e-05	0.0031933756968308947	0.0018681059235557986	0.02238468824815058	-3.631945881921048e-07
Xe	1.3817420773278206e-05	-0.00010999647682938644	0.0027805791896499637	-0.008368737545725426	-0.0014626203264472741	5.43377004069706e-05
2
83800
Ar	-0.00018662906904693587	0.0002182712864382132	0.0031935335049519797	0.01687354889577729	0.014772690529821445	1.8896789486328004e-05
Xe	-6.547087543341536e-05	-9.160945222664189e-05	0.002780814757120719	-0.006700636549381108	0.00495584049819004	2.2000217737690978e-05
2
84000
Ar	1.9307389571250242e-05	0.00028918518526473234	0.00319346027174073	0.022171921938273043	-0.001328201567122427	-2.0347179155147196e-05
Xe	-0.00010699296611504857	-2.0719184126179316e-05	0.002781049988163104	-0.001174392701866576	0.00849236802445954	1.5104328682592338e-05
2
84200
Ar	0.00021412280442979488	0.0001943011952085512	0.0031934787390704737	0.014824552519278599	-0.016695733685936135	3.701077828142114e-05
Xe	-8.693980627167806e-05	6.186285409150153e-05	0.002780975153069628	0.004969167361193904	0.007187004026953046	-3.9809155707145566e-05
2
84400
Ar	0.0002867811367265547	-1.2236698475488029e-05	0.0031940975167307818	-0.0010398904281930389	-0.022504658495406914	8.246671240514278e-05
Xe	-1.7125689201436155e-05	0.00010865611885258111	0.0027801115840293757	0.008275152655437734	0.0017190636338526289	-0.00011618281923927076
2
84600
Ar	0.00019521318175128163	-0.0002117885131587446	0.0031949810161684064	-0.01633700289308154	-0.015372355320658565	4.528060534496434e-05
Xe	6.239445042212042e-05	9.27959909988434e-05	0.002778972237960166	0.006866092331705989	-0.004734130188790536	-8.528087301947676e-05
2
84800
Ar	-8.384287473469842e-06	-0.0002893315127409044	0.0031949037482535293	-0.022303120889806263	0.0006396575692730293	-7.587982963185568e-05
Xe	0.00010658935079538043	2.3220505080278363e-05	0.0027785799972136357	0.001525250790099693	-0.008458143004494397	7.034291863998108e-06
2
85000
Ar	-0.00020725630572050952	-0.00020022757001248665	0.003194046285933162	-0.015438830687645334	0.016254424566740335	-8.30197086008873e-05
Xe	8.980812896204207e-05	-5.9715622212453734e-05	0.0027789183273382156	-0.004703980556777563	-0.00729679571446868	9.108189667430543e-05
2
85200
Ar	-0.000287120897582455	4.058839232720538e-06	0.003193396007181114	0.00029413883794498043	0.022508733966736832	-6.8753533669164e-05
Xe	2.161758834760753e-05	-0.00010836184313450418	0.0027799447912312016	-0.008247911503308532	-0.0019352125642712725	0.00010308330023610276
2
85400
Ar	-0.00020234169242654308	0.00020624745624858053	0.0031931364981757893	0.015836760350786228	0.01584024002188854	8.183124871376242e-06
Xe	-5.92834409121658e-05	-9.510129657899805e-05	0.0027805242438310365	-0.007102005478763704	0.00447106226114435	3.530041452631144e-05
2
85600
Ar	-1.5047958906951558e-06	0.00028983061033961135	0.003193074724058114	0.022310663802764922	2.6210146201064555e-05	-4.903470727757401e-06
Xe	-0.00010659678909175192	-2.7459329706571184e-05	0.0027808421040825485	-0.0018960541871772068	0.008367749105248701	3.098906566863534e-05
2
85800
Ar	0.00020031069039311452	0.0002071235487104555	0.0031933220948548776	0.016013950898161204	-0.015718327589519306	8.465566103799007e-05
Xe	-9.319657524981867e-05	5.599850788243473e-05	0.0027810193357000823	0.0044427066354661504	0.007467905266174838	-5.846585664379403e-06
2
86000
Ar	0.0002874604566463475	6.08367787097732e-06	0.0031942654073307004	0.0005317998728466903	-0.02244974136975786	8.589315601373234e-05
Xe	-2.6469284194810124e-05	0.00010754507703975446	0.002780751551375126	0.00822472350224198	0.0022978432671976563	-4.5304112970741775e-05
2
86200
Ar	0.00020977793690277205	-0.000198371613594347	0.003194896832729692	-0.015294023461988687	-0.016338991967337544	2.99935729429717e-05
Xe	5.541131222046291e-05	9.729125320584265e-05	0.002780202004777576	0.007334520535469651	-0.004257295952974977	-4.8062304394737316e-05
2
86400
Ar	1.153131590377145e-05	-0.0002887198365703535	0.003194987422413099	-0.022330232118803504	-0.000828006791231707	-3.4656884578542415e-05
Xe	0.00010546234761308564	3.0949909214717375e-05	0.0027799947321449237	0.002171505557460431	-0.008338064742242935	1.0372995976107053e-05
2
86600
Ar	-0.00019325628137877647	-0.00021319972856279157	0.0031941023323221645	-0.016554478738570935	0.015152882458743428	-0.00010402379063249338
Xe	9.472122409105371e-05	-5.3155837765343116e-05	0.002780117649554366	-0.004205720040137632	-0.007635417451327521	3.915697327911344e-06
2
86800
Ar	-0.0002871812997623744	-1.5041842183201797e-05	0.0031932535119769726	-0.0012763223340704526	0.022475105011541256	-4.49073544328041e-05
Xe	2.9870674510457508e-05	-0.00010680668288360999	0.0027799948465607295	-0.008107482584253648	-0.0025487939064285934	-3.4754641242085973e-05
2
87000
Ar	-0.00021626821483100272	0.00019238269630258197	0.0031928807626550896	0.014732223592953168	0.01686862027088954	-1.701452391285983e-05
Xe	-5.219392711943805e-05	-9.926352181124417e-05	0.002779552659340648	-0.0074504087639315954	0.004002207334627456	-4.2612316693893465e-05
2
87200
Ar	-2.1142965229771607e-05	0.00028951777737848823	0.003192959986160527	0.02230931367230068	0.0015673013522929636	3.181199679611503e-06
Xe	-0.00010449138361712552	-3.439786639389245e-05	0.0027794511500666553	-0.0024775286059633074	0.008302303905877221	2.530667916425883e-05
2
87400
Ar	0.0001860192125138399	0.0002207833228158859	0.0031933952272456805	0.017019664033969924	-0.014609675366576504	7.16147336624324e-05
Xe	-9.711854141937288e-05	5.02423048465091e-05	0.0027798548987039567	0.0038777027970458423	0.007771639200608669	4.705230696596703e-05
2
87600
Ar	0.00028623310950219106	2.5663641847414612e-05	0.0031943910994284104	0.0019961113444159477	-0.022443322980360066	9.637844418513845e-05
Xe	-3.419392837885978e-05	0.00010605316564668285	0.0027803102908394877	0.008067514815659881	0.002829423438175265	3.7566905237184446e-05
2
87800
Ar	0.00022221726250428857	-0.0001843274868755419	0.0031950129569124	-0.014166494004237497	-0.017424948889605142	-3.631962474243256e-07
Xe	4.8556850313259034e-05	0.00010105508295123434	0.0027807379661029994	0.00763174683187143	-0.003780601427459054	5.902989585386669e-05
2
88000
Ar	3.064844512460472e-05	-0.000288690276912586	0.0031943983598448525	-0.02220979390856727	-0.002389170982307036	-0.00010880027068921693
Xe	0.00010337061803285792	3.764433482943624e-05	0.002781238519366873	0.0027999610581366722	-0.008235762760482242	5.424537227827609e-05
2
88200
Ar	-0.00017861747938341437	-0.00022721575546662989	0.0031931853727635412	-0.017515236617682582	0.014082152993281737	-9.184415420891335e-05
Xe	9.88194701622243e-05	-4.739603441378629e-05	0.0027813496897359687	-0.0036522061947753294	-0.007895075670366451	-1.0316863486836328e-05
2
88400
Ar	-0.0002855836440255581	-3.480290087729971e-05	0.003192536406692417	-0.002784886307627133	0.022449526030226815	-3.1896734633990644e-05
Xe	3.766590385355162e-05	-0.00010542281577382894	0.002780955565920438	-0.007961370639134203	-0.0031142954225263078	-6.43778190729708e-05
2
88600
Ar	-0.00022854371682453958	0.00017799036262007513	0.0031924948284284688	0.013596196433950042	0.01794355388923753	1.270047927459391e-05
Xe	-4.476290708986122e-05	-0.00010345026366016519	0.002780204157813854	-0.007704448660281233	0.0034901035500497597	-6.279694607378159e-05
2
88800
Ar	-4.0128343621473106e-05	0.0002886554630648903	0.003192889298742881	0.022167817026897806	0.003073931217255092	4.387180631089531e-05
Xe	-0.00010159026432243306	-4.212456214351308e-05	0.0027800673237114598	-0.0030608832654561748	0.008151207303900329	1.2851237758521046e-05
2
89000
Ar	0.0001713349065018189	0.0002333877398375263	0.0031932151849154585	0.01799131563813862	-0.013551044786586437	4.0712269669573644e-05
Xe	-0.00010016361132892144	4.326968654901237e-05	0.0027803418989563204	0.0033249184559224904	0.00807022329172131	2.913988236222017e-05
2
89200
Ar	0.00028453599064894096	4.434962540645282e-05	0.00319375611198181	0.0035022446618531112	-0.02236028457441014	5.919549821012038e-05
Xe	-4.153617813518143e-05	0.00010383616651032766	0.0027804762573319613	0.0078118135813613175	0.0034185065923188294	2.1436185493432747e-05
2
89400
Ar	0.00023439007498169155	-0.000170210557035893	0.003194028990493591	-0.013022331401762587	-0.018350303568313953	-4.288422006625744e-06
Xe	4.049295289767391e-05	0.00010488722691017714	0.0027806714115612345	0.0077924562221617245	-0.0032288268248015575	3.111003813669786e-05
2
89600
Ar	4.953511592448845e-05	-0.00028715621253271576	0.0031937764924254456	-0.022076336748863442	-0.003835245577232791	-5.075245112535683e-05
Xe	9.953517488079329e-05	4.544194556734271e-05	0.0027812337130110397	0.0034049877831898783	-0.008043000022869213	6.491997230829575e-05
2
89800
Ar	-0.00016382800413920228	-0.00023947162680061702	0.0031933589657553154	-0.018420652960148356	0.012884535973827198	-3.470757380698156e-05
Xe	0.00010159659595997883	-3.9821350677054354e-05	0.002781910034192963	-0.0029803559797383816	-0.008173973403189705	5.461519369444442e-05
2
90000
Ar	-0.0002831443476131646	-5.4673190842003634e-05	0.003193262964311875	-0.004227164461994979	0.02221046909819807	2.1099392321547478e-06
Xe	4.544269377033044e-05	-0.0001021395159442253	0.0027819495870732955	-0.0076592660634226956	-0.0036654382005380684	-7.09525361311593e-05
2
90200
Ar	-0.00024019454683305255	0.00016152778293633795	0.0031933570997464446	0.012393466507802691	0.018831807605433928	2.959589020448906e-06
Xe	-3.6692654837661066e-05	-0.00010599748249444005	0.002780892534119934	-0.007936387123811905	0.002929602425996484	-0.0001053487594626516
2
90400
Ar	-5.957463702125592e-05	0.0002849316280283068	0.003193316392541037	0.021902265724986516	0.0045844792629976365	-2.7714420368745858e-05
Xe	-9.768357610554826e-05	-4.918024071516259e-05	0.0027801487158856837	-0.0036567040410512876	0.007847034250463117	-4.860739795817655e-05
2
90600
Ar	0.00015508352953648812	0.00024448517522296826	0.003193048254437275	0.018863910558905028	-0.012259596846716672	-1.7970772477231462e-05
Xe	-0.00010258642771524439	3.570075585908069e-05	0.0027798867960685454	0.0027130011202298686	0.008286973760043384	-4.088405031228468e-06
2
90800
Ar	0.0002808451198065359	6.38493787442179e-05	0.0031932165430956913	0.00500909748121944	-0.022059006996271217	2.8672397757961743e-05
Xe	-4.848349607609954e-05	0.00010024646433656325	0.0027797401758850775	0.007555320920173104	0.003963634006237227	-1.4354669876052239e-05
2
91000
Ar	0.00024561523159746237	-0.00015354869152113076	0.0031937836778950348	-0.011717667147931978	-0.019206761420680264	4.8136656779365344e-05
Xe	3.3532662058433e-05	0.00010722366240383452	0.0027800627450190077	0.00799407817910513	-0.0026512087407227812	7.620650026169543e-05
2
91200
Ar	6.922187592287634e-05	-0.00028293874003492895	0.0031939263611197	-0.021754627111482152	-0.0053438679196097395	-2.860096602105104e-05
Xe	9.591323261755606e-05	5.227511917165489e-05	0.0027810376298172514	0.003846142173394216	-0.007789417625654731	9.883772961802404e-05
2
91400
Ar	-0.0001469031502891358	-0.0002499076939085969	0.003193535790066705	-0.019295776637510066	0.011605010503487946	-3.129267406441983e-05
Xe	0.00010301673627657651	-3.2957798695440524e-05	0.0027817759464085867	-0.0025031114366116957	-0.008374989465823388	4.4604297585814384e-05
2
91600
Ar	-0.00027882355403018646	-7.328369317816244e-05	0.0031937989544356302	-0.0057607958154285615	0.021916926284767227	4.2694019090378666e-05
Xe	5.0997231507899344e-05	-9.890506777094293e-05	0.0027817648698664973	-0.007357124792498025	-0.004156280671360208	-4.053237477380294e-05
2
91800
Ar	-0.0002506637400399119	0.00014552693495952808	0.003194137355481262	0.011091815136466229	0.019619361494809306	6.7570856893323945e-06
Xe	-2.989056565581716e-05	-0.00010795316453214728	0.0027814055359235493	-0.007984654147917469	0.0024410253516505506	-5.526803000659173e-05
2
92000
Ar	-7.882956042476817e-05	0.0002805590175431516	0.003193801614160118	0.021540293073353485	0.006012318936324337	-7.981884717969704e-05
Xe	-9.329023340303302e-05	-5.515446806907024e-05	0.002781090603102172	-0.004047810857563636	0.007597864181168344	-1.1986221200192029e-05
2
92200
Ar	0.00013801578250731858	0.0002542849497152006	0.003192728073240935	0.01960569362483759	-0.010993245917166659	-0.00010715012412375525
Xe	-0.00010321510417654464	2.9220217929449936e-05	0.00278108461095266	0.0021633074533960977	0.00842655627161259	-1.2535705979995014e-05
2
92400
Ar	0.00027536460388852296	8.223898970512235e-05	0.0031924785635819943	0.006496423707864851	-0.02168748321436827	4.421737547815124e-05
Xe	-5.435340131938465e-05	9.653183380673858e-05	0.002780482916544463	0.007130193866638796	0.004351281942008494	-8.321936159902032e-05
2
92600
Ar	0.00025502964115131573	-0.0001373065167492861	0.003193228820926714	-0.0103762866370038	-0.019984735502062385	7.299814538760664e-05
Xe	2.5460165960966226e-05	0.0001080490161397233	0.00277966406450844	0.008031120365972205	-0.0021785748794713213	-6.59488451339728e-05
2
92800
Ar	8.83926932919467e-05	-0.0002779238943050194	0.003193877666307762	-0.02125157034008409	-0.006721663424343152	5.1757674198805656e-05
Xe	9.097418987685416e-05	5.720523002159697e-05	0.0027793704471082478	0.004377282087556534	-0.007477200570950096	-2.69052494191599e-06
2
93000
Ar	-0.00012869836334266307	-0.00025892877848672356	0.0031941823589358804	-0.01996788625720642	0.010355243522353987	2.7599804719428278e-05
Xe	0.00010423155358079482	-2.7017143040244687e-05	0.00277995376920852	-0.0018580086739654568	-0.00850232977750754	8.462167487070863e-05
2
93200
Ar	-0.0002718764777493105	-9.118570588073505e-05	0.0031942677862843573	-0.00721026539315272	0.021510552509468057	8.532987736929959e-06
Xe	5.760010970353745e-05	-9.59664050618035e-05	0.002780634859329715	-0.006971827967271074	-0.004589819137398815	4.001749557361099e-05
2
93400
Ar	-0.000258797146902907	0.00012920848791978998	0.003193952309851236	0.009677173499433395	0.020316468127540798	-0.00010251220860582704
Xe	-2.2024491258364037e-05	-0.00010987907730610012	0.002780975990634627	-0.00811918182455552	0.0019802548529085956	4.78774908767209e-05
2
93600
Ar	-9.703062596099963e-05	0.00027537649151497605	0.0031926228076160986	0.021029073029231033	0.0074332183090917514	-0.00013478086842687943
Xe	-8.913105082830536e-05	-6.029354664549624e-05	0.002781352864266915	-0.004602098768677	0.007428062119116919	2.2503836774805924e-05
2
93800
Ar	0.00012046518573206183	0.0002635372922657521	0.0031917808720587	0.020290052448911116	-0.009693707907628626	-7.544259389290147e-06
Xe	-0.00010512401754884072	2.3817444314878142e-05	0.0027816292568951847	0.001535497524373622	0.008530682906815969	1.1918600057764335e-05
2
94000
Ar	0.00026915344997242033	0.00010055801493337918	0.00319270191041927	0.00793763537911192	-0.021249649486619164	0.00015767003963547844
Xe	-6.117715125790967e-05	9.37722610052143e-05	0.0027813862472508754	0.006806682191890418	0.004759000617536366	-8.265980625252321e-05
2
94200
Ar	0.00026362814143217957	-0.00012007931521967415	0.003194395793228633	-0.008995671418120814	-0.020627943785433298	0.0001302028959493583
Xe	1.7564649168147135e-05	0.00010981224033806078	0.0027805951111814363	0.008176083509230396	-0.0017491312170470955	-6.262793366153836e-05
2
94400
Ar	0.00010699094102478456	-0.0002717403081669912	0.0031947142191285985	-0.02075695178142125	-0.008131675931153754	-6.553914193533505e-05
Xe	8.616241549657457e-05	6.21471534328659e-05	0.0027802303509101294	0.0048357637754047975	-0.007271768797711759	-4.602295747458811e-07
2
94600
Ar	-0.0001109499620204792	-0.0002670796731966803	0.0031936839892886355	-0.020607708419555285	0.00900240675362515	-0.00012694360630594885
Xe	0.00010524561450622024	-2.1367843341358628e-05	0.0027803378690454063	-0.0012360142033855381	-0.008605768142350903	1.6988630365444258e-05
2
94800
Ar	-0.0002650957137611516	-0.00010934132125111333	0.003192894129801755	-0.00864481122921851	0.020947969004784656	-2.8134021901060174e-05
Xe	6.373698943210656e-05	-9.28613539855156e-05	0.0027800615083860567	-0.006635468460757849	-0.004982182308662635	-4.603171378174406e-05
2
95000
Ar	-0.0002668878368289717	0.00011107592005442528	0.003192829779958844	0.008312147656543312	0.0208928719431625	-8.84828351069248e-06
Xe	-1.4196249795301383e-05	-0.00011139489096269527	0.002779793403460257	-0.008188049436143291	0.0014526842589376652	-3.7451904275084445e-06
2
95200
Ar	-0.0001152172855158635	0.00026777612314141255	0.0031926022563213024	0.02047869728902151	0.008837316953732912	-5.4115705472225315e-05
Xe	-8.408523257827776e-05	-6.640340396831058e-05	0.0027802260075063968	-0.005068819448457745	0.007098703214024065	7.280107786538876e-05
2
95400
Ar	0.00010241876628309462	0.00027078955754696456	0.0031922285866367575	0.020859358023056725	-0.008250235641948576	2.3082952938106493e-05
Xe	-0.0001057805309763723	1.659250242610223e-05	0.002781006443968214	0.0009593212713072412	0.00865087542701149	5.2571538600532225e-05
2
95600
Ar	0.00026171247836413416	0.00011897346829506158	0.003193113760554595	0.009385216881205156	-0.020598538282881548	0.00015704601864699943
Xe	-6.700058818101843e-05	8.955447745500276e-05	0.0027810074997373807	0.0064259936327401915	0.005203547063071563	-3.614380016122398e-05
2
95800
Ar	0.00027134575229963506	-0.00010105332118071617	0.0031947150301727904	-0.0075752533873444374	-0.021180254684773428	0.0001371252017592235
Xe	9.891524293901106e-06	0.00011062245892038262	0.0027803541075856	0.00819347102170107	-0.0012295378586306284	-5.4091964371558664e-05
2
96000
Ar	0.0001248548513001119	-0.000262847570158293	0.0031952018520033957	-0.020217305572227055	-0.00953652837762609	-4.626407746574765e-05
Xe	8.122199025552211e-05	6.77107159977809e-05	0.0027800229103620952	0.005338110569780329	-0.006922682571253895	-1.5763283444567752e-05
2
96200
Ar	-9.313303717865572e-05	-0.00027344487049036525	0.003194669826739939	-0.021156700258867445	0.0075161817116646485	-8.014927862349821e-05
Xe	0.00010596087774060922	-1.4404486775962433e-05	0.00278006267177472	-0.0006213207312887148	-0.008665029044698274	3.254329304277116e-06
2
96400
Ar	-0.00025758883684552593	-0.00012740352400590112	0.0031939247636239617	-0.010044632293711355	0.02024224909254925	-6.829424516601956e-05
Xe	7.006099718002707e-05	-8.824417432340162e-05	0.0027799493100110787	-0.006193142411645159	-0.005371502029502766	-2.5586971066207925e-05
2
96600
Ar	-0.0002745152152122198	9.167885692638502e-05	0.0031931958736169646	0.006858330541455382	0.021355349485258985	-8.724001022229205e-05
Xe	-6.007353509272912e-06	-0.00011115823827188071	0.0027799298844599224	-0.00826165487955186	0.0010319696814512626	2.943194910615269e-05
2
96800
Ar	-0.00013386327147710204	0.00025813713486672936	0.003192229435671707	0.019820166402021295	0.010244296066172448	-0.00012062535156151692
Xe	-7.872975647326857e-05	-7.010748045135162e-05	0.0027803894213033697	-0.005549314094402718	0.006765395784667566	4.99688078719066e-05
2
97000
Ar	8.342511966821437e-05	0.0002765702980700841	0.003191567713887298	0.021439400167267177	-0.006717493143325198	7.560943166319823e-06
Xe	-0.00010628601556955735	1.1039282597551966e-05	0.0027808279644036477	0.0003020950797040251	0.008625803109156878	1.7968801208727257e-05
2
97200
Ar	0.00025333416667266457	0.00013676196347469724	0.0031924288018567062	0.01081827486149598	-0.01983066451427272	0.0001489878866935019
Xe	-7.334687262597186e-05	8.548201562585466e-05	0.0027805752247845573	0.0059602373817513295	0.005497641696611865	-5.0807961314121415e-05
2
97400
Ar	0.0002781209229171379	-8.150887445863909e-05	0.0031938369062754638	-0.006117545975941525	-0.021590789189347797	0.00010648382773232476
Xe	1.680006031000042e-06	0.00011069537587378764	0.002780009865263034	0.008267630690818626	-0.0007254904854731922	-5.5682711634073975e-05
2
97600
Ar	0.0001432392711673739	-0.00025282566540492976	0.0031945120481147848	-0.019488420292695766	-0.010906551090245764	1.2621103503568114e-05
Xe	7.609650885758236e-05	7.228144385844496e-05	0.0027799011436805527	0.005853973018809438	-0.006577483723114348	1.3193253402459363e-05
2
97800
Ar	-7.367400879802412e-05	-0.0002783881243258149	0.0031944216025245778	-0.021677078525211783	0.006032924125502813	-1.9116763605105194e-05
Xe	0.00010706243017588374	-7.621211317028175e-06	0.002779850536716233	3.4147799513775474e-05	-0.008590676516556695	-3.760974282910397e-05
2
98000
Ar	-0.0002483713524201553	-0.0001439519391849976	0.003194033469675984	-0.011467474017660902	0.01948876082624397	-5.327159957172236e-05
Xe	7.640475969842659e-05	-8.304102139505427e-05	0.002779196587020182	-0.00584177370945361	-0.0057295716894646105	-8.496279784157738e-05
2
98200
Ar	-0.00028055950147514585	7.334850115803855e-05	0.0031931188677402442	0.005376977436046227	0.02174983531362707	-0.00011156856287502506
Xe	1.3397949974217977e-06	-0.00011095813115042245	0.002778943237766638	-0.008379285727860026	0.00043573355868651925	5.617536518774927e-05
2
98400
Ar	-0.00015174687219935958	0.0002484808046876628	0.0031917374707525707	0.019060591739249375	0.011509514447880363	-0.0001412342126661568
Xe	-7.469007757287817e-05	-7.527490061718501e-05	0.0027801033016233976	-0.006037634559268502	0.0063383531445924774	0.0001364807561249659
2
98600
Ar	6.377126943463175e-05	0.0002810517469103364	0.0031911950832330914	0.021862455451972795	-0.005325630292964851	4.210467604683665e-05
Xe	-0.0001077183250763414	3.4141075169421037e-06	0.0027810693065596966	-0.00023901778086973991	0.008586394510378586	5.780390253646475e-05
2
98800
Ar	0.00024315381978843426	0.00015273423923861304	0.0031926562280679117	0.01218168869884721	-0.019065127427112354	0.0002194841061484312
Xe	-7.920056274762805e-05	7.977145057848202e-05	0.0027809303353227687	0.005654141087908188	0.005941096914348995	-6.40763799144112e-05
2
99000
Ar	0.0002832617794782133	-6.334499277897185e-05	0.0031948860381824985	-0.0045713673503002044	-0.021965807259571573	0.00017712151884603702
Xe	-5.469420368413932e-06	0.00011046940449904185	0.002780419403900283	0.008355850764687209	-0.00011041286659690544	-5.570209363524196e-05
2
99200
Ar	0.00016056892095678692	-0.0002431571731761942	0.0031956211707140207	-0.018718048825771334	-0.012200878011422233	-1.0656454100407643e-05
Xe	7.158610735638481e-05	7.755813317801878e-05	0.0027801716595852923	0.0062788379871066835	-0.006153147005926943	1.4810107845809857e-05
2
99400
Ar	-5.425126823626332e-05	-0.0002834796028849503	0.00319491583815541	-0.02206072908353525	0.004547983781057908	-9.76502820299524e-05
Xe	0.00010764649874719896	-4.954615526189265e-07	0.002780212723659696	0.0005638018886165346	-0.008626063644005911	-1.7873379769973366e-05
2
99600
Ar	-0.00023794076458682394	-0.0001611810067081824	0.003194092521513509	-0.012803984437280513	0.0186594530306897	-6.440569546320668e-05
Xe	8.151629546976566e-05	-7.832141823622594e-05	0.0027798979412585064	-0.00553046569384025	-0.006144701282657355	-2.3125409883110376e-05
2
99800
Ar	-0.0002852956202048927	5.382406464282541e-05	0.003193385559083454	0.0038282965255446214	0.022140312357221078	-0.00010226703813449985
Xe	7.979698976847638e-06	-0.0001113895276884302	0.00277980884546612	-0.008425743634835933	-0.00010973191008983376	6.907041357229557e-06
2
100000
Ar	-0.000168967010938507	0.00023821854207599344	0.003192142715128098	0.018243245439167083	0.012835890211867864	-0.00011537181179054641
Xe	-7.030511051363478e-05	-8.044575805599452e-05	0.0027802803174272685	-0.006432215293823377	0.005953333774027552	7.40860645683918e-05
2
100200
Ar	4.4073395515896404e-05	0.0002859151036547417	0.0031917179468055916	0.02219389951668395	-0.0037636105307229284	7.722326708424334e-05
Xe	-0.00010809479480740395	-3.6325585797389252e-06	0.0027810982794273394	-0.0007379779118553277	0.008621101374190357	7.388732602512714e-05
2
100400
Ar	0.00023174385858848272	0.0001698483468195304	0.0031932179933835624	0.01343279453370533	-0.01828244324295717	0.00020263411659273626
Xe	-8.369949389591424e-05	7.498413803465783e-05	0.00278140030411616	0.005346712100134537	0.006298208358388285	-1.3858388832518312e-05
2
100600
Ar	0.000286308754662325	-4.416839221060126e-05	0.003194986186223217	-0.003083906637384082	-0.022326508259819872	0.0001277919984431903
Xe	-1.154324964685614e-05	0.00011047098048575853	0.0027809952713594497	0.008361628245012695	0.00042716270822265573	-6.646365610405645e-05
2
100800
Ar	0.00017653837534082958	-0.00023274875363867327	0.003195374493177282	-0.017761697465834586	-0.013460798685553046	-3.78027641328999e-05
Xe	6.744588408456489e-05	8.255935831080188e-05	0.0027807778224351555	0.006612132778004613	-0.005731883979952434	1.0465711359125057e-05
2
101000
Ar	-3.434336989363887e-05	-0.00028712130965546364	0.0031944572419058655	-0.022271056600950898	0.0031000717546973582	-8.680093476242421e-05
Xe	0.000107809946758031	7.122631189516892e-06	0.0027808765482747856	0.0010391196951342805	-0.008569602472366537	-1.7789045081155796e-06
2
101200
Ar	-0.00022556580719772237	-0.0001768543800613466	0.0031938534911380933	-0.01403052749233909	0.017845109515492993	-3.078876475287894e-05
Xe	8.630777488159294e-05	-7.231992068411911e-05	0.0027802777468733672	-0.005102845030345141	-0.006502072017925631	-0.00011066110816363348
2
101400
Ar	-0.0002871553873624401	3.4951369963481174e-05	0.0031936011616818948	0.0023174411985180648	0.022353805759127595	-5.235831161063793e-05
Xe	1.53566641794422e-05	-0.00011044280400327606	0.0027791528156077463	-0.008363938566141392	-0.0006993639879830661	-8.639767764711886e-05
2
101600
Ar	-0.00018390280851374966	0.0002265583727195166	0.00319298598728536	0.0172891630142874	0.014009097926996514	-5.5698519036450376e-05
Xe	-6.470023342072904e-05	-8.49350612824753e-05	0.0027787568552472062	-0.0068234771111488745	0.005545538390416438	1.9889173896289365e-05
2
101800
Ar	2.5123198326860478e-05	0.000287856621669528	0.00319274244946403	0.022364421127243725	-0.002357377337741154	3.86568640914474e-05
Xe	-0.00010756296673371608	-1.0881050082521231e-05	0.002779263157985838	-0.0013348340264730642	0.008520943051483045	5.24324656862279e-05
2
102000
Ar	0.0002198415557183926	0.00018417471835506204	0.00319349567039108	0.014598076280785835	-0.017358079763107732	0.0001136803691416364
Xe	-8.909197637612065e-05	6.91015915076287e-05	0.0027796920156599888	0.0048691084186703254	0.006676115154154396	2.878572773575737e-05
2
102200
Ar	0.00028840041030924764	-2.5273997434838262e-05	0.0031944961419396235	-0.0015887343180362686	-0.022390786480768934	6.201071591717869e-05
Xe	-1.963978182785158e-05	0.00010941067714934714	0.0027801020948807465	0.008313390866641117	0.0009879360907745632	7.814356384960774e-05
2
102400
Ar	0.00019118926156820777	-0.00021999925596346873	0.003194657043650438	-0.016843202894330254	-0.014561226568943594	-4.2355821156019325e-05
Xe	6.127433402063079e-05	8.659355145607592e-05	0.002781129897440157	0.007049429029410811	-0.005309401485064723	0.00010066500224291659
2
102600
Ar	-1.546032555953592e-05	-0.00028849121487443323	0.0031941268893808275	-0.022417334031795157	0.001554318251194563	-3.215241443463876e-05
Xe	0.0001071891367562697	1.3792418322566575e-05	0.0027816178185374693	0.00169339087498266	-0.008521720513989545	-1.3220755808981402e-05
2
102800
Ar	-0.00021363007660549072	-0.00019186904682403223	0.003194001289379567	-0.01519344036847218	0.016790213946221308	1.6491024831506993e-05
Xe	9.192368783574876e-05	-6.708351359719931e-05	0.0027807234540733615	-0.004574797278041149	-0.00682868874797093	-0.00016129552705369097
2
103000
Ar	-0.000289215150251381	1.5036384158833001e-05	0.003193982301183333	0.0008242573483696763	0.0224759928673308	-2.9633125463197285e-05
Xe	2.4273086104478588e-05	-0.00010925349534820528	0.00277919761110442	-0.008278737238320033	-0.001191063830574983	-0.00011296951471991756
2
103200
Ar	-0.0001985368028727356	0.00021324332723368492	0.0031932802692672237	0.016369522769384026	0.015153697354369127	-8.671449572033709e-05
Xe	-5.758168881946559e-05	-8.86925599979892e-05	0.002778924170713067	-0.007254410594945786	0.005099475127015442	4.422014414208142e-05
2
103400
Ar	6.107250280330667e-06	0.00028870932112943186	0.0031925735524454806	0.022496684506911214	-0.0008186842908416891	-3.1638659762902545e-05
Xe	-0.00010658422540432702	-1.7094844866909038e-05	0.0027794868614554958	-0.0020401546481919855	0.008471296756233702	3.705428667015811e-05
2
103600
Ar	0.00020770760961657725	0.00019870945332101087	0.0031929835473265833	0.015749744977206256	-0.01626385903218728	9.597657831978597e-05
Xe	-9.447005319843965e-05	6.397206972609792e-05	0.0027798434941246324	0.004346533035700385	0.006936977092794567	3.6463224019111854e-05
2
103800
Ar	0.0002903609919050108	-4.940886495018206e-06	0.003193997740131666	-9.462788876628136e-05	-0.02240666753325071	7.312386000564058e-05
Xe	-2.8296054995333535e-05	0.00010843027415832978	0.002780420535192861	0.008221318057135668	0.0014844996466464144	7.266399967496487e-05
2
104000
Ar	0.00020585703219752637	-0.00020574945661395267	0.0031943424120075004	-0.015905633107060547	-0.015701246095332695	-1.2394826932433423e-05
Xe	5.4016266731999504e-05	9.061940943817406e-05	0.0027813742602403164	0.007385278807432217	-0.004850939685218405	9.718654985675953e-05
2
104200
Ar	3.3352145444960992e-06	-0.00028837442059142214	0.0031940639895273537	-0.02254774723243183	-5.886949718631623e-06	-2.416726658279739e-05
Xe	0.00010497914367825431	2.116077334969175e-05	0.002781788256159211	0.0023147211520898876	-0.008334549345353624	-3.9836325749621345e-05
2
104400
Ar	-0.00020118877388866519	-0.00020576250975167684	0.0031939133180254025	-0.016295923137953708	0.01568661434489054	9.426394541422379e-07
Xe	9.582398065988047e-05	-6.0022987597952456e-05	0.0027806685180273645	-0.004043775384269057	-0.007076051780869039	-0.0001485602257034099
2
104600
Ar	-0.0002904883557501696	-5.059926555513082e-06	0.003193789360028061	-0.000645257049152935	0.02241002619421171	-5.598711732667828e-05
Xe	3.163828443752881e-05	-0.0001070585835152521	0.002779472168164105	-0.008165087005276326	-0.0018218271168632617	-9.706214227406243e-05
2
104800
Ar	-0.00021275410312354218	0.00019860477817031325	0.0031927471048028167	0.015419689412942675	0.016226097312191618	-8.38864601845014e-05
Xe	-5.135552275108965e-05	-9.259616925890395e-05	0.0027791357064252745	-0.007579409038501426	0.0045214769781007375	1.3102737674457313e-05
2
105000
Ar	-1.2873066267040981e-05	0.00028802589934678207	0.0031924148484536365	0.02252835196230178	0.0007750780625131004	3.440214782098648e-05
Xe	-0.0001049908542168792	-2.5147539213405888e-05	0.0027794950798956134	-0.0026034415050411493	0.00826520247720842	2.5014874397692647e-05
2
105200
Ar	0.0001941220521610627	0.00021261892487305887	0.0031935994117940703	0.016775574749995494	-0.01511900178517434	0.00015779460147905013
Xe	-9.826222622822507e-05	5.6713341427848725e-05	0.0027797475407000845	0.003875579122480956	0.007279444891304612	1.1901488707440288e-05
2
105400
Ar	0.00028978405019876167	1.517203395970613e-05	0.003194921471047396	0.0013877068561826051	-0.022358567784821325	5.72473924418572e-05
Xe	-3.4871090580640575e-05	0.00010623456935125557	0.002780301583157093	0.00816318340347165	0.002115580777392898	9.091646155057651e-05
2
105600
Ar	0.00021919034743916868	-0.00019058366159003626	0.0031947613895259882	-0.014789767441516798	-0.016713426487515365	-6.279879457664059e-05
Xe	4.884001991863307e-05	9.490123264481234e-05	0.002781288536135918	0.007732872412461048	-0.004252915375446884	8.886712056770743e-05
2
105800
Ar	2.2690073446680803e-05	-0.00028686951241423965	0.0031938895444057307	-0.022514403350698903	-0.0015478199173366185	-8.645099321284528e-05
Xe	0.00010458024580907975	2.9617191813131135e-05	0.0027816818444649626	0.002847945597998598	-0.008154013807875459	-7.891241774966383e-06
2
106000
Ar	-0.00018722000753125357	-0.0002184793425272221	0.003193199462799734	-0.017330157843174158	0.014530482217594244	-3.142863650465744e-05
Xe	0.00010024135391170474	-5.2190659240423834e-05	0.002781002304792916	-0.003658109238161234	-0.007406653014133549	-0.00012025090188941915
2
106200
Ar	-0.0002899469023337888	-2.4826343273380528e-05	0.0031929109493382137	-0.0021422344037969757	0.022234843018644555	-3.0496271448137328e-05
Xe	3.830742203845899e-05	-0.00010393697727472462	0.0027797561812086236	-0.008107321931210075	-0.0024119420581629435	-0.00010571993681124703
2
106400
Ar	-0.00022602298533833315	0.00018292386474790537	0.0031925437539108343	0.014261775131306045	0.017197939770301034	-5.433706934001522e-05
Xe	-4.564380130453108e-05	-9.58791382175248e-05	0.0027793689566523237	-0.007848973119913318	0.003956415846110353	3.59614355052741e-05
2
106600
Ar	-3.24586473963404e-05	0.00028559090605805075	0.0031923743774489284	0.022471143613727453	0.002284880833668467	1.655300563339082e-05
Xe	-0.00010316505812893598	-3.258749325994502e-05	0.0027796845736824272	-0.003066045193152746	0.00802811893078163	2.1516590014449582e-05
2
106800
Ar	0.00017965852352625657	0.0002242351753034069	0.003193161714327736	0.0177973477016915	-0.013934022673083822	0.00010557513316295314
Xe	-0.00010119034969420862	4.930846566144501e-05	0.0027799282876190923	0.003446704288704454	0.007511317581274958	4.0266809930340064e-05
2
107000
Ar	0.0002888137811054572	3.414098471946188e-05	0.003194147111346014	0.0029019537263400446	-0.022156562846428585	6.0011230079209095e-05
Xe	-4.0844588808320003e-05	0.00010296030113724862	0.002780357080902321	0.00801446259274674	0.002666275066788789	4.7846537874775646e-05
2
107200
Ar	0.00023211653069098864	-0.00017552117747511145	0.0031941412736179644	-0.013663584978873912	-0.017633063255937033	-5.9690700767525625e-05
Xe	4.328465564981735e-05	9.732762089053034e-05	0.0027810890515506973	0.007975493869102243	-0.00375945440073981	8.619440626157068e-05
2
107400
Ar	4.2263635896657804e-05	-0.0002843828291064596	0.0031936328703856634	-0.02238716572658335	-0.003038868933717835	-1.668739363185375e-05
Xe	0.0001028163979991488	3.552834431755573e-05	0.002781345266903193	0.0033493729232546964	-0.007989168048062108	-3.0242310038230857e-05
2
107600
Ar	-0.000171948496268969	-0.00023040148429291353	0.00319358984826461	-0.01826767028286347	0.013293913773591608	-2.1835027637193305e-05
Xe	0.00010364170565178502	-4.6726931915361604e-05	0.0027805511810776963	-0.0031666189933154286	-0.007610915502892438	-8.079819362795913e-05
2
107800
Ar	-0.0002875198162535014	-4.429819657261416e-05	0.0031934473711561643	-0.0036306509174702756	0.02201616451222747	-2.1956503931713945e-05
Xe	4.5071515226045614e-05	-0.00010211889558037244	0.002780008551906322	-0.007946761434991135	-0.0029005009413210284	-1.769198010776848e-05
2
108000
Ar	-0.000237507359749219	0.0001673095196295315	0.0031929217447573344	0.01311677715260833	0.01813855496786485	-7.376377112515332e-05
Xe	-3.973018733857665e-05	-9.888146141238485e-05	0.0027802974128685706	-0.008132289153681966	0.0034918453393965225	5.288803465934477e-05
2
108200
Ar	-5.121759268628477e-05	0.00028314642837512727	0.003192784936112533	0.02225023848111185	0.0038578979364841818	7.6380769320023e-05
Xe	-0.00010152703130033616	-3.894689072032045e-05	0.002780483842831517	-0.003611952119414883	0.007882153364070974	-2.866532428730338e-05
2
108400
Ar	0.00016474643448509665	0.00023683923922956216	0.0031937026272416064	0.018751934117199377	-0.012666845742959969	8.821613556044478e-05
Xe	-0.00010504224983490416	4.3207973865614746e-05	0.0027800077492453317	0.002933354504761703	0.007726050349258792	-6.003357720842353e-05
2
108600
Ar	0.0002864584578593791	5.4668978119115886e-05	0.003194340899820842	0.004339512436051458	-0.021928138038515343	4.763387353899094e-06
Xe	-4.8365167325058094e-05	0.00010075660935337511	0.00277969035445121	0.00783272302798207	0.0032038495328678956	1.3811203164595053e-05
2
108800
Ar	0.0002433594184766061	-0.00015880903524877264	0.0031937897068575684	-0.012555952622369995	-0.018598177144576723	-7.031475420687212e-05
Xe	3.6184978484986434e-05	0.00010066566339244697	0.002780250293194567	0.008219221468870608	-0.0032229804049801547	8.208656014901158e-05
2
109000
Ar	6.030110798130695e-05	-0.00028086816947435646	0.003193257723648434	-0.02221059994626094	-0.004584407989473686	-2.9737756553571828e-05
Xe	9.968855691361522e-05	4.2857371057306395e-05	0.002780752213166846	0.003854790737408552	-0.007732547844197451	4.008948615277903e-06
2
109200
Ar	-0.00015757965922900507	-0.00024179001756475228	0.0031935749069563935	-0.019144959540668593	0.012012436535422416	6.806132435135281e-05
Xe	0.00010592928690146592	-3.910967719609744e-05	0.002780700410550823	-0.002672736651329407	-0.00783101541463906	-2.7084189739868044e-05
2
109400
Ar	-0.00028527719973631225	-6.378116686995564e-05	0.003193815548068428	-0.005078456261853608	0.0217714911588849	-2.7918203862345014e-05
Xe	5.1484416467938834e-05	-9.844157352941258e-05	0.0027805789930299657	-0.007688757548324974	-0.003436643379158161	1.5306582793716046e-05
2
109600
Ar	-0.00024926551904413675	0.00015083510576765642	0.0031932442049172377	0.011908549949107639	0.018984745423263068	-7.67103097613523e-05
Xe	-3.2625257312318554e-05	-0.00010121382231183493	0.002780679463840796	-0.008277012367255534	0.0029001445819866606	-4.442656044730641e-06
2
109800
Ar	-7.051450738007175e-05	0.00027878358996196573	0.003192938859930324	0.022020041063434827	0.005331059091414577	1.435420218518591e-05
Xe	-9.773052733405822e-05	-4.595197465614963e-05	0.0027804838155078048	-0.004108423493687102	0.007549900193313982	-7.132938552068317e-05
2
110000
Ar	0.00014864519003518744	0.0002467963489313072	0.0031935893204950885	0.019557728915168732	-0.011406440883727368	9.208998762176382e-05
Xe	-0.00010651398236701175	3.511355785889466e-05	0.0027794370821001982	0.0024278879438639966	0.007845079057830898	-0.00010836777270822285
2
110200
Ar	0.000282492844813668	7.287122962438673e-05	0.003194258928028229	0.00585078485477722	-0.02157286269547478	2.693464011838463e-05
Xe	-5.386405526195178e-05	9.590850975210704e-05	0.0027787669645840105	0.007563223630282149	0.0036846654985432767	-1.5824662403292083e-06
2
110400
Ar	0.000253662884284646	-0.0001426192736159807	0.0031940343187344305	-0.011301817337994655	-0.019334849412836953	-7.348953524284084e-05
Xe	3.0181695242180454e-05	0.00010166653844942818	0.0027797999855913584	0.008366304481509686	-0.0025772066010128934	0.00013742834412835983
2
110600
Ar	7.931425846520904e-05	-0.0002764917651798928	0.003193585611822189	-0.021801939371585737	-0.0060700358425199415	-1.4869457532695693e-05
Xe	9.692675946844045e-05	4.925297926671295e-05	0.0027813117662728514	0.00431129005115141	-0.007375135057193905	0.00015238628491843345
2
110800
Ar	-0.0001401813726814047	-0.00025203101710203837	0.0031935742634844897	-0.019882307327408685	0.010720024942648591	2.477586580438798e-05
Xe	0.0001081004885523772	-3.118699035784379e-05	0.0027823531771375976	-0.0021995884091775566	-0.007897005665043502	2.485432174615406e-05
2
111000
Ar	-0.00027942902921261555	-8.278776078367933e-05	0.0031938666563661776	-0.006544284106373789	0.021380679324490476	1.3938168146153872e-05
Xe	5.7264851483902923e-05	-9.35577376082112e-05	0.0027822225718966836	-0.007455790403464732	-0.003946775877485534	-2.2881355231019676e-05
2
111200
Ar	-0.00025820589300988177	0.0001339649694594362	0.003193732091618945	0.010576528100004753	0.01975808812729028	-4.7397685828010174e-05
Xe	-2.677937244713291e-05	-0.0001026719282434375	0.002782032122977785	-0.00848348832327571	0.0022148759965441287	-2.4621780599407037e-05
2
111400
Ar	-8.88731214239822e-05	0.00027373020686130464	0.00319325660952531	0.021597355610676702	0.0067964718927669854	-1.760660060103907e-05
Xe	-9.570871826767167e-05	-5.3570251417323243e-05	0.0027813417984452436	-0.004600132313461802	0.007139556139531155	-0.0001346684672876356
2
111600
Ar	0.00013161159088825338	0.0002567749915451217	0.0031934257887824965	0.02027545287716295	-0.010030699304841857	1.712562448752165e-05
Xe	-0.0001096169627149499	2.6304115938015682e-05	0.002779828599741868	0.0019663249538728143	0.00800595692384805	-0.0001413730974368277
2
111800
Ar	0.00027678948479794636	9.260715927843201e-05	0.0031934262896075503	0.007265614549410978	-0.021152247530860178	-4.573211946563138e-05
Xe	-6.020281325672786e-05	9.121545628570922e-05	0.0027787725546208346	0.007406264902031103	0.004314123309941965	-3.311491090140894e-05
2
112000
Ar	0.000262618563331211	-0.00012481546437701068	0.0031929385928980846	-0.009926382898946658	-0.02011395933442644	-1.0978999666051173e-05
Xe	2.387528693011946e-05	0.00010401925739273828	0.0027788638804967206	0.008549221373398527	-0.0019028281067774446	4.683017406834022e-05
2
112200
Ar	9.782098888472622e-05	-0.0002703352761730019	0.0031935279661221157	-0.021381066680420294	-0.007531537665014345	9.878410239941904e-05
Xe	9.411589573267341e-05	5.725268846089877e-05	0.002779262781125719	0.00477639018765354	-0.006979902579640415	2.8495044842499862e-05
2
112400
Ar	-0.00012310575716859045	-0.0002604620961084323	0.0031946558576396076	-0.02056305220173255	0.009383595877811911	0.00010012170279185249
Xe	0.00011009019068645073	-2.2179338898751316e-05	0.002779762230755443	-0.001768580697077411	-0.008103297027373495	8.295648287586296e-05
2
112600
Ar	-0.00027343025658839486	-0.00010092191387355695	0.003194783106674766	-0.007946583184266623	0.020894254922587036	-6.624287549815597e-05
Xe	6.237810493364924e-05	-8.884942573915366e-05	0.0027804572221972164	-0.0072911537354005025	-0.004561271346960736	8.887847063325226e-05
2
112800
Ar	-0.0002668141489017832	0.00011639358483239017	0.0031935518758368017	0.009195520696960736	0.020369920389562066	-0.0001615344304053458
Xe	-2.1151358490576808e-05	-0.00010447630033034528	0.0027813088444038096	-0.008555754253315081	0.0015740839688691615	5.7826879715728816e-05
2
113000
Ar	-0.00010740485735843886	0.000266938508098573	0.0031924489792830076	0.021073455203658466	0.008209020734959903	-6.575177690732591e-05
Xe	-9.238992999827625e-05	-6.020548248751112e-05	0.0027813459530534167	-0.004984793951134307	0.006809507368207079	-9.313928682386038e-05
2
113200
Ar	0.00011381272029304897	0.00026436963705651597	0.0031923406196516426	0.02090071224932182	-0.008685914859870011	1.8885090414080997e-05
Xe	-0.00011101720841980906	1.85367431433815e-05	0.0027799999919371496	0.0014514753332852542	0.008139670932138902	-0.00014320455728926177
2
113400
Ar	0.0002697122566182814	0.0001099491411078932	0.0031925876311003705	0.008689359828770851	-0.020598528517446767	3.425726758059191e-05
Xe	-6.633306801757378e-05	8.657956296752397e-05	0.0027790579504723724	0.00704320765351537	0.004799579843903542	-3.451574393648507e-05
2
113600
Ar	0.00027039911487708836	-0.00010724220193391062	0.0031929940742750863	-0.008538745386006612	-0.020636606128998106	6.844714743607944e-05
Xe	1.6379556488187752e-05	0.00010498422780039737	0.002779406613577334	0.008677141349325176	-0.0012978493237156973	6.743173522114728e-05
2
113800
Ar	0.00011567082630117983	-0.0002625378562499006	0.0031940184603177013	-0.020814495108409718	-0.008868154585374498	0.00013693392966409503
Xe	9.022455860718225e-05	6.31261205788769e-05	0.00278015844417962	0.005335458413175446	-0.0066499297883691405	5.7247171996253505e-05
2
114000
Ar	-0.00010526501087485386	-0.0002672465851659428	0.003194881860373679	-0.021129363107784977	0.007980434397902926	5.215382243998276e-05
Xe	0.00011254415667339343	-1.4785341244565393e-05	0.0027803916360291296	-0.0011127843740196333	-0.008165999314815492	8.974588699205314e-06
2
114200
Ar	-0.000265430629014889	-0.00011850076059094792	0.0031945264276717683	-0.009287551260367486	0.0202259743574519	-0.00011349280297988402
Xe	6.998553988955124e-05	-8.414558599343775e-05	0.0027807831910119808	-0.006962134542884176	-0.004985958933652023	5.585376046595671e-05
2
114400
Ar	-0.00027304872301453476	9.818531287027049e-05	0.0031928286867222754	0.007841225945255801	0.020868320803782123	-0.00016893580950923321
Xe	-1.3085047290485314e-05	-0.0001049643404189872	0.0027811664172625638	-0.00878325143085619	0.001039368473361153	7.679591326054917e-06
2
114600
Ar	-0.00012423755125029953	0.0002584833800606703	0.0031921280321249496	0.020402484903149574	0.009568516750126798	5.647773336914301e-05
Xe	-8.841395050368952e-05	-6.565917996139482e-05	0.0027807770517590774	-0.005515982340161488	0.006402378262796523	-8.488612678751461e-05
2
114800
Ar	9.565760942335181e-05	0.0002704670812913765	0.003193025142347016	0.021331707678360547	-0.007290332285694864	0.0001149123116270566
Xe	-0.0001129725356955362	1.0782332741451899e-05	0.0027796548262245045	0.0008437903345529475	0.008130492577665738	-0.0001175522677235019
2
115000
Ar	0.0002606234793084275	0.00012697012269612145	0.0031941005755091486	0.009987084365884916	-0.019942497956369615	8.174728264255053e-05
Xe	-7.275358352143377e-05	8.087121408260301e-05	0.0027788749463114304	0.006798975076431464	0.005179833265036241	-2.9234577640627972e-05
2
115200
Ar	0.00027572262747025766	-8.935315147377308e-05	0.0031944374426451433	-0.0071336105001422985	-0.021109540104881704	2.142849077019991e-05
Xe	9.773265490136187e-06	0.00010432120673173463	0.0027793677557042392	0.00884058720881304	-0.0007376156904636622	9.563476140540316e-05
2
115400
Ar	0.00013206559420102335	-0.00025427210740232157	0.00319451578381721	-0.020106954923793476	-0.010204328237517797	2.90094079444428e-05
Xe	8.689742783550723e-05	6.75533427566545e-05	0.002780098206477925	0.005803319515888983	-0.00622952783936011	5.388388610186129e-05
2
115600
Ar	-8.719821874955821e-05	-0.00027336565504164194	0.003194734148640678	-0.021526565179662983	0.006613609561518627	-3.224884047073351e-05
Xe	0.00011416006915298484	-8.026162501880344e-06	0.0027803370741824305	-0.0006065891774802974	-0.008126143414643173	-3.2077380219496806e-06
2
115800
Ar	-0.00025641744823369213	-0.00013503126346585672	0.003193878297161472	-0.010588364216761334	0.01964530022618213	-0.0001563270657110587
Xe	7.581402130808541e-05	-7.915101796392478e-05	0.0027805829635757376	-0.006653787982429014	-0.005369695058542426	6.222738899749874e-05
2
116000
Ar	-0.00027810625195708987	8.095686555676317e-05	0.003192190969680957	0.006433218984341346	0.021382964053438147	-0.00014173018571211036
Xe	-5.922123931425393e-06	-0.00010499483069690185	0.002781103795967243	-0.008856785276053289	0.00046842586945830355	4.401432215600078e-05
2
116200
Ar	-0.000140327497115534	0.0002506498944065258	0.0031917238271322707	0.019737705387492293	0.010866721560187663	4.5008942987879676e-05
Xe	-8.408215647925185e-05	-7.083898851911925e-05	0.0027811682003974878	-0.005968724779689623	0.006008216766902778	-4.679826137741966e-05
2
116400
Ar	7.802474615208327e-05	0.0002769080530173947	0.0031930900119966892	0.021730600680083388	-0.0059110290195328406	0.00019134962463344376
Xe	-0.00011366778382580886	3.486622980948193e-06	0.0027801768718026787	0.000368675786178485	0.0081201085962615	-0.00012524328016639595
2
116600
Ar	0.00025139743404196745	0.0001438810615713907	0.0031947466914213794	0.011177374725887911	-0.019325742086054976	7.591439367936383e-05
Xe	-7.74615833605624e-05	7.57492764365644e-05	0.0027792014006154464	0.006508510962757104	0.005589861298872706	-6.495388417950884e-05
2
116800
Ar	0.0002798879977928911	-7.165977446892242e-05	0.003194875223398038	-0.005758201130600454	-0.021579601688600004	-4.0402535022161134e-05
Xe	3.569608248513217e-06	0.00010421965886755161	0.0027788085118611683	0.00886953236870495	-0.00019915370396998038	-1.6739405880101776e-05
2
117000
Ar	0.00014761059994757443	-0.0002458206554047624	0.003194389743295526	-0.01936612519153827	-0.01148500708813939	-2.092336987252637e-05
Xe	8.280394626829098e-05	7.251912180091143e-05	0.0027788632206507823	0.006172909581933804	-0.0058414436446400896	3.084379538201362e-06
2
117200
Ar	-6.95222313445738e-05	-0.00027907010394680995	0.003194308624312493	-0.02185749881107301	0.005178919899114593	-1.8409859999247603e-05
Xe	0.00011474235277601673	-1.0231359471774073e-06	0.00277908283156672	-0.0001328482340090979	-0.008117074287856676	4.8115825786514374e-05
2
117400
Ar	-0.0002468371481838007	-0.0001521524801680116	0.003193627735295214	-0.011813588861502841	0.018921269964661393	-0.00011039533347461448
Xe	8.066688420185681e-05	-7.400047976751e-05	0.002780183531120047	-0.006351347828374205	-0.005716245165546055	0.00017130515767230315
2
117600
Ar	-0.00028245806493588634	6.209892122657808e-05	0.0031927751345838125	0.005033356013787066	0.02174367367391224	-5.0111188238850073e-05
Xe	7.852027824461956e-09	-0.00010470900645430435	0.00278190401315673	-0.008925151308882245	-8.794045051380061e-05	0.00014247593678829253
2
117800
Ar	-0.00015645811238995544	0.00024041481393558513	0.0031931687436000276	0.01889797561200319	0.012143116545165401	0.00012452634937939897
Xe	-8.002532476889677e-05	-7.571474532937984e-05	0.0027826443860803204	-0.006305687472020786	0.005594377088314649	-1.0625315568608871e-05
2
118000
Ar	5.905720646986901e-05	0.0002811757964360236	0.0031947993650905133	0.022029952102826832	-0.004428198747645318	0.00014772914556312618
Xe	-0.0001137580027686481	-3.726388639977267e-06	0.0027818939496628784	-0.000116825658148005	0.008079373992843666	-0.00012411710174989256
2
118200
Ar	0.00024093027433959264	0.00016064541125914697	0.0031951791962411547	0.012477559082830506	-0.01844567649776765	-6.905084019238322e-05
Xe	-8.235748593066643e-05	7.033245103454821e-05	0.0027804404769072163	0.006094540318866257	0.005962959418825655	-0.00013632781575306514
2
118400
Ar	0.00028435692699030514	-5.224624116926361e-05	0.0031937500595884626	-0.004243691057481668	-0.02196005411396103	-0.00018097881980784782
Xe	-3.650265934775705e-06	0.00010399620017737607	0.0027790838134387273	0.008847308356235166	0.00043511354035888686	-0.00014080328764366713
2
118600
Ar	0.00016447899537455109	-0.00023549721447982934	0.00319248007892443	-0.018529468039683413	-0.012810673791072988	-5.5847573102632675e-05
Xe	7.729043378754748e-05	7.80230612721029e-05	0.0027776839913418176	0.006504569725483687	-0.005359220919337081	-0.00012652077374527282
2
118800
Ar	-5.0345655594800507e-05	-0.00028334536559047874	0.0031922991969683665	-0.02223653099568938	0.003709085717148102	2.4284647046528577e-05
Xe	0.00011357246739487738	7.084068120074669e-06	0.0027768900648456377	0.00039116371442874656	-0.008108524873518659	3.7212307541475824e-06
2
119000
Ar	-0.00023648216432799998	-0.00016850580490371402	0.0031925872046930036	-0.013086640254725142	0.01807612588823832	1.600514564832807e-05
Xe	8.452308132830081e-05	-6.843681814772405e-05	0.002778329248297116	-0.005913112674519661	-0.006223150559310605	0.0002576551406576341
2
119200
Ar	-0.0002867785878193316	4.2842524306053686e-05	0.003193173541981411	0.0035696223885064607	0.02205145427036007	9.371051043043186e-05
Xe	6.974767360611587e-06	-0.00010500930818394459	0.002781314017320644	-0.008798438234723007	-0.0007238966355321176	0.00032033864444714564
2
119400
Ar	-0.00017252602548575798	0.00022955697383117437	0.0031945217659599965	0.01813016237865133	0.01338913796797942	0.0001670672364756817
Xe	-7.409662350016154e-05	-8.15516022561021e-05	0.0027837343817745316	-0.006599242621650192	0.005175222782328371	0.00012292904168628152
2
119600
Ar	4.06223009573613e-05	0.0002849234792267283	0.0031958288667576443	0.022344428120011455	-0.0028916782520281947	7.727949728178327e-05
Xe	-0.0001122065380097134	-1.1387900281352471e-05	0.0027838418632477923	-0.0006328476869621873	0.00815730236558135	-7.93446047466158e-05
2
119800
Ar	0.00023030978363756626	0.00017713278473390474	0.0031956370514435073	0.013665476028046561	-0.017575802599494785	-0.00013057789539239892
Xe	-8.575722864797573e-05	6.535245275113005e-05	0.0027824068073017925	0.00565229731122475	0.006437514067825818	-0.00018887576771062676
2
120000
Ar	0.0002872009905918165	-3.2126283253390304e-05	0.0031936886573835223	-0.0028312806143561114	-0.022163695691353902	-0.0002106174499586459
Xe	-1.025196506093927e-05	0.00010465729464788607	0.002780323740315961	0.008662460809040512	0.0010371097273964482	-0.00025135036638599734
2
120200
Ar	0.00017945013707840667	-0.00022323542342945102	0.0031920446690625126	-0.017654217418397865	-0.014093189683204109	-0.0001139284895271666
Xe	7.105548362605678e-05	8.409010657203919e-05	0.002778014349868013	0.006758364657441636	-0.004951357451925019	-0.00021069029368054522
2
120400
Ar	-3.1421785632812735e-05	-0.0002863751180281367	0.0031915395768344983	-0.022382890553552835	0.002108493255004204	2.977992147915324e-06
Xe	0.00011156750241273712	1.5351922708076055e-05	0.002776684949075449	0.0009309208616323153	-0.008104614250268349	-2.7830477891861662e-05
2
120600
Ar	-0.00022427461851977893	-0.00018485789264292577	0.0031919035108306103	-0.014228450879668808	0.017149138204060898	6.453711053894205e-05
Xe	8.790389580913359e-05	-6.258225634346003e-05	0.0027774757273443247	-0.005444189272991397	-0.006666252336686561	0.00020776053065716323
2
120800
Ar	-0.00028811283557604345	2.2745312961121316e-05	0.0031932494317070898	0.002091826804727424	0.0222800852454025	0.00015789095722748816
Xe	1.3545265233285769e-05	-0.00010466502279468167	0.002780243889040164	-0.008645746682925087	-0.0013370956086443003	0.0002963383721616893
2
121000
Ar	-0.00018666619271532232	0.0002173218246219671	0.003194929429901125	0.017168720392765534	0.014662885774519581	0.00017488017157846216
Xe	-6.816577626727527e-05	-8.672117265986802e-05	0.0027828567559401414	-0.0068593517037157554	0.004753092925036815	0.00020573189850907854
2
121200
Ar	2.1958848603086335e-05	0.0002874967315868294	0.003196452366938549	0.022468244311126515	-0.0013871111667176296	9.403470008222787e-05
Xe	-0.00011061981691337292	-1.8964617750311208e-05	0.0027837684635222087	-0.0011980581377132211	0.008112580121117766	-1.541494765073922e-05
2
121400
Ar	0.0002179722444479283	0.00019229996297096447	0.003196281646939494	0.014770712978376179	-0.016656092431539524	-0.00012979921308498512
Xe	-8.95340990830781e-05	5.9693935644003246e-05	0.0027829601859618645	0.005222335715960107	0.006822081859443638	-0.00011891651180106306
2
121600
Ar	0.00028874098621824916	-1.2907455805175676e-05	0.0031943233686776745	-0.0013393625854707053	-0.022298467151177236	-0.00023817900263579285
Xe	-1.6474420306243245e-05	0.0001038715477616277	0.0027811942391277812	0.00864476884528523	0.001570275861146808	-0.00024193435437557648
2
121800
Ar	0.00019397176173650366	-0.00021023247608802198	0.0031922510963562816	-0.01664151311342866	-0.015183393260878178	-0.00011778371452593135
Xe	6.62124013229134e-05	8.821377561227326e-05	0.0027783868319108886	0.007062601520437129	-0.004532050755828169	-0.00028971359689712654
2
122000
Ar	-1.1810388020102118e-05	-0.0002870836495822976	0.0031919584265267904	-0.02241926084488315	0.0006281019189812225	7.881946095504651e-06
Xe	0.00011079733158485604	2.2080945381263723e-05	0.002776059376572102	0.001406206182252202	-0.008045071768766846	-0.000144351568378411
2
122200
Ar	-0.00021071525479044682	-0.0001987911606960928	0.0031922805740420427	-0.015326128626177181	0.01611626696410189	5.028610605032138e-05
Xe	9.158711519050183e-05	-5.694052706386839e-05	0.0027760013559722197	-0.005078900807005401	-0.006962325134894109	0.0001229497094058206
2
122400
Ar	-0.00028847956775555553	3.509171610135984e-06	0.0031931676721513773	0.0005684437641708768	0.022303145993746668	0.00012329339845230326
Xe	1.969930047472725e-05	-0.00010350889653193723	0.002778288924865159	-0.008558919427865826	-0.0018769491230679954	0.00028038839893051266
2
122600
Ar	-0.00020065221450712103	0.00020375763380090834	0.003194889235429414	0.016112005317349267	0.015752448693701862	0.00019789781581772972
Xe	-6.30995531524653e-05	-9.085120177625158e-05	0.00278101912019869	-0.007174787334231373	0.004282010893830625	0.00023912951865156756
2
122800
Ar	2.412055144511531e-06	0.0002876437911545831	0.003196514976423115	0.022414469260086445	0.00016949171181426117	5.975559569796417e-05
Xe	-0.00010981864298472032	-2.593094755224629e-05	0.0027827828346621807	-0.001694475774434676	0.008021627166576697	0.0001162209908263069
2
123000
Ar	0.00020395542342236975	0.0002065627577156762	0.0031958503067925333	0.015834544350949435	-0.015551006777224907	-0.00017332422116483383
Xe	-9.363517758830205e-05	5.3750012015888954e-05	0.0027832388890129396	0.004779456928297038	0.007119995758475322	-2.6274412249983434e-05
2
123200
Ar	0.00028845232809861015	6.951940021679532e-06	0.003193934071564125	0.00022188078462214296	-0.02232772592620316	-0.00016646751404322273
Xe	-2.3858838513024956e-05	0.00010261756261522554	0.002782399568787895	0.008466187693167515	0.0021487255575931593	-0.0001460053702172402
2
123400
Ar	0.00020796934206656647	-0.00019655427415225191	0.0031925795808840384	-0.0155014500262545	-0.016320765763092507	-9.374951668854316e-05
Xe	5.9246972849779096e-05	9.247084098762925e-05	0.002780416343364871	0.007315956940779376	-0.004063695857362128	-0.00022758049067485224
2
123600
Ar	8.29753147501159e-06	-0.00028764480555232703	0.0031923568439438106	-0.022395632457707676	-0.0009527527051618292	3.129393508581965e-05
Xe	0.00010837413320270602	2.9281556425902004e-05	0.002778009467657885	0.0019891435927106194	-0.007933040899770464	-0.00022988458695530006
2
123800
Ar	-0.0001962203847494594	-0.00021334637871331757	0.003192799775773843	-0.016388822543089692	0.015043215066999415	4.181811893300217e-05
Xe	9.512388658127949e-05	-5.103401005843426e-05	0.0027768067460564364	-0.004509210495886444	-0.007297939506745182	-1.47964905577392e-05
2
124000
Ar	-0.0002875721973065036	-1.6370145949570898e-05	0.0031933812860255855	-0.0009562029683501041	0.022324661810143354	8.55979864249143e-05
Xe	2.688164721311932e-05	-0.00010223902775509429	0.002777729353384597	-0.008403540411817545	-0.0024054896033138236	0.0001478204566173068
2
124200
Ar	-0.0002135071560666295	0.00018978828194452624	0.0031943835027089117	0.0149937615224515	0.016825035929970356	0.00011187612916859488
Xe	-5.6328893870263154e-05	-9.454437068770093e-05	0.002779326460654467	-0.0074367307552832594	0.003872646795139006	0.00014044890516600532
2
124400
Ar	-1.716034753691334e-05	0.0002871899493532626	0.0031952263321383912	0.022308110906529448	0.0016676199794806881	3.9304112242240975e-05
Xe	-0.00010736470601321683	-3.2370164361742414e-05	0.0027806531526259064	-0.002226223258730137	0.007923221951728976	0.0001215972846033713
2
124600
Ar	0.00018901635907280244	0.00021946636100064195	0.0031949789578845818	0.01682089605351266	-0.014510572197294765	-7.59744608948441e-05
Xe	-9.668174769089477e-05	4.8554736099898364e-05	0.0027816320859170296	0.004255917631905586	0.007431700991481031	8.540683991042021e-05
2
124800
Ar	0.00028664752543715847	2.582598248128675e-05	0.0031938206139636204	0.0017463153471445596	-0.02224189523570821	-0.00011369601437493102
Xe	-3.076857023640737e-05	0.00010199668284948089	0.0027820942679670575	0.008297845001797774	0.0027002186825775877	-1.977560671449612e-05
2
125000
Ar	0.00022060398681314857	-0.0001825286958749528	0.0031932839480139246	-0.014290263812739467	-0.017328635164233223	1.614816652552203e-05
Xe	5.251229204173639e-05	9.721200352089824e-05	0.002781173133536892	0.007530340253133671	-0.003600021300282115	-0.0001634742080447085
2
125200
Ar	2.85290084112497e-05	-0.00028658913595801483	0.0031936590698195674	-0.022165629176636874	-0.0024113842846765596	4.933723400488523e-05
Xe	0.00010523346994729098	3.676685760608589e-05	0.002779369707010633	0.002475541032270773	-0.007874128333872889	-0.00016152256219210422
2
125400
Ar	-0.00017988042010929047	-0.00022612002244763252	0.0031939632046085837	-0.017390095701468905	0.01388662846282372	1.5843277903308703e-05
Xe	9.730064143704724e-05	-4.492788030253467e-05	0.0027783511935927465	-0.003957826196829488	-0.00763146193604991	-5.606602731077686e-05
2
125600
Ar	-0.00028514226447582026	-3.603207361481657e-05	0.0031939458102951614	-0.0025940186721294563	0.022217186474645708	8.606421533435782e-06
Xe	3.3567522200852315e-05	-0.00010093009609373885	0.002778243818978356	-0.008136131789317685	-0.0029992622759958047	1.0013320086285653e-05
2
125800
Ar	-0.00022675589322492166	0.00017484071293186613	0.0031946126344856982	0.013678763952081646	0.01779517308521066	8.895302499596446e-05
Xe	-4.949000757812992e-05	-9.871676709129535e-05	0.0027783140455839776	-0.007648843619634147	0.0034134846090526074	1.7324924969546498e-05
2
126000
Ar	-3.845521497215743e-05	0.00028522144313395276	0.00319520955864876	0.022094590403024337	0.0031608965640467623	2.685689375007212e-05
Xe	-0.00010435341429175267	-3.943547241531407e-05	0.0027790426199773345	-0.002766081448704353	0.007828492037228272	0.00010337995538809803
2
126200
Ar	0.00017206795570677964	0.00023190076223210388	0.003194850808810671	0.017866566297600955	-0.013307682658662747	-8.88608249238146e-05
Xe	-9.94552833913276e-05	4.266448159087493e-05	0.002780651114566242	0.003675142154152125	0.007762854035877644	0.00018403763475318942
2
126400
Ar	0.00028405067783172504	4.553956091922041e-05	0.0031940144665030114	0.0034103354895285453	-0.022083969224174344	-5.692916756856584e-05
Xe	-3.7936675884381324e-05	0.00010039612937695417	0.002782214958008027	0.007992427922907153	0.003198794563564233	8.585436911949264e-05
2
126600
Ar	0.00023354893092691458	-0.00016703538320006288	0.003193743939303133	-0.013015507307161405	-0.0182673866211237	-1.1030185214018152e-05
Xe	4.469623534737352e-05	0.00010051929849450341	0.0027823916580713027	0.007729206280450669	-0.0031645848888416043	-5.653661171743991e-05
2
126800
Ar	4.8962423129033245e-05	-0.0002841324074190858	0.0031937784951283424	-0.02201613167888204	-0.003952134245262808	-9.024153107904285e-06
Xe	0.00010169461869597266	4.332529437929714e-05	0.002781392218515239	0.003078977605002045	-0.007691266220898006	-0.0001295249187943467
2
127000
Ar	-0.00016366144965259974	-0.00023822204831371334	0.0031937017959662315	-0.018352385388608145	0.012662005483077431	-1.6140168986510902e-05
Xe	0.00010038371381863161	-3.8442394055974844e-05	0.0027802175111428067	-0.0033247070630084176	-0.007827728080857264	-0.00010150220033027622
2
127200
Ar	-0.00028209420381922505	-5.5631523549600994e-05	0.003193690654886101	-0.0041388855994520125	0.02199791830569385	3.851296622360077e-05
Xe	4.167597506597528e-05	-9.803099039750741e-05	0.0027791927779587475	-0.007840030191840815	-0.0034667310845443557	-0.00010649056680964756
2
127400
Ar	-0.0002384681308020324	0.00015901607173088365	0.0031941674510947947	0.01242781364082622	0.01874049902396642	8.073957581364754e-05
Xe	-4.1123114361339584e-05	-0.00010099229936576891	0.002778402102141323	-0.007891893963654428	0.002866152486933304	-7.252830185661965e-05
2
127600
Ar	-5.779258608295081e-05	0.0002822991957656761	0.003194870230937785	0.02188991140883985	0.004670389011040496	5.410990862718405e-05
Xe	-0.00010064945183150364	-4.574247973960277e-05	0.0027779666189871395	-0.00340598594358011	0.007616406267255405	1.5863585480142722e-06
2
127800
Ar	0.00015618300182497778	0.0002434044616841185	0.003194647229036097	0.018741729494911836	-0.012057015408179567	-7.899905769135123e-05
Xe	-0.0001024614051193569	3.629540454420642e-05	0.002778602338096807	0.003081460495668386	0.007952695142279455	0.00011340669492193124
2
128000
Ar	0.000280468013320178	6.455874634814595e-05	0.003193786531973909	0.004845029725308088	-0.02187486927051348	-8.312524104498444e-05
Xe	-4.54799192688921e-05	9.7851210978035e-05	0.0027801101148644688	0.0077560751784945415	0.003725161583364993	0.000151044146616226
2
128200
Ar	0.00024403092773644038	-0.0001512921624374447	0.0031932709737944164	-0.01178580499180901	-0.01911370394720606	-1.2616740217635788e-06
Xe	3.7556458565756315e-05	0.0001033374420904506	0.002781217661089633	0.0080046927058661	-0.0026704250996929537	7.539419839320318e-05
2
128400
Ar	6.769803139305027e-05	-0.0002805254958407574	0.003193224336519808	-0.021686793142523912	-0.005403832614627013	1.5070593778460109e-06
Xe	9.904877287953625e-05	4.979496215023916e-05	0.0027814806371407592	0.0036628147528045556	-0.007485661016368778	-1.3622257328286942e-05
2
128600
Ar	-0.00014745604927076324	-0.0002487306901946315	0.003193272863282232	-0.01916036605879478	0.011427284160302252	-4.302954841361411e-06
Xe	0.00010371797438761983	-3.1825580129530854e-05	0.002781109110565489	-0.0027881021183151014	-0.008007573749770012	-7.243630459893064e-05
2
128800
Ar	-0.00027801555176682976	-7.441586394139886e-05	0.0031935012968891847	-0.0056314192710843775	0.021666394687856323	5.0683848659434254e-05
Xe	4.869691741883316e-05	-9.504807411828279e-05	0.002780128823703356	-0.007665546680091643	-0.003995672225864883	-0.00011749607481241635
2
129000
Ar	-0.0002490849445132206	0.000142372892510923	0.003194203246946699	0.011112282719035211	0.019520213267164212	0.0001056817933981467
Xe	-3.431997783448071e-05	-0.00010393657140599335	0.0027788071326948424	-0.008106852506700995	0.0023249028628468523	-0.00012126743332167683
2
129200
Ar	-7.724031360400808e-05	0.0002777803453565875	0.0031948882818771855	0.021504237507490986	0.006139585787091968	1.813646708355183e-05
Xe	-9.766063882482106e-05	-5.2882366583628836e-05	0.002777906592326528	-0.0038971752072075472	0.00735975196995574	-5.458232789147289e-05
2
129400
Ar	0.00013901352899084514	0.0002531559541391039	0.0031948120946278667	0.019535668027278828	-0.010807321562656845	-5.351490601563435e-05
Xe	-0.00010456493654109577	2.888794602900814e-05	0.0027781124408079675	0.002591416135379303	0.008181991872981742	0.00010447064368572046
2
129600
Ar	0.00027512309411873136	8.279303673962755e-05	0.003194091239591163	0.00630798985319393	-0.021523897323722573	-8.103561196837798e-05
Xe	-5.116725398485898e-05	9.452411922834746e-05	0.0027795466657261794	0.007533347097402455	0.004281894223545057	0.00017232062166878988
2
129800
Ar	0.00025324803411632356	-0.00013505889245432154	0.003193688630464802	-0.010477076120391716	-0.01985972511095264	-7.625611951372089e-06
Xe	3.1462478827035406e-05	0.00010602448256559797	0.002780689300082901	0.008148630975342018	-0.002097034548961284	5.5918637997169976e-05
2
130000
Ar	8.60533710904315e-05	-0.000275676362219983	0.0031937308568246382	-0.02124974326016656	-0.0067980166793674785	2.831959465909091e-05
Xe	9.586763296674755e-05	5.685910880186268e-05	0.0027809983160649765	0.004072022372236412	-0.007238912442796189	2.746530958339223e-05
2
130200
Ar	-0.00013038398812914229	-0.000258102395365262	0.0031937713483526525	-0.019862249483708422	0.010157051440367403	-1.1866721257279194e-05
Xe	0.00010525975260699	-2.4684634782477558e-05	0.002781047677299251	-0.0022962667079886156	-0.008220795654580912	-3.76272073040389e-06
2
130400
Ar	-0.00027222409339820654	-9.26073178381698e-05	0.003193646754413021	-0.00709266567801843	0.021276282875741778	-2.767904518996834e-06
Xe	5.428294972271817e-05	-9.193693579941244e-05	0.0027808423878853497	-0.007356417686242452	-0.00452874629307927	-5.79484699856453e-05
2
130600
Ar	-0.00025808402423999934	0.00012604031414657568	0.003193678008936215	0.00978187020398184	0.02022092085167248	2.3424336646727237e-05
Xe	-2.769390805706045e-05	-0.00010644555546383041	0.002779935141831164	-0.008214485758116263	0.0017734570692538231	-0.00011005767842586827
2
130800
Ar	-9.57176212188807e-05	0.00027246416326678327	0.0031942345403159953	0.02108502050776476	0.00757327020184591	5.1872510290237265e-05
Xe	-9.394574620073225e-05	-5.999421202798531e-05	0.002779028973897427	-0.004360656017073786	0.007040287329102438	-4.939891061135073e-05
2
131000
Ar	0.00012206424783360676	0.00026253864618760065	0.0031942348830400267	0.020242099509277436	-0.009452002976677658	-5.199515095733634e-05
Xe	-0.00010620669437544742	2.0874587859495254e-05	0.002778981261491029	0.002042073009854428	0.00831725183543124	4.458513642310069e-05
2
131200
Ar	0.0002695195350192944	0.00010191888003961858	0.0031936145762347617	0.007765593950451891	-0.021028696371738903	-4.786925559217358e-05
Xe	-5.745727658258858e-05	8.992143106258116e-05	0.0027795336449283185	0.007214849804955521	0.004805919017395819	5.2566107401707724e-05
2
131400
Ar	0.00026240256205128996	-0.00011726786684311763	0.003193370258614984	-0.009110472412808487	-0.020562029749058974	2.8818869049115956e-05
Xe	2.39638661478955e-05	0.00010753268293245329	0.002779967126541525	0.008235244971017451	-0.0014574739324129285	5.241730123561491e-05
2
131600
Ar	0.00010497896981630856	-0.0002693301670281367	0.003193918524609802	-0.020780486683610114	-0.008300655164472747	5.2318382209895145e-05
Xe	9.15556193123504e-05	6.34128079418086e-05	0.0027802115916796565	0.004603890925851498	-0.006906866980750839	1.2465609364943806e-05
2
131800
Ar	-0.00011267623854323931	-0.0002671522021327088	0.0031943319770091775	-0.020522845144246276	0.008736930555169713	-4.76957179167012e-06
Xe	0.00010672752671304843	-1.74367124432443e-05	0.0027803937385127964	-0.0017276023914978994	-0.008413724141128067	3.07316418326314e-05
2
132000
Ar	-0.0002655888314717254	-0.00011155815390295309	0.0031942812251341927	-0.00848778036571494	0.020814619293207288	1.7947725012991215e-05
Xe	6.069863274352854e-05	-8.845588550867154e-05	0.0027806942404473172	-0.007015048079542218	-0.00505182886427892	1.617894817437614e-05
2
132200
Ar	-0.00026610810382160917	0.00010831356410172448	0.0031944296734257817	0.008412633157636873	0.02090450416183756	2.6534008545900712e-05
Xe	-1.9832046113804953e-05	-0.00010836337776804507	0.0027804699729747375	-0.008276561905223748	0.0012620936977194267	-4.2872764131424645e-05
2
132400
Ar	-0.00011370577961989564	0.0002659177064412402	0.003194571407105652	0.020518831701118165	0.00900776207320815	-8.715377442331384e-06
Xe	-8.880369197725671e-05	-6.58337761532808e-05	0.0027797772384266822	-0.004821365137730996	0.006824697621492828	-8.968379848475437e-05
2
132600
Ar	0.0001041708449108804	0.0002706873446031816	0.0031942588728837294	0.02081124589887521	-0.008077427954032724	-4.262090271664413e-05
Xe	-0.00010688792960410045	1.4717670209458782e-05	0.0027793573826113767	0.0013897309235305923	0.008471958208622956	5.055434531701422e-06
2
132800
Ar	0.00026209955462719276	0.0001202161595422855	0.003193887781277169	0.009183776053936252	-0.020501893122011467	-3.951353076611618e-05
Xe	-6.346266752299089e-05	8.683437387218483e-05	0.002779811796014543	0.006840815211778401	0.005216961809526152	6.217870302261942e-05
2
133000
Ar	0.0002698943327383924	-9.913920807376049e-05	0.0031937660788103344	-0.007719450504789289	-0.021162409162189037	1.4154808729164759e-05
Xe	1.6455085908776276e-05	0.00010886087642074533	0.0027800739727173143	0.00831036824775977	-0.0010176650958113275	4.5759376347952007e-07
2
133200
Ar	0.00012269734392978527	-0.00026161071444733426	0.0031939795060493582	-0.020219735413123528	-0.009664867454348936	-9.90319750821223e-06
Xe	8.703297909295355e-05	6.858869755605177e-05	0.0027798838766527937	0.005080728977083173	-0.006642737752693234	-1.1829009773188274e-05
2
133400
Ar	-9.48128717840558e-05	-0.0002736370995870141	0.0031934118748021038	-0.02107238923509372	0.00735971111729037	-8.230970679631794e-05
Xe	0.00010786867583372453	-1.110216950908768e-05	0.0027800203750150162	-0.0010971957875548551	-0.008482568940457605	3.07736704827283e-05
2
133600
Ar	-0.00025770738303237126	-0.00012886710332483508	0.0031929000627204133	-0.00984748363022716	0.020139754114938103	-1.0693442615105402e-05
Xe	6.716479239608372e-05	-8.416338281181962e-05	0.0027804004463777158	-0.0066325140133229555	-0.005414154815790452	5.676384893293067e-05
2
133800
Ar	-0.0002729076951908994	9.007244512482811e-05	0.003193095933295741	0.006996937097053477	0.021428945571380403	4.4297941987075697e-05
Xe	-1.1778021471832863e-05	-0.0001091627089678366	0.0027808599523229597	-0.008379828995047769	0.0006961256622771573	4.2906233651306005e-05
2
134000
Ar	-0.00013145352507803963	0.00025757307377848883	0.003193835107608597	0.019866576484680747	0.01034860424085456	6.859094468475342e-05
Xe	-8.395995127740377e-05	-7.181676207059296e-05	0.0027808761002013666	-0.005327579452982172	0.0063941555610970415	-2.4229789028073653e-05
2
134200
Ar	8.566913730014626e-05	0.0002767525495292479	0.0031941432586697132	0.02134669190177609	-0.006708140931122677	-2.6437897560290656e-05
Xe	-0.00010806831598444634	6.7528306585766905e-06	0.002780687381446893	0.0007658292717735206	0.008541752285953334	-1.8577978499279838e-06
2
134400
Ar	0.00025357022631179905	0.00013702063576543922	0.0031939098959712755	0.010550977061228909	-0.019828243355584134	-9.387990290577366e-06
Xe	-7.00361453473275e-05	8.189047781831553e-05	0.0027804578375800323	0.006456195253282137	0.005710974930088928	-3.53426327579196e-05
2
134600
Ar	0.00027620146145871294	-8.083685055870749e-05	0.0031938861675844935	-0.006262672393929325	-0.021578054686280223	2.179568541686976e-05
Xe	8.405356440021582e-06	0.00010986508325467859	0.0027797484238149383	0.008429795134578462	-0.00038767017800783065	-7.146160454129987e-05
2
134800
Ar	0.00014040553357164511	-0.0002524105084791246	0.0031940096241394604	-0.01952054113338996	-0.010982540864309859	-6.121191657427148e-06
Xe	8.20628790214543e-05	7.53493796882733e-05	0.0027792905945374204	0.005565975100382223	-0.0061865549963821785	1.0486505205979077e-05
2
135000
Ar	-7.621181632954624e-05	-0.0002787838658731899	0.0031937338214065815	-0.0215936245526805	0.005964008209339405	-5.79163350633279e-05
Xe	0.00010878463241086487	-2.2678991062691454e-06	0.002780028096051347	-0.0004910321912547748	-0.008530679794735669	0.00010602647286472157
2
135200
Ar	-0.0002492589195551745	-0.00014493981899818355	0.00319314941041104	-0.01127521783744598	0.01942099078390335	-4.374608283756093e-05
Xe	7.309556800595572e-05	-7.84243250728345e-05	0.0027809191630090123	-0.006297561578666727	-0.0059352347294667806	5.6779453430242124e-05
2
135400
Ar	-0.00027955994410984583	7.188211967944015e-05	0.0031933450133998795	0.005490828178189335	0.02175668097826289	5.821859651661878e-05
Xe	-4.421952367159356e-06	-0.00010944141123240257	0.0027811160767137514	-0.008426838934371596	6.039786190758794e-05	-2.352320580937957e-06
2
135600
Ar	-0.00014989740876723015	0.00024778044128239346	0.003194071165532617	0.019143664784736555	0.011612361394483217	6.617040525586031e-05
Xe	-7.898955314665058e-05	-7.756638702874118e-05	0.0027804664313723654	-0.005748172340977437	0.006002325472718384	-0.00010722982890528142
2
135800
Ar	6.588944036450676e-05	0.0002811998042594121	0.003194499995527282	0.021815682209651552	-0.005265378562024476	1.6667374597961796e-05
Xe	-0.00010806066355732381	-1.0411752475194885e-06	0.0027797121279303457	0.00022613861145512776	0.008541364028555615	-6.652947057622412e-05
2
136000
Ar	0.00024374414158014572	0.00015299915683350963	0.003194399361288631	0.011976813438460026	-0.019072763558417735	-3.698953686829251e-05
Xe	-7.520327330054687e-05	7.658194690034172e-05	0.002779112575357215	0.006034547497937214	0.006196702784223305	-4.582896290547058e-05
2
136200
Ar	0.00028159642448400806	-6.314393709152906e-05	0.003194025096767386	-0.004786280726848256	-0.02194528938493964	-3.5984216716845695e-05
Xe	8.586052078419799e-07	0.00011047350690587498	0.002779061942234003	0.008370938250643967	0.00025819076018737333	2.7252784077001398e-05
2
136400
Ar	0.00015747576973402128	-0.00024297018309661026	0.0031936932531968706	-0.018792727432200666	-0.012191272141943838	-1.6026542068266252e-05
Xe	7.634160413050146e-05	8.08968200453559e-05	0.0027794577798074755	0.005934360859776934	-0.005877487593357616	6.67859287265624e-05
2
136600
Ar	-5.7117712845929924e-05	-0.0002831604285747033	0.003193446915540992	-0.02194866883985068	0.004527923741034074	-1.4785488845289313e-05
Xe	0.00010809478163430894	4.593782035699518e-06	0.0027801985115689888	9.868192534064689e-05	-0.008594354641527583	6.64364409539693e-05
2
136800
Ar	-0.00023862209454384497	-0.0001610978048319759	0.003193470245269165	-0.012504656419717233	0.018619434768629393	3.15949133753452e-05
Xe	7.820914023328737e-05	-7.437589550858187e-05	0.002780750526418744	-0.0057808426918248825	-0.006406997720146827	5.572632508973385e-05
2
137000
Ar	-0.00028332653651514685	5.3361475308335706e-05	0.00319412506104532	0.004012384350570198	0.022101239655767324	8.255381573100754e-05
Xe	3.4835804363354083e-06	-0.00011094645429468746	0.002780809841707183	-0.008383095100216734	-0.000541976117050442	-4.5717938373771234e-05
2
137200
Ar	-0.00016565776397295019	0.00023747982563397186	0.003194702663789746	0.01830967207435097	0.01289374945133434	3.342272968010614e-05
Xe	-7.312585249721357e-05	-8.417124586143325e-05	0.0027803800023095916	-0.006179666053514683	0.0056408948358822805	-1.3621980852028969e-05
2
137400
Ar	4.694518350195437e-05	0.00028557706243241944	0.003194502531400151	0.022071925023971335	-0.003777059511076425	-7.297778652488995e-05
Xe	-0.00010786155946708262	-9.053643438929024e-06	0.0027803337270627545	-0.00041234936508111785	0.008619392320586488	-1.0428985942955939e-05
2
137600
Ar	0.00023278466218013195	0.00016979133751396282	0.0031937012019036407	0.013183897533025655	-0.01821111855641995	-8.631565327291653e-05
Xe	-8.04486641409792e-05	7.115611041849892e-05	0.0027798616016173365	0.005585839401408724	0.006612950290234244	-7.403644273398448e-05
2
137800
Ar	0.0002850825473512028	-4.33309525834074e-05	0.003193074555184924	-0.003280014845126014	-0.022266575416570327	-3.8570359429231764e-05
Xe	-6.89690587232386e-06	0.00011040348953677561	0.0027791708670801955	0.008362274741274607	0.0008294113803403526	-8.683227761644482e-05
2
138000
Ar	0.00017391455743521293	-0.00023185954638699872	0.003192812916760332	-0.01785054257023795	-0.01352501258022627	-4.0836022564757795e-05
Xe	7.077033556894569e-05	8.644287138408832e-05	0.002778524572269276	0.006366871510302986	-0.005399372197769419	-3.413882762064821e-05
2
138200
Ar	-3.706456441959917e-05	-0.0002872669500790083	0.0031925384829511773	-0.022204838114607234	0.003003893316385701	-1.5807093336836056e-05
Xe	0.00010810433176496405	1.300835392496777e-05	0.002778692953015617	0.0006840735433758214	-0.008544665549346932	6.408943840868922e-05
2
138400
Ar	-0.00022674831089175584	-0.00017786637996447643	0.0031929597925979265	-0.013816524976958598	0.017746321297145925	9.087427958654319e-05
Xe	8.344945342655724e-05	-6.808831220183588e-05	0.002779744061457648	-0.005386261673955169	-0.006834364461771769	0.00011663665377716184
2
138600
Ar	-0.00028631442275759984	3.346343166789079e-05	0.00319406613784877	0.0025126167996075742	0.0223945862169272	0.0001103366986019038
Xe	1.089581973067899e-05	-0.00011027837420501442	0.002780716584922235	-0.008408407654391985	-0.0011846853223994554	7.208434964280829e-05
2
138800
Ar	-0.00018138026582181224	0.0002260844017863503	0.003194976095071404	0.017420597299500913	0.014169251328938757	5.0310095486385574e-05
Xe	-6.82274244429861e-05	-8.903429451426594e-05	0.0027812416887186856	-0.006604974979719275	0.005175595709211147	4.230166901658055e-05
2
139000
Ar	2.805629032908568e-05	0.00028910070884652464	0.0031947385796150096	0.022315191934055963	-0.002215014606172999	-8.396429101161041e-05
Xe	-0.00010844804131440325	-1.6605382829179762e-05	0.0027817033364902696	-0.0010224338079127615	0.008565887038134004	4.053629948571258e-05
2
139200
Ar	0.00022135914172646075	0.00018596150376525082	0.0031936373353232436	0.014407595046811265	-0.017315335204012475	-0.0001112721165120733
Xe	-8.677378745207587e-05	6.562982018127898e-05	0.0027819352747407034	0.005143723564677625	0.007025174750074127	-2.9483494959063124e-05
2
139400
Ar	0.0002878533158164402	-2.3673870783891217e-05	0.003192824126584189	-0.0018088331936877123	-0.02246471927116145	-6.779872687439397e-05
Xe	-1.5557521203151554e-05	0.00011026331482400447	0.0027811885730183966	0.008356111087238525	0.0014391389716102232	-0.00011004968474901952
2
139600
Ar	0.00018894293273720949	-0.00021948200584929315	0.0031925454368334967	-0.016967855618946995	-0.014724084754518434	3.14214055178221e-05
Xe	6.426657040667697e-05	9.146863795611946e-05	0.0027800050954896803	0.006803172159050425	-0.005007756012601351	-9.663624977911059e-05
2
139800
Ar	-1.8356492500237083e-05	-0.00028955882579908204	0.003193283356611779	-0.02238594225520941	0.0014508721839817916	8.758912647289118e-05
Xe	0.00010698746179268501	1.9979136570708464e-05	0.002779127265566198	0.001322646223523986	-0.008574491593758032	-4.925043033356538e-05
2
140000
Ar	-0.0002150652802600838	-0.000193143637705606	0.0031938003828242112	-0.014931291295467868	0.01683774224219133	3.3696873982419656e-05
Xe	8.81043053644784e-05	-6.322115833915217e-05	0.0027788556438602704	-0.004921606319012488	-0.007254639877620062	-1.823063877031454e-05
2
140200
Ar	-0.00028812900126278743	1.4344248851527833e-05	0.003193981452122474	0.001063326079269298	0.02253543303079528	1.254946483918456e-05
Xe	1.8286601148161578e-05	-0.00011073858659603621	0.002779051452392889	-0.008308121207407732	-0.0017501981331443908	5.6291098887519254e-05
2
140400
Ar	-0.00019558265797299954	0.00021370440710371567	0.003193859324448945	0.016507710262972458	0.01528567844021292	-4.7439316038070284e-05
Xe	-6.210483867727685e-05	-9.471713890369487e-05	0.0027797929702403383	-0.006950244607770319	0.0047863900320239015	9.755897152355464e-05
2
140600
Ar	9.666767737798821e-06	0.00029015065771150346	0.0031929970915387912	0.022458528487633245	-0.0007636341135599819	-0.00010488865120086561
Xe	-0.00010713720637130485	-2.4071619595381024e-05	0.002780969936067898	-0.00158415145288414	0.008578904916353268	0.00012686497931536212
2
140800
Ar	0.0002094879277459674	0.00020024961383735624	0.003192346424370804	0.01551009286398006	-0.016315023829064013	-6.189980432583348e-06
Xe	-9.064640350714722e-05	6.0173630781062225e-05	0.002782078861763891	0.0047067217202583335	0.007422026285812501	8.416261479523478e-05
2
141000
Ar	0.0002895255441363614	-4.4700945029001304e-06	0.0031927911874530344	-0.0003356025277750236	-0.02255931906648363	9.190200718722456e-05
Xe	-2.247463021358914e-05	0.00010976795895115	0.002782254951955224	0.008257965543126092	0.001988126882953234	-3.968511100175617e-05
2
141200
Ar	0.00020354226917218264	-0.00020705237143148658	0.0031938780170212527	-0.016006255321852774	-0.015884954570145767	0.0001121929428907799
Xe	5.8276721219357316e-05	9.622463212255136e-05	0.0027812986244600164	0.007083607088542061	-0.004559873408944182	-0.00012333655902911137
2
141400
Ar	4.940368877382084e-07	-0.0002908542501120594	0.0031942398290923145	-0.022509838028629076	-2.2720827324754954e-05	-4.556436885871577e-05
Xe	0.0001055160172213943	2.766998628388193e-05	0.002780027103415523	0.0018737934828190314	-0.008477996073074427	-0.0001275134106855701
2
141600
Ar	-0.00020254405194161895	-0.0002076730377859727	0.0031934624472287274	-0.01603204788753394	0.01582057418392486	-8.149176148819185e-05
Xe	9.189096199563716e-05	-5.6903084535888096e-05	0.0027790234096501994	-0.004465154531536634	-0.007584253737615178	-6.305574229596889e-05
2
141800
Ar	-0.00028896832921709116	-5.285965276829542e-06	0.003192781040098581	-0.0003822219252851067	0.02261368393012024	-4.378665251148077e-05
Xe	2.502838488702577e-05	-0.0001089269856158674	0.002778655019102722	-0.008238922445861125	-0.0023024180916131204	4.898762084312429e-06
2
142000
Ar	-0.00020941860525671525	0.00020029816809752628	0.0031926213927768333	0.015485912593278382	0.016419534430540214	-2.492721361607599e-05
Xe	-5.667356766835747e-05	-9.837243299111829e-05	0.0027791380753447678	-0.007274548677201415	0.004325666612715083	0.00010304122828386756
2
142200
Ar	-9.474236091621003e-06	0.0002912920815225664	0.003192574659603907	0.02247186480273607	0.0008404063679211244	2.995246008349241e-05
Xe	-0.00010616528310336035	-3.106418689423247e-05	0.0027805747044977363	-0.0021159723356831603	0.008437347223300506	0.0001647820517984064
2
142400
Ar	0.0001960867417321642	0.0002149536533009196	0.0031932142816291655	0.016538279272928634	-0.015299674346405457	0.00010117061305471972
Xe	-9.506719579564873e-05	5.390669012313039e-05	0.0027817545271138612	0.00422291971609488	0.007684202780719451	6.212025951841789e-05
2
142600
Ar	0.0002892405298007263	1.5501082584750486e-05	0.0031943218037088278	0.0011348391921508728	-0.022553133363602592	9.68367295682776e-05
Xe	-2.993758708532934e-05	0.00010757632278539215	0.0027819687514723667	0.008171863272412476	0.002506814250303361	-3.7600288198813014e-06
2
142800
Ar	0.00021651458351834118	-0.0001924512240301641	0.0031948838420648336	-0.014951185407805824	-0.016921375293968675	4.608452885822976e-06
Xe	5.266860879630613e-05	9.902537531478604e-05	0.002781509987820766	0.007502367927435123	-0.004110162981558666	-7.514949875122518e-05
2
143000
Ar	1.9419656056814826e-05	-0.0002899602859910895	0.0031944651207265477	-0.02245941550801288	-0.0015592042985345673	-9.917944007509795e-05
Xe	0.00010518598255159021	3.310484517052678e-05	0.0027807675077707794	0.0024750600716131645	-0.008393604570742128	-0.00010363020777115481
2
143200
Ar	-0.00018866331053039967	-0.0002208736923147682	0.0031932377984900274	-0.017041518719824487	0.014679422070254453	-0.00013046207223137924
Xe	9.721917920920102e-05	-5.2177232596158194e-05	0.0027797751617162575	-0.00396985007447958	-0.007798907595756296	-8.278796915744588e-05
2
143400
Ar	-0.0002883979993229352	-2.4870422211339208e-05	0.0031922450687309595	-0.001891792726477862	0.022534835933243305	-5.760459349268993e-05
Xe	3.352911113571573e-05	-0.00010744351781726995	0.0027792151722873886	-0.008108582034693623	-0.0027367330826192364	-3.4476791349280674e-05
2
143600
Ar	-0.0002226176564689948	0.00018561782948122287	0.0031919967618734488	0.014371800283389037	0.017414830595646965	3.0125313686101258e-05
Xe	-4.905077865913794e-05	-0.00010132722883238029	0.0027792294224559806	-0.007599285293444477	0.0039167883765769875	5.390961379157231e-05
2
143800
Ar	-2.9014921916958055e-05	0.0002892830817160132	0.003192478357017997	0.02235112246570787	0.0022605732294987218	7.004557710126933e-05
Xe	-0.00010345388088398495	-3.706089784681878e-05	0.0027802112507429107	-0.002724503189445697	0.008295851786229404	0.00013931050952643802
2
144000
Ar	0.00018108551139079087	0.00022674448506459954	0.0031934545746839867	0.01750418444929418	-0.01412908294082726	0.0001173434225554844
Xe	-9.845828320916613e-05	4.797281705231427e-05	0.002781657548863045	0.003671517880577073	0.007854085625324338	0.0001403547113977891
2
144200
Ar	0.000287289487584347	3.4264348908603286e-05	0.003194708799874588	0.002632477323190965	-0.022407840286146632	0.00010577339769353161
Xe	-3.7087498973753306e-05	0.00010490122508681201	0.0027827406378153883	0.007980104641319248	0.0029592085835399473	5.9953795065445026e-05
2
144400
Ar	0.00022854441087811152	-0.00017776419234402283	0.003194965492514775	-0.013813609602744293	-0.01784678715223459	-3.5721348258761157e-05
Xe	4.538557666398874e-05	0.00010136281630373379	0.002782690503125385	0.007682757583823077	-0.0036076225410074532	-6.888765731745331e-05
2
144600
Ar	3.8228874348738086e-05	-0.00028766300843032156	0.0031939919599020578	-0.02230929279372194	-0.0030199272685957814	-0.00015194029020908272
Xe	0.00010175767065712185	4.001460243788455e-05	0.0027815067653033164	0.0030206133352695215	-0.00806094826068171	-0.00015069709806426272
2
144800
Ar	-0.00017411012469862203	-0.00023221733655541575	0.003192378652886975	-0.01801194922340803	0.013554295812939413	-0.00013851226842039085
Xe	9.962429614087068e-05	-4.4206021055749236e-05	0.002780005455741612	-0.003399581124311894	-0.00792109977810531	-0.00015490417118471037
2
145000
Ar	-0.00028657324304754697	-4.31855559389667e-05	0.003191620953996986	-0.003359822556623017	0.022340001858098313	-1.215187599679895e-05
Xe	4.0495934369895215e-05	-0.00010293430195223875	0.0027787155074948254	-0.007841527786294397	-0.0032429817440617417	-8.432082763453176e-05
2
145200
Ar	-0.0002346695339243863	0.00017096557410114892	0.003192195224102205	0.013216521754177929	0.01830637233342669	0.00011207464429133884
Xe	-4.2025756839279966e-05	-0.00010240461815015231	0.002778206341365994	-0.007801923313098831	0.003307253549872084	-1.1889282264717957e-06
2
145400
Ar	-4.7967116460942733e-05	0.00028700818915080716	0.003193345210475805	0.022227088694162803	0.003717175254843062	8.634887427905228e-05
Xe	-0.00010032181210053531	-4.30407642762532e-05	0.002778844044427045	-0.0032587853632313557	0.007964508922407285	0.00013337560512227518
2
145600
Ar	0.0001659649844504443	0.00023789519630424175	0.003193886251262891	0.01840173177729356	-0.013021523632678441	1.8855287502124594e-05
Xe	-0.0001009014279494196	4.143621917202696e-05	0.0027803962688728403	0.0031615639111531747	0.008075371396600499	0.00014982781560877274
2
145800
Ar	0.00028426546344020474	5.218617016918663e-05	0.0031941220300150484	0.004065590298177951	-0.022244590730391443	2.1203975441506553e-05
Xe	-4.3750300221133164e-05	0.00010254590400357267	0.0027817133536712055	0.007680321169061214	0.0035211073889229202	0.00010609503978284098
2
146000
Ar	0.00023915834776077762	-0.00016379988919460202	0.003194009501061316	-0.01262885889877381	-0.018711848101404582	-3.489127605826909e-05
Xe	3.8069390303052116e-05	0.00010500970992211877	0.0027826109160443966	0.007847601752849778	-0.003069008022019012	7.522809555053831e-05
2
146200
Ar	5.682111524788983e-05	-0.00028560771529880164	0.0031933857170526755	-0.021983130125299767	-0.004441837352584148	-8.214118841356002e-05
Xe	9.823402375194499e-05	4.718542609955927e-05	0.002783073292050939	0.0035677569276535404	-0.007907104723309815	-1.337762342287949e-05
2
146400
Ar	-0.0001579838053072943	-0.00024389276044607127	0.0031927019424024977	-0.018789669994223136	0.012347250422784952	-3.7497885022465887e-05
Xe	0.00010238619397442125	-3.785691248031969e-05	0.002782320949077557	-0.0027928639415278006	-0.008237135194337084	-0.00015119045721358524
2
146600
Ar	-0.00028247484657203633	-6.257536161170972e-05	0.00319269432480985	-0.004849290158716098	0.02207759597812117	2.956546166466751e-05
Xe	4.79769981286809e-05	-0.00010110486282021725	0.002780564673198616	-0.007526930283756319	-0.00377851084642956	-0.00018008032703724822
2
146800
Ar	-0.0002451838125188962	0.0001546081556466654	0.003193428370776399	0.011913431282063493	0.019144699397274038	8.981947583413302e-05
Xe	-3.3732654286279725e-05	-0.0001061268290479741	0.0027790200515126606	-0.00799532265957692	0.00281230767940742	-0.00011745528276052813
2
147000
Ar	-6.710164518466178e-05	0.00028301230930678875	0.003193766560005377	0.02188694198783183	0.005233245473095911	-1.4335484727837502e-05
Xe	-9.617313483139713e-05	-5.014559166496534e-05	0.0027788597237335976	-0.003855528613106709	0.007824486231391826	6.650060521178344e-05
2
147200
Ar	0.00014948689762662792	0.00024883117476168134	0.003193368394924174	0.019213943723804968	-0.01172043527552122	-4.45983631435224e-05
Xe	-0.00010314450647541834	3.50616211420913e-05	0.002779781177675901	0.002522074836475564	0.008352914017445761	9.679329575559378e-05
2
147400
Ar	0.0002800553070675199	7.185641438793756e-05	0.003193223709289359	0.005567791743827695	-0.021899029764577242	2.487919301127436e-06
Xe	-5.072253592031336e-05	0.00010027416674624944	0.002780752315412899	0.007429179488534653	0.004005936177217787	7.856985454950714e-05
2
147600
Ar	0.0002497912658043796	-0.00014629471216505495	0.0031935176954655457	-0.011285017089773669	-0.019504046816600465	4.485075133331318e-05
Xe	3.079227322354177e-05	0.00010753403857584607	0.0027815021019755677	0.008042744994380749	-0.0026241850584413874	9.69626491213245e-05
2
147800
Ar	7.628849572669002e-05	-0.00028024117963409474	0.003193831141222242	-0.02164216210856889	-0.005925457233305942	1.843168638677874e-05
Xe	9.45996283968594e-05	5.3113824356392635e-05	0.0027821813534759238	0.00407483846128451	-0.0077199478585322345	3.764332721268003e-05
2
148000
Ar	-0.0001407196794062649	-0.0002531093579184586	0.0031934600212812185	-0.019566420987250074	0.011077712016898096	-7.462676090468076e-05
Xe	0.00010444446888002485	-3.129136106498333e-05	0.0027820354295670885	-0.0022324420433370044	-0.008321943539567788	-8.991040540659062e-05
2
148200
Ar	-0.00027684363213751527	-8.059647247460558e-05	0.0031932118153876945	-0.006288928349139092	0.021662324704320057	2.1877971068203425e-05
Xe	5.431573978529189e-05	-9.714353430121495e-05	0.0027806996100506825	-0.007296964877198931	-0.004185420724516262	-0.00016338210395100005
2
148400
Ar	-0.00025400949926711086	0.00013799948195496357	0.0031934206493788235	0.010632419038125677	0.019805159683491457	1.7718800562591962e-05
Xe	-2.7165318087997248e-05	-0.00010694554162972788	0.0027793913051657603	-0.008170192118216252	0.0023382561584056757	-9.249546183508084e-05
2
148600
Ar	-8.490275440905214e-05	0.0002768618541773437	0.0031934358826138766	0.021457548533468603	0.0065728758057455395	-1.7040925865081473e-06
Xe	-9.31669752335613e-05	-5.5106417721281716e-05	0.0027789004453318594	-0.004365815882437674	0.007530052755608703	4.146499453201029e-08
2
148800
Ar	0.0001328873189391822	0.0002566491083836091	0.003193489451991293	0.0199160578871622	-0.01040702843436478	2.7024920377622705e-05
Xe	-0.00010578819308025935	2.867388379469197e-05	0.0027791291601389494	0.0019696693583642726	0.008389041088563684	2.9302836817570592e-05
2
149000
Ar	0.00027455853238159844	8.893265667305084e-05	0.0031939981109615967	0.00698310979256183	-0.021422554256154597	4.8423916109644396e-05
Xe	-5.7690450294175867e-05	9.620972498622919e-05	0.002779771108593406	0.0071736561207049465	0.004450934052475178	7.157710269370985e-05
2
149200
Ar	0.0002586566064299692	-0.00012991009932509473	0.0031942450452634046	-0.00999576252841683	-0.020076726764871138	-1.70643887875764e-05
Xe	2.3516404965641007e-05	0.00010889600578686923	0.002780719132808643	0.008261672838390997	-0.0020488295520420447	0.00011334334892633188
2
149400
Ar	9.419969960339966e-05	-0.00027371771460660087	0.0031937217139946803	-0.021185506289690115	-0.00722318519486603	-7.313855199412016e-05
Xe	9.156929626639849e-05	5.931781935879197e-05	0.002781854022095915	0.004641376654828431	-0.00737674144780117	0.00010063509449552066
2
149600
Ar	-0.00012400437101200575	-0.00026038174292441335	0.0031932680957754344	-0.020236114359499343	0.009738509872042505	-1.7183969589665536e-05
Xe	0.00010707724979501462	-2.4047132570243668e-05	0.002782400341628435	-0.001671801453414603	-0.00843387475401813	-1.2211770551990152e-06
2
149800
Ar	-0.00027141223746966504	-9.773978920526502e-05	0.0031932144327716646	-0.007738926733890437	0.021128548675360632	1.691042793272226e-05
Xe	6.151607263375514e-05	-9.328777060568312e-05	0.0027816441706402066	-0.0070055542771551805	-0.004719438453601401	-0.0001447230879241351
2
150000
Ar	-0.00026313434349908686	0.00012121499842716661	0.003193495081288168	0.009301796690869097	0.020423305528739267	6.0788054222548883e-05
Xe	-1.9362540799170093e-05	-0.00010878982426879256	0.0027798709923059967	-0.008350304347767332	0.0017622426866644345	-0.00016651452988573106
2
150200
Ar	-0.00010358118833030178	0.000270382329903598	0.0031940463928976366	0.02097032821953567	0.007898511988802408	3.626266721586831e-05
Xe	-8.903951750743377e-05	-6.181132056659006e-05	0.0027786780341967987	-0.0048953634218555295	0.007193729430827338	-4.023324487790658e-05
2
150400
Ar	0.00011520563322788886	0.00026401207356051157	0.003194160039293373	0.020559140547706026	-0.009114281808963794	-5.571061953844956e-07
Xe	-0.00010786897936277449	2.0795157296436327e-05	0.0027788477983089347	0.0013031548194632097	0.008491297299553542	4.530647074590947e-05
2
150600
Ar	0.00026759983311343684	0.00010611170135314796	0.0031938554334964304	0.008358641842957988	-0.02084935298737769	-5.923368892978634e-05
Xe	-6.50557748462458e-05	9.174464623390926e-05	0.002779554845738173	0.00683612157471058	0.004960783297858645	0.00010563441705581185
2
150800
Ar	0.0002662399073932405	-0.00011275370098042091	0.003193023693535747	-0.008580107009885622	-0.020668722310091613	-0.00010392503070832785
Xe	1.5459541529434022e-05	0.00011014074505286731	0.002780908477874675	0.008428207771470846	-0.0014676428959009015	0.00013761003901891078
2
151000
Ar	0.0001122990915369928	-0.000267074655986468	0.0031922414523976087	-0.020623750181106255	-0.00863382741818364	-4.740961362761366e-05
Xe	8.70045979249804e-05	6.54525945469913e-05	0.0027820252151683324	0.005150981839692945	-0.007010746540596212	8.530819354288661e-05
2
151200
Ar	-0.0001061836789252604	-0.0002684170343084369	0.0031922411353289618	-0.0208493710734579	0.008378837373698923	6.423255939728281e-05
Xe	0.00010845759608225576	-1.618326365318884e-05	0.0027823239498519932	-0.0010619503806292055	-0.00849037913532001	-3.155368883463288e-05
2
151400
Ar	-0.0002642267203294013	-0.00011585023636964507	0.0031933604618257215	-0.00913447519524951	0.02057925450904251	0.00013642236393365825
Xe	6.773891263318671e-05	-8.799189636268002e-05	0.0027815392995665725	-0.006642638695395804	-0.005172316128107915	-0.00011979433014185271
2
151600
Ar	-0.0002708037720865839	0.00010316488085741795	0.0031943394882048967	0.007900467468266852	0.021007124809247404	5.2151352111117094e-05
Xe	-1.1677042921298823e-05	-0.00010930121585568405	0.002780390187926071	-0.008434422321276492	0.0011207621908050536	-9.915448742976348e-05
2
151800
Ar	-0.00012182115193943792	0.0002630752928958966	0.0031942529306489115	0.020396906321071426	0.00934646760206397	-5.322736135711864e-05
Xe	-8.458839629066718e-05	-6.766058182154128e-05	0.0027796355562830378	-0.005413019033158628	0.006780280983144984	-5.6370917701335006e-05
2
152000
Ar	9.714324431799054e-05	0.00027192199683355987	0.0031935681771936265	0.021177838362906418	-0.007670484476806782	-6.236127127456445e-05
Xe	-0.00010922871054030322	1.26139603817031e-05	0.002779445261172659	0.0007457676146532401	0.008468755882777377	1.4655493019495191e-05
2
152200
Ar	0.00026034064219100043	0.00012476751528882796	0.0031930418735640117	0.009801619618649143	-0.020270120884632748	-4.549867166217729e-05
Xe	-7.106891083929165e-05	8.522671266845328e-05	0.002779522658319842	0.006507727902955213	0.005310799380220315	2.9015832463326787e-05
2
152400
Ar	0.00027399966938711207	-9.404194657874299e-05	0.0031927478262512407	-0.007194783326393517	-0.021249817399901727	-1.5161992868654882e-05
Xe	8.111243723843867e-06	0.00010866574198796149	0.00278002596943201	0.00851219573289867	-0.0008697827117261966	7.324682344425512e-05
2
152600
Ar	0.00013024883714929272	-0.00025864040119902477	0.0031928946393958175	-0.02009976887473956	-0.010011133544527552	5.638605418328699e-05
Xe	8.249829436759316e-05	6.951112360198105e-05	0.00278063189155405	0.005616564627919193	-0.006559532591815589	5.816989065929186e-05
2
152800
Ar	-8.825202590959174e-05	-0.00027496556812234936	0.003193566700312719	-0.021388074426460468	0.006900292722258043	8.150640096997368e-05
Xe	0.0001094396947382577	-9.5585559634204e-06	0.002780962945496586	-0.000509429410624051	-0.008433676981172263	1.983553029456109e-05
2
153000
Ar	-0.00025587130585949107	-0.00013397182316416594	0.0031943959178999206	-0.010435751596108664	0.0198750570804691	5.3372724597154295e-05
Xe	7.346326168196291e-05	-8.27761672801343e-05	0.002780887800041519	-0.006332281525665283	-0.005464406880366601	-2.6420433587637065e-05
2
153200
Ar	-0.0002764727667391553	8.367603022695484e-05	0.003194600578475999	0.006529714640266138	0.02141646739488047	-1.8794117886576162e-05
Xe	-4.793781556299636e-06	-0.00010854398394830573	0.00278072978115608	-0.008524837644952573	0.000587688065773715	-2.747036807518808e-05
2
153400
Ar	-0.0001381326624953322	0.00025279801284857825	0.0031940355183974144	0.019718446831697337	0.010698268717024994	-5.631496384133988e-05
Xe	-8.02472479907002e-05	-7.199101039215981e-05	0.0027803944392242787	-0.005789986320614637	0.006356497486082048	-4.625892013791335e-05
2
153600
Ar	7.949720164048415e-05	0.00027674447289931486	0.0031933638019873284	0.02158066691535713	-0.006151053004514297	-4.9064106491359015e-05
Xe	-0.00010946201183852281	6.252391712098647e-06	0.0027798547359462623	0.00023302482865398305	0.00847176304622239	-5.3365820340429444e-05
2
153800
Ar	0.0002512792845326106	0.00014187846429064766	0.003193037049471	0.011048052278086747	-0.01948613880523169	-1.3744092447665665e-05
Xe	-7.599172201748815e-05	8.101081813839675e-05	0.002779442344941305	0.0061211686650015674	0.00569302657052961	-3.490861278743949e-05
2
154000
Ar	0.0002789762365784977	-7.454990381469624e-05	0.003192771015539929	-0.00579448809594098	-0.021596316731731374	-2.2209318778532438e-05
Xe	1.1121940339710413e-06	0.0001091427182331524	0.0027793289571472427	0.008511798870749222	-0.00034217619318947703	1.4022632953110818e-06
2
154200
Ar	0.0001466260174340901	-0.0002477799497110508	0.003193017700487737	-0.019309740526510254	-0.011302741786776021	4.501643046519955e-05
Xe	7.76503007338848e-05	7.46884890465095e-05	0.0027796034610565626	0.006006740814218993	-0.006195582571588674	5.569569928122189e-05
2
154400
Ar	-6.985618984582326e-05	-0.0002788488006796201	0.0031937193091847137	-0.02175593738562722	0.005413112752763722	8.212390364996443e-05
Xe	0.00010938418602956797	-2.5786430640763237e-06	0.00277985336078817	4.5958753483286204e-05	-0.008456237163097843	-1.1548270067167803e-06
2
154600
Ar	-0.00024631267641609457	-0.000150015950803168	0.003194434137561262	-0.011732381159725016	0.019051632504054186	4.846356485965368e-05
Xe	7.837813900064781e-05	-7.831222901828264e-05	0.0027798371877082303	-0.005933743503309302	-0.005929780528158295	-1.139962646618577e-05
2
154800
Ar	-0.0002813902788551334	6.493530009589315e-05	0.003194482148066554	0.00506698701209783	0.021750713851820282	-4.0501562113271034e-05
Xe	2.0333975711863575e-06	-0.00010931991732112335	0.0027797663440264596	-0.008548207264889562	5.954113851094097e-05	-2.3310299311607385e-06
2
155000
Ar	-0.0001547480948083153	0.0002424955837644746	0.0031937164771468616	0.018958333745810914	0.011978214622109063	-6.36605995067366e-05
Xe	-7.538756207119922e-05	-7.718951574896983e-05	0.0027799876628232995	-0.006163426220470126	0.006029365920164963	3.402967888657205e-05
2
155200
Ar	6.0891836519730726e-05	0.0002811503879626908	0.00319355730142898	0.02198748904119763	-0.004645165266672216	2.8926398840091928e-05
Xe	-0.00010915748652618693	-7.952613003534274e-07	0.0027803068233522616	-0.0002717087107123515	0.008505372905320139	9.49072741670287e-06
2
155400
Ar	0.00024189256346997083	0.00015837495084132194	0.0031940049537983075	0.012363078101195352	-0.018641137439779347	2.7606082613841244e-05
Xe	-8.027235569814662e-05	7.599569848730308e-05	0.0027803118277245323	0.005752813097410093	0.006096568091290547	1.0553102709583941e-05
2
155600
Ar	0.00028400538621270726	-5.5106564401441176e-05	0.0031940661109725378	-0.004367710226109455	-0.021898244095827614	-3.446771400283394e-05
Xe	-5.139760792291072e-06	0.00010923698978353212	0.0027804703926893187	0.008490477346683975	0.00021821017587297432	1.0029341056533228e-05
2
155800
Ar	0.00016294617841281322	-0.00023708209632344402	0.0031936426033591717	-0.01858781555712246	-0.012654561241885935	-5.067554463680348e-05
Xe	7.289272575236575e-05	7.986327704128446e-05	0.002780429909694841	0.006343941912503804	-0.005789621955526966	-2.3762197952464462e-05
2
156000
Ar	-5.145444988669714e-05	-0.0002835145322956768	0.0031933862952096756	-0.022109068093512662	0.003865119940507592	1.3832003354287218e-05
Xe	0.00010919446314003373	4.578193614848633e-06	0.0027798540786569885	0.0005500588362171577	-0.008494651350444292	-6.750979884083348e-05
2
156200
Ar	-0.0002361351151870808	-0.00016712059200738266	0.0031936940208439476	-0.012935756913167682	0.018216966820324098	4.359529582662465e-05
Xe	8.26730749526377e-05	-7.363031504468785e-05	0.0027793395364739152	-0.005623679370567047	-0.006352216110780991	-2.5244321631445795e-05
2
156400
Ar	-0.00028490228688917715	4.536290946409035e-05	0.003194161313283905	0.0036856240837783495	0.022111302261458868	3.868642238256163e-05
Xe	7.965820596782281e-06	-0.00010966365006346036	0.002779129883581973	-0.008545976267946941	-0.0004961263248989405	-1.6962112227186513e-05
2
156600
Ar	-0.0001695766360862842	0.00023187422454236481	0.003194354819694306	0.01819888490139269	0.013278810317995365	-4.547973035699046e-06
Xe	-7.133128960510746e-05	-8.260224274022995e-05	0.002779116802834027	-0.006535175455808431	0.005635613318167487	4.321311601828334e-05
2
156800
Ar	4.325706910411699e-05	0.00028520763292692473	0.0031942714103179505	0.022214737773578245	-0.003160926054352662	-2.2993803801527013e-06
Xe	-0.00010990663310933524	-7.770211973772177e-06	0.0027799308144902724	-0.000793037896988134	0.008540869286303224	8.764552052022464e-05
2
157000
Ar	0.00023128260537489916	0.00017441739991764217	0.0031941064956455393	0.013472155471602933	-0.017858251211303945	-3.9342235236829734e-05
Xe	-8.56220905447534e-05	7.187115919585484e-05	0.002780919364607898	0.00541135028404949	0.006562640072800525	8.462898067090077e-05
2
157200
Ar	0.00028654728839496026	-3.684134921995928e-05	0.0031935791916535435	-0.002976950710977095	-0.022241478526997177	-4.64124857197105e-05
Xe	-1.2093839289967416e-05	0.00011056766718806811	0.0027815908663734166	0.00852881331108942	0.0007787553422004802	2.3883906343832696e-05
2
157400
Ar	0.00017746868839554864	-0.00022690696133256393	0.003193153004988768	-0.017754660334018173	-0.013855832926448654	-3.6794571639346766e-05
Xe	6.810765200708834e-05	8.575260133994429e-05	0.0027815263785791484	0.006701915824454713	-0.005484141727634278	-4.5065285599539884e-05
2
157600
Ar	-3.3703130297499826e-05	-0.0002867020179020231	0.003193153260923719	-0.022330072305807712	0.002496839304671161	4.6512273293249384e-05
Xe	0.00010891912097884628	1.1959150303473567e-05	0.0027806685608910047	0.0010660506614648885	-0.008548337134153504	-0.00010631002925249671
2
157800
Ar	-0.00022563842679976224	-0.00018196227338889345	0.0031934721011359587	-0.01409832721559949	0.017397007007187493	2.854516067718213e-05
Xe	8.742548732751818e-05	-6.873908208374434e-05	0.002779490475782153	-0.005165949771559116	-0.006759072249533048	-0.00011920902564465018
2
158000
Ar	-0.00028806167606085676	2.728405090663559e-05	0.0031936707789873326	0.002258233552340574	0.02230615483659738	-1.922074682209424e-05
Xe	1.5300219347118383e-05	-0.0001102159193625496	0.0027787164453702807	-0.008506582281723577	-0.0010900464041016826	-2.5715752934596856e-05
2
158200
Ar	-0.0001848449039208152	0.0002208761132309844	0.003193572981632374	0.01730787414313184	0.014434237514578382	1.020493752555709e-05
Xe	-6.583635129699576e-05	-8.834022517444225e-05	0.002779085237766297	-0.006904689935152835	0.005258148065408842	7.066383368511375e-05
2
158400
Ar	2.4438658942326406e-05	0.00028760140055650193	0.003193617390454907	0.022423019287490277	-0.0017534778111097807	6.327145092180592e-06
Xe	-0.00010923637349848493	-1.54228907905775e-05	0.0027801306187466373	-0.001335881832379076	0.008573843683371064	0.00011604191357880317
2
158600
Ar	0.0002198688171296009	0.00018892284907932413	0.003193609124806987	0.014677311547336192	-0.0169796881331434	5.036187982354332e-06
Xe	-8.995847963728633e-05	6.63140531743326e-05	0.0027813636399439652	0.004984131619091648	0.006941530618971968	0.00010099376638428312
2
158800
Ar	0.0002892400964669451	-1.8691457593954974e-05	0.0031936144059503697	-0.001502397748208818	-0.022442460328522547	-1.5997662107749662e-05
Xe	-1.9199626434148644e-05	0.00011000151894385629	0.0027819764420184416	0.008448432774532695	0.001335495408397911	2.285758885728645e-05
2
159000
Ar	0.00019279228395587995	-0.0002157798526124416	0.0031935067092406094	-0.01679874332023033	-0.014947785250169373	-1.7372185097362234e-05
Xe	6.253277085196588e-05	9.053351548957833e-05	0.0027818323251795887	0.007047469077231954	-0.005030336626764452	-2.8169080185228595e-05
2
159200
Ar	-1.3967942421752569e-05	-0.0002888162924672081	0.003193423141336924	-0.022461759865398015	0.0011126361002518894	2.582953710613978e-05
Xe	0.0001084612463454069	1.9251594043578392e-05	0.0027812687993077935	0.0016552938613932928	-0.008503416610630539	-9.015675195173675e-05
2
159400
Ar	-0.0002127913109663936	-0.00019599508499102057	0.0031936697170593157	-0.015298432573688247	0.01652405347504497	1.9505333982817365e-05
Xe	9.218326361119562e-05	-6.3030922950732e-05	0.0027802482944429357	-0.004739591019734268	-0.007121602404867145	-8.614400659677797e-05
2
159600
Ar	-0.0002897418865716613	9.392627085857212e-06	0.0031936245894642113	0.0007144157705303747	0.022473662662525914	-3.9407611107708834e-05
Xe	2.295895875015017e-05	-0.00010929458808444193	0.0027797580603038784	-0.00840600365609534	-0.0016415287684107438	-2.526317200089833e-05
2
159800
Ar	-0.00019991268433644575	0.00020971129729665047	0.003193103326586411	0.01632466117181904	0.015537181020039686	-2.0656281425606885e-05
Xe	-5.9515295420544434e-05	-9.255573282155838e-05	0.0027797140566110747	-0.007258593221304643	0.004814106673477053	2.9280006781225874e-05
2
160000
Ar	5.085487522670086e-06	0.00028971186661784135	0.0031929107853354865	0.022569754722430342	-0.0003559931540593834	6.74632252202184e-06
Xe	-0.00010811027273466808	-2.2319241524909838e-05	0.002780283612030024	-0.001943904691325503	0.008484495676789952	7.323599204706762e-05
2
160200
Ar	0.00020707819927231864	0.00020334282869671001	0.003193131155626901	0.015792511708780307	-0.01605095193155591	3.0849796458019656e-05
Xe	-9.464109076462314e-05	6.0607183697414096e-05	0.0027808653954774125	0.004499311714998247	0.007271876471080689	6.217074980845446e-05
2
160400
Ar	0.0002902734667218027	-8.636504296439419e-08	0.0031934172194503577	-5.383878148521062e-06	-0.022548155234414925	3.1547330605313255e-05
Xe	-2.7001414560598297e-05	0.00010882408034522765	0.0027814732145990317	0.008339154501395097	0.0018899727390854154	5.546850619964619e-05
2
160600
Ar	0.00020702394589395688	-0.00020348503936202454	0.0031936421815727018	-0.01582061320066241	-0.016064871364191994	-1.4839629519470779e-05
Xe	5.584809352284096e-05	9.46479557432072e-05	0.002781735443455217	0.007386065011521542	-0.004566898060006909	-8.149730307023639e-06
2
160800
Ar	5.052306063348697e-06	-0.00029007079142536087	0.003193639601803987	-0.022504959774738913	-0.00035167170438904645	-1.20734105659908e-06
Xe	0.00010624386126592515	2.6216809610505235e-05	0.0027813964735242426	0.0021861694967287575	-0.008422697900080236	-4.607204960138317e-05
2
161000
Ar	-0.00019921151724118063	-0.00020998489657124566	0.003193602875780843	-0.016294788332890036	0.015545601557935771	-1.3130398093929893e-05
Xe	9.549787869423354e-05	-5.728018973537714e-05	0.0027808050331726837	-0.004212727580981227	-0.007428080116053573	-8.023689925947054e-05
2
161200
Ar	-0.0002889843476120714	-9.385829061016844e-06	0.0031934411935405135	-0.0007545588309189648	0.02254534016322019	-7.116090200756705e-06
Xe	2.99867681782979e-05	-0.00010778058443351379	0.002779776110137994	-0.008192120206293738	-0.0021475748811203396	-0.00010900654983351417
2
161400
Ar	-0.00021289271281230133	0.00019694730627763915	0.003193405296213936	0.015208186699898379	0.01660955637075713	-5.921363339725268e-06
Xe	-5.287071708744992e-05	-9.628581721864257e-05	0.0027790438339016063	-0.0075093031436500235	0.004320103683854534	-3.853308342689475e-05
2
161600
Ar	-1.4540860886451163e-05	0.0002903421051923716	0.0031934051745677395	0.022424791811042698	0.0011207611641106826	4.4582601455395065e-06
Xe	-0.00010545425535073993	-2.9637755636282462e-05	0.0027790314665908666	-0.0024720168654913405	0.008338370033422094	3.487177533616498e-05
2
161800
Ar	0.00019204194260049373	0.00021688499965485974	0.0031937530863569725	0.016796546225202758	-0.015062440398231798	5.6277111315812474e-05
Xe	-9.754705038907702e-05	5.432201951154786e-05	0.0027794777632860397	0.003960082266433523	0.007583938871921757	4.186423776227639e-05
2
162000
Ar	0.0002886069053203815	1.86700548506369e-05	0.003194068467756086	0.0015136895337056744	-0.02253524182312951	1.696816834914289e-05
Xe	-3.355273509407868e-05	0.00010722711839629649	0.002780075888400125	0.008199087409785647	0.002448365301279816	7.829229538275137e-05
2
162200
Ar	0.00021926890798458403	-0.00018992939768044278	0.003194153458904324	-0.014674802639333594	-0.01706747486538388	-3.869178638662212e-05
Xe	5.020691941871525e-05	9.849218924957436e-05	0.0027807994764459253	0.0077029480139354225	-0.0041245204307446	6.175164524848253e-05
2
162400
Ar	2.4058792942354182e-05	-0.0002896286679725065	0.0031936425894558674	-0.022396388844583514	-0.0018275271443379992	-6.076773055344107e-05
Xe	0.00010540391321370794	3.290751139001136e-05	0.0027816681734628367	0.002764619713995717	-0.008328760620357575	8.021773714490787e-05
2
162600
Ar	-0.00018468486828445113	-0.00022273097576837482	0.0031933210199785104	-0.01725818573951999	0.014528757569079573	3.7856363225535945e-06
Xe	0.00010016065826489748	-5.180022241186282e-05	0.0027818952856034523	-0.003745216097657957	-0.0077468079151446195	7.089560020228093e-06
2
162800
Ar	-0.00028788724517095105	-2.7646873111258717e-05	0.003193407476704036	-0.002306096992849651	0.022514905367790525	1.1330442028880221e-05
Xe	3.772907151592235e-05	-0.0001067164510358472	0.0027815415544814115	-0.008100770361466645	-0.002698829707718241	-7.384055746634006e-05
2
163000
Ar	-0.00022604660914768098	0.00018338418794063458	0.003193370939319234	0.014045788856209619	0.017539352855793867	-1.800277119454952e-05
Xe	-4.599704791933038e-05	-0.00010048972848241325	0.002780729303601049	-0.007826256626058046	0.003874667724404636	-7.95277992366576e-05
2
163200
Ar	-3.452217475281595e-05	0.00028904648529549823	0.003193102693525693	0.022321145280984493	0.002526700462375608	-4.9404605101016565e-05
Xe	-0.00010355686544745247	-3.655241964635737e-05	0.0027799793576183006	-0.003092006285192664	0.008265889944530898	-6.543442697201047e-05
2
163400
Ar	0.00017695151981391845	0.000228793554456589	0.003192969910062746	0.0178191790378232	-0.013955104319669471	3.238411366387206e-05
Xe	-0.00010181766781730649	4.854840290577018e-05	0.0027793256587732643	0.003411672437535358	0.007902616216563059	-4.102645298997786e-05
2
163600
Ar	0.0002870417218210661	3.7207472305151e-05	0.003193314960899601	0.0030524284554111682	-0.0224281608609604	2.4806756031729215e-05
Xe	-4.185266016459949e-05	0.00010596977469175233	0.0027792986652343476	0.007954338071624652	0.002988003483134079	2.1202641420625857e-05
2
163800
Ar	0.00023208715961333843	-0.00017576439676727585	0.003193170228804806	-0.013492429029835676	-0.017981865324998802	-3.789712469728256e-05
Xe	4.1851819737382076e-05	0.00010214548723777476	0.002779931937346737	0.007933371271234215	-0.003693011814801396	0.00011438836816433649
2
164000
Ar	4.3652800804576576e-05	-0.00028746563222020825	0.00319247359103918	-0.02225345649768487	-0.003249516582276095	-7.057180482969219e-05
Xe	0.0001012151308771501	3.977845776540082e-05	0.0027812674925108286	0.0033426990123650237	-0.008183491723506126	0.00013908185487720482
2
164200
Ar	-0.0001697974019580945	-0.00023451468443069713	0.003192328417978593	-0.018270008219709886	0.013303981468660025	2.972399157211765e-05
Xe	0.0001025494482803776	-4.5193129866299097e-05	0.002782300989132011	-0.0031063356384707797	-0.007952532483943371	6.250594565322664e-05
2
164400
Ar	-0.00028618578238125	-4.725789419687743e-05	0.003193047764955288	-0.003821730416355639	0.022241200130938665	0.00011409624689022602
Xe	4.5189791276567676e-05	-0.00010400218017311849	0.0027823854046071534	-0.007775684563839155	-0.0032148390273320218	-2.986872209717099e-05
2
164600
Ar	-0.00023858487881593413	0.00016678218229213365	0.0031942797149591435	0.012861251500767558	0.018406985740637517	0.00010261369271244203
Xe	-3.797746813588469e-05	-0.00010324936486206103	0.002781815778437944	-0.00800707236496454	0.003323899926761874	-7.835450883716915e-05
2
164800
Ar	-5.3999492731332924e-05	0.0002850023167041045	0.003194519546463028	0.02216343903633412	0.004032035230630817	-2.4477542008169032e-05
Xe	-9.927916816969488e-05	-4.352273203010751e-05	0.002780948639525347	-0.0036420615837799014	0.008026535529870085	-0.00011342118483331511
2
165000
Ar	0.00016131623332233058	0.00023956985469475407	0.0031942851342488835	0.018710816789323202	-0.012675388115203122	-2.3334793031297345e-05
Xe	-0.00010343790673956438	4.14544926044146e-05	0.0027795478846285152	0.0028446882020672303	0.008110618954010683	-0.00015894341478573095
2
165200
Ar	0.00028394248224509485	5.6444053339167674e-05	0.003193821635286488	0.004543110646107794	-0.02207790678448183	-7.478469849556779e-05
Xe	-4.783885829780689e-05	0.00010293795999906446	0.00277852161051105	0.0076964845895739434	0.0035471968004575014	-2.5007384089253607e-05
2
165400
Ar	0.00024321721506486097	-0.00015896100878324637	0.0031930308382234008	-0.012268305279892576	-0.01880665039575956	-8.41175526975296e-05
Xe	3.573512811651051e-05	0.00010541279518918171	0.0027790299737594612	0.008154833072005489	-0.0030734663766422985	0.00012037223104178646
2
165600
Ar	6.265978291101217e-05	-0.0002830583410627494	0.003192213136348175	-0.02200193907218251	-0.004728814401724641	-6.989746874161333e-05
Xe	9.8947943606344e-05	4.750660149488807e-05	0.002780526045070601	0.0038494016394556296	-0.007903392002322086	0.00015502783700545064
2
165800
Ar	-0.00015386024060484827	-0.00024443777035344804	0.0031920850021132322	-0.019087990141846294	0.012040272680227152	6.532747031946011e-05
Xe	0.00010521720816514284	-3.72228754691396e-05	0.0027821138638250234	-0.0026306115223645207	-0.00817536877097381	0.0001310928240701085
2
166000
Ar	-0.0002822805889898641	-6.563945602338604e-05	0.003193091082515783	-0.005266635130225978	0.021884267698759622	0.00013245279351536694
Xe	5.14906204258726e-05	-0.00010020419095821051	0.002782765735127061	-0.00755796711337681	-0.0037772191648984205	9.563159986738125e-06
2
166200
Ar	-0.00024848803108860386	0.00015062116199120954	0.0031941412890824556	0.011668780144992707	0.019195993097745973	4.8196522576904496e-05
Xe	-3.119984612854287e-05	-0.00010544684766977052	0.0027823887865919767	-0.008171810004243727	0.0027874579717547332	-8.685476194403545e-05
2
166400
Ar	-7.187096989855433e-05	0.00028076686913525883	0.0031942556536084204	0.02185732403172768	0.005496230785779945	-1.0089130846372726e-05
Xe	-9.585792272801149e-05	-4.992049462055821e-05	0.0027810764066541647	-0.0040986535278110334	0.007748259364334694	-0.0001430922072010743
2
166600
Ar	0.00014545802634150892	0.0002495689613041385	0.003194071769514119	0.019408057437764626	-0.011396389468163898	-1.1943298156686387e-05
Xe	-0.00010532532814317442	3.43648009033678e-05	0.0027794612476212985	0.0023032941830185326	0.008243324748845865	-0.00017972154540815718
2
166800
Ar	0.0002789916243771296	7.483842135401517e-05	0.0031938305437118624	0.00591487450228616	-0.02174893010943656	-3.764617087108356e-05
Xe	-5.424925177071665e-05	9.882399435363319e-05	0.002778012178788958	0.007414684734546768	0.004000301433733884	-0.00010799365801699101
2
167000
Ar	0.00025189067332662563	-0.00014285074392661533	0.003193265006001326	-0.011039817563545128	-0.019558132113983277	-9.160706276786937e-05
Xe	2.8556292667854553e-05	0.0001065496403045367	0.0027777058729577782	0.00828672830574633	-0.0025216466342397096	6.920193182002162e-05
2
167200
Ar	7.987406618948314e-05	-0.00027812184412590496	0.003192474632699594	-0.021603028013001086	-0.006137825131162734	-5.882135145044826e-05
Xe	9.516074259912988e-05	5.300576678699979e-05	0.00277928795951284	0.004360087236581693	-0.007626546446979052	0.0002197114447540383
2
167400
Ar	-0.00013786601398675788	-0.00025382086773561424	0.0031925735321313453	-0.019720798284508113	0.010726116956289208	7.950565044671913e-05
Xe	0.00010733391993419869	-3.095240779794906e-05	0.0027813197048140153	-0.002035615524558223	-0.008318384091912778	0.0001687026467619907
2
167600
Ar	-0.00027673658436594206	-8.417915057799114e-05	0.0031938721200606424	-0.00662133956716426	0.021481499507630016	0.00012411421449885288
Xe	5.8261499638086584e-05	-9.69292485083763e-05	0.002782580497105985	-0.007272592078841342	-0.004210583098005453	8.549546827158657e-05
2
167800
Ar	-0.00025720426281926204	0.00013380741030393493	0.0031945992144069304	0.010349994029839448	0.019892244051539346	3.997243825043616e-06
Xe	-2.414455754138915e-05	-0.00010732937383470099	0.0027829506590178596	-0.008369531818586616	0.002242567011416204	-3.7738669928549532e-06
2
168000
Ar	-9.008219232626326e-05	0.00027492435463743103	0.003194378864377924	0.021377435437123792	0.0068966496442933985	-2.5487757954443843e-05
Xe	-9.238899952763149e-05	-5.627074361931785e-05	0.002782268309064004	-0.004613688174262044	0.0074256277694880425	-0.0001362704905633462
2
168200
Ar	0.00012866411388859334	0.0002583402445993016	0.003193983898594326	0.02015741771721938	-0.010058001811891893	-3.297537452854389e-05
Xe	-0.00010748178701568146	2.710422689566452e-05	0.00278037103563347	0.0017446225917948706	0.008395393923179709	-0.0002247208637078777
2
168400
Ar	0.0002734513680243751	9.332179376268864e-05	0.003193725016062808	0.007346034851150335	-0.02125244563430422	-3.957530763553564e-05
Xe	-6.0642793309671474e-05	9.479951443795712e-05	0.0027782548494803203	0.007154295646198575	0.004471781528363229	-0.00016639967144245154
2
168600
Ar	0.0002611521554777757	-0.00012495729239646	0.0031928556141012764	-0.009685279077535842	-0.02019759861869763	-0.0001166855494088132
Xe	2.1422339082000236e-05	0.00010796376915105682	0.002777498487227256	0.008423576045419058	-0.0019623019717271628	2.596205345938013e-05
2
168800
Ar	9.877137631430408e-05	-0.0002712975409169966	0.003191959309510814	-0.021146483884625217	-0.00761445315149563	-6.539923027682432e-05
Xe	9.146825375733884e-05	5.898429796122186e-05	0.0027786659434956133	0.004862225231259417	-0.0073281733015250665	0.00017985380922467525
2
169000
Ar	-0.00012044711007592104	-0.0002621016184583737	0.0031919603709687655	-0.02045994879436425	0.009360696388388486	7.709895364042288e-05
Xe	0.00010905587047640322	-2.4008652393543005e-05	0.0027806245224987107	-0.0015316525082495645	-0.00843865039814396	0.00021663053841346514
2
169200
Ar	-0.00027074761509957604	-0.00010225250117985646	0.0031931996310095422	-0.008066400014308717	0.02097684066407595	0.00013821912676187582
Xe	6.405988842046774e-05	-9.334588685963802e-05	0.0027824076569931263	-0.007001591935311981	-0.004739703321352454	0.0001512974064203163
2
169400
Ar	-0.00026583106753250564	0.00011650004448249566	0.00319465401092436	0.008993864003037576	0.02055514870345211	0.00012555551295841938
Xe	-1.747896625716034e-05	-0.0001093319888313286	0.0027836322835263186	-0.008485898810208375	0.0016988180044177942	7.097413454072962e-05
2
169600
Ar	-0.00010860706712126503	0.0002683408642929495	0.0031951275151778265	0.0208352739329966	0.008295265366455154	-1.7336073533129697e-05
Xe	-8.917182861542414e-05	-6.27820783574586e-05	0.002783446700371538	-0.005096796518925564	0.007127590291355748	-0.0001197929063702114
2
169800
Ar	0.00011049632709607788	0.00026632254131467124	0.0031947946176189715	0.020763966072817948	-0.008686063979277143	-4.141945213238721e-05
Xe	-0.00010959134959573806	1.9130439441902332e-05	0.0027815550188947592	0.0011965463020752424	0.008438643830500674	-0.000233943855481095
2
170000
Ar	0.00026596056321096466	0.00011160442222418726	0.003194059749015991	0.00874580510129527	-0.02068377879443994	-0.00013731759764112856
Xe	-6.71194395721584e-05	8.98703931844593e-05	0.00277907316270586	0.006846572242659194	0.00498109230112392	-0.000250345364639434
2
170200
Ar	0.0002685124763949892	-0.00010711434345032098	0.003192464773556517	-0.008256302373261656	-0.020837902449577245	-0.0001743973100328744
Xe	1.3996031160376696e-05	0.00010907727128308204	0.002777324783611628	0.008537877429805434	-0.0013183084841297975	-8.211348837740023e-05
2
170400
Ar	0.00011694184454142913	-0.00026418711850682066	0.0031909797529401217	-0.02050125408255751	-0.008984322831143064	-0.00011491515506027025
Xe	8.690885491929961e-05	6.581586191641997e-05	0.002777514342090463	0.005310582756014434	-0.006899241613874348	9.384267595972176e-05
2
170600
Ar	-0.00010162369439501482	-0.0002693816428397785	0.0031906742817749438	-0.021009063092902635	0.00796921343682733	5.860148527550439e-05
Xe	0.00011006652691341828	-1.529537367118064e-05	0.0027788124901312983	-0.0009258599582825191	-0.008494785150630025	0.0001438261400048094
2
170800
Ar	-0.0002621863155212975	-0.0001201348761334769	0.003192128752015234	-0.009459260567598542	0.020374513769548578	0.0002160626426781905
Xe	7.013266138795489e-05	-8.74459247230596e-05	0.0027801928863781847	-0.006647895525994079	-0.005208779015850046	0.00014147227407420007
2
171000
Ar	-0.0002724631082356143	9.842560965525664e-05	0.0031942548566603534	0.007523198337885888	0.02109898597309596	0.00017513948132939457
Xe	-9.999327644165019e-06	-0.00010936996036344292	0.0027815717298064297	-0.008571387835806327	0.0010651005976812817	0.00011572522202908839
2
171200
Ar	-0.00012624533613110289	0.00026071119199040096	0.0031954302448695326	0.020224500780001358	0.00970312836370589	4.799320513406117e-05
Xe	-8.440550537717074e-05	-6.851875665955081e-05	0.0027823421278555887	-0.005548944067866392	0.006683158516613246	4.415735628119449e-05
2
171400
Ar	9.254856571969892e-05	0.0002734046991363761	0.00319542099893876	0.02131580032062278	-0.007288818719893451	-3.566147001248877e-05
Xe	-0.00011043599595033621	1.1565689550297013e-05	0.0027823383443969707	0.0006011278934803328	0.008508976616260667	-6.0389323967861856e-05
2
171600
Ar	0.00025836896576942936	0.00012918471880257341	0.0031945562517257126	0.010167051700606904	-0.020088535782131184	-0.0001399062838407884
Xe	-7.330887794941755e-05	8.524235161678931e-05	0.002781405702469021	0.006462290083368773	0.005459360519162726	-9.362631080859555e-05
2
171800
Ar	0.00027587054713435	-8.92762443709644e-05	0.003192769939066108	-0.006853491888358816	-0.02136432183067783	-0.00019617791808904816
Xe	6.195880953998966e-06	0.0001100094354017994	0.0027804559203651116	0.008612155207381983	-0.0007566150828603074	-7.060712007775735e-05
2
172000
Ar	0.00013495191514169668	-0.0002562221310325042	0.0031910919434203038	-0.019908598244613402	-0.010346268497530316	-9.344492497046182e-05
Xe	8.192494442605225e-05	7.180988271406955e-05	0.002779839129599003	0.005761926821685903	-0.006502652243411486	-4.2997252393813025e-05
2
172200
Ar	-8.351647973664611e-05	-0.00027598186404625014	0.00319105984087033	-0.021593532924806914	0.00658025672696226	7.696755219734419e-05
Xe	0.00011053077815084895	-7.25713013020198e-06	0.002779621246022156	-0.0003343851452236154	-0.008483150927438598	1.3912416214931783e-05
2
172400
Ar	-0.00025446621963106546	-0.00013746801630495537	0.0031925474863137254	-0.01084459696554932	0.019710607344488255	0.00019332248773401195
Xe	7.578793945355875e-05	-8.15931758118335e-05	0.0027797989440144764	-0.0062361132481346315	-0.005627661399232775	3.7080288250756107e-05
2
172600
Ar	-0.0002791502666878746	7.958206300698934e-05	0.0031943121272102596	0.006152739690541043	0.021472031890005024	0.00012488660385018792
Xe	-2.097739541025696e-06	-0.00010893914610890806	0.0027805121619384685	-0.00857113852946873	0.00043560934731498287	9.438934951919444e-05
2
172800
Ar	-0.00014353171306046093	0.00025027897145780194	0.0031950936770888706	0.01959009036705367	0.01095617503903539	2.2803275974499006e-05
Xe	-7.893448147244212e-05	-7.356615830067917e-05	0.0027814473749124416	-0.0059871059048851715	0.006270617422581088	7.291909711658269e-05
2
173000
Ar	7.429716209904747e-05	0.0002772609533192056	0.0031949121310256645	0.021767884694578465	-0.005820958661940452	-7.017609799966944e-05
Xe	-0.0001099702934839767	4.31031618029615e-06	0.002781517039869692	3.9411482003125075e-05	0.008514278681094525	-4.5252993146671096e-05
2
173200
Ar	0.0002492619649419093	0.00014518508673514537	0.003193922792253106	0.01144633082728515	-0.01922824732940544	-0.000132309810675152
Xe	-7.774083597807569e-05	8.000748969716267e-05	0.002780774316023932	0.006044157380979826	0.005844114546521274	-6.101016524364318e-05
2
173400
Ar	0.00028110812972395794	-6.958428834207174e-05	0.0031925339721017116	-0.005386716704266601	-0.021557147832746648	-0.00013605764802027202
Xe	-9.590464108348065e-07	0.00010982296416441264	0.002780122048562821	0.008521325583752067	-0.00020432752122476165	-5.85367739648164e-05
2
173600
Ar	0.00015192855051983774	-0.00024435207963126055	0.0031917569505854845	-0.019138318905939655	-0.01163116064682366	-4.707996067787188e-06
Xe	7.606888642003472e-05	7.656969763096862e-05	0.0027794817091443963	0.006097836531940215	-0.006089441478452357	-4.334211258151074e-05
2
173800
Ar	-6.427138044870181e-05	-0.000279278320032581	0.003192264818446194	-0.021927862597411182	0.005017687129946953	0.00011908668221920351
Xe	0.00010916028491283869	-7.750224959437615e-08	0.0027791759564707278	0.0001832093132477021	-0.008468221016116387	-3.720536086959559e-05
2
174000
Ar	-0.000243596709509957	-0.00015400866735314344	0.0031937068382995285	-0.012105373503148532	0.01877376441290607	0.00014689968474397992
Xe	7.924530590538558e-05	-7.650636526585355e-05	0.0027790072777058353	-0.005857254878243756	-0.006064632440875613	2.688418517160322e-05
2
174200
Ar	-0.00028271972201724115	5.984582280140629e-05	0.0031946575423209157	0.004678972649310311	0.02180680861380486	3.420978382120442e-05
Xe	3.3680398238917943e-06	-0.00010933673548990433	0.002779658799654297	-0.008540197378812802	-0.00016148768406170678	8.382129150327192e-05
2
174400
Ar	-0.00015935061058487525	0.00023915659024539265	0.0031944513940438666	0.01872910344418345	0.012260765467986424	-3.0582388389786254e-05
Xe	-7.475510780098679e-05	-7.947968930233173e-05	0.002780386840162262	-0.0062826303763749035	0.0058355066995865726	6.685017568392475e-05
2
174600
Ar	5.5158040165383534e-05	0.0002815277616704937	0.003194064438260616	0.022010031852289513	-0.004218696534915331	-3.42798880827819e-05
Xe	-0.00010999400607978586	-3.915690184103995e-06	0.002781193267517449	-0.0004117546773005868	0.008484152431520701	8.842452070286736e-05
2
174800
Ar	0.00023813079947438353	0.0001627415035464184	0.003193830073298184	0.01271026253623776	-0.01833036562645861	-4.257351213814959e-05
Xe	-8.207223105031954e-05	7.357903431178366e-05	0.0027815964896823592	0.005697849649164679	0.006254908079974456	-1.993886843847425e-05
2
175000
Ar	0.00028456199042924964	-4.956778467449104e-05	0.0031934136318962822	-0.0038906476947427053	-0.021945289359355667	-2.246131673106259e-05
Xe	-7.17327517972823e-06	0.00010890270160319848	0.002781122389782824	0.008505611355559911	0.000457116293926597	-6.229929529816542e-05
2
175200
Ar	0.0001679130019303523	-0.00023326881935846477	0.003193311551257086	-0.01827814508581642	-0.012953112519343	2.1971567662330445e-05
Xe	7.188141875711024e-05	8.191959084868455e-05	0.0027803323551200848	0.0064780170221243666	-0.00558223875123903	-0.0001100069373740261
2
175400
Ar	-4.520939295413034e-05	-0.000283562250205476	0.0031935228111562583	-0.022165244903534095	0.003422608677612533	2.619513888489168e-05
Xe	0.00010976690174699467	7.890888624719225e-06	0.002779299566700532	0.0006922803823467561	-0.008477646992783248	-6.248094987056736e-05
2
175600
Ar	-0.00023222954524931754	-0.00017129022637781634	0.0031938300857573994	-0.01334587831833119	0.017882939698553677	2.295650202806849e-05
Xe	8.46819263317972e-05	-7.088079014565085e-05	0.002779018133622389	-0.005468813608239707	-0.006457038998866623	2.4889218163817796e-05
2
175800
Ar	-0.0002861176007278282	3.91871334273047e-05	0.0031936814471619527	0.0031145106808832157	0.022054343691069227	-4.642179585857653e-05
Xe	1.1023310503018533e-05	-0.00010854018260312843	0.002779549621790362	-0.008525741580683024	-0.0006957551065000013	8.419826975411754e-05
2
176000
Ar	-0.00017592714336038567	0.00022705098509814056	0.003193363325011125	0.017798459527795123	0.013624187375520267	-2.7591229357630863e-05
Xe	-6.91168839332177e-05	-8.388754946874589e-05	0.002780549464784541	-0.006691346921205242	0.005369659168445515	8.969188952450888e-05
2
176200
Ar	3.5196842707168824e-05	0.00028455154263097387	0.0031935017960928627	0.022272747926788437	-0.002675885318984795	2.5481541893307423e-05
Xe	-0.0001095678615080454	-1.1311440701555819e-05	0.0027811844733696776	-0.0010006869367738607	0.00841221434665448	2.206941833990247e-05
2
176400
Ar	0.00022606145269107015	0.00017890777459519125	0.003193838725296679	0.013945129382139012	-0.017396527234952067	3.482481893299871e-05
Xe	-8.71273154533835e-05	6.740066311629416e-05	0.0027812385788621727	0.005252442716270197	0.006533646255835556	-2.740578803795252e-05
2
176600
Ar	0.00028730948568314206	-2.92538070902294e-05	0.0031939161708376814	-0.00234793447634582	-0.022115205408570354	-1.0713130833737316e-05
Xe	-1.4754887839089705e-05	0.00010682509771336155	0.0027808838820430246	0.008500021287093911	0.0009609252565574916	-4.719697097216075e-05
2
176800
Ar	0.00018383312640341099	-0.000220499855287795	0.0031939599774244492	-0.01729778465545042	-0.01419349033717068	1.1826291578578136e-05
Xe	6.612787102363288e-05	8.466710247183222e-05	0.0027802628063683206	0.006861525477479625	-0.005170196803111483	-7.032738027427345e-05
2
177000
Ar	-2.488889892374034e-05	-0.0002854834192617636	0.00319403588322934	-0.022336582461964936	0.001870478982883354	8.997741346767071e-06
Xe	0.00010913438126066818	1.371936664120678e-05	0.0027796321042959085	0.0012849755010147929	-0.008291257089929468	-5.8978972450769266e-05
2
177200
Ar	-0.0002191942566888971	-0.00018677161745052023	0.003193949114912527	-0.014559770833708236	0.016890047587319018	-5.9360851091795285e-06
Xe	8.9402378097272e-05	-6.495314799726619e-05	0.002779377679087629	-0.005046217875433899	-0.006677663503941208	1.2963067438549698e-05
2
177400
Ar	-0.00028768650897780375	1.9290041887330593e-05	0.003193709161725204	0.0015540596804882597	0.022223881191597628	-3.7167893101942714e-05
Xe	1.8343993738425258e-05	-0.00010659975293859503	0.0027798480262600017	-0.008466194662032592	-0.0012311442485110503	8.078516068225942e-05
2
177600
Ar	-0.00019126110329223262	0.0002142446721302067	0.0031933101491718715	0.01674038850779141	0.014775449036181547	-8.381996378528929e-06
Xe	-6.328997856808545e-05	-8.715881462753965e-05	0.002780612244113075	-0.007038292926450339	0.004897238513109318	6.34937551149364e-05
2
177800
Ar	1.462509545912193e-05	0.0002861295903588669	0.0031936211461003894	0.022352727482935514	-0.0011191115423116508	7.128380664933853e-05
Xe	-0.00010857426816227256	-1.812045897993183e-05	0.002780910582748145	-0.001556071490762206	0.008215036992398297	5.602806993108193e-06
2
178000
Ar	0.00021228440647127512	0.00019415261889334172	0.0031943813388410126	0.01516253380933319	-0.01635627442014804	5.8780488719655094e-05
Xe	-9.15793572086309e-05	6.116477338963517e-05	0.0027805790437331495	0.0047756604631160725	0.006849003525992666	-4.307142987692898e-05
2
178200
Ar	0.00028848074364637547	-9.083533783340909e-06	0.003194799127517523	-0.0007393483045002754	-0.02219720088716066	2.21743682781104e-05
Xe	-2.199963838836343e-05	0.00010548407343175587	0.002780049855184422	0.00843442003301501	0.0015622414331958607	-5.041872888505551e-05
2
178400
Ar	0.00019915499102627843	-0.0002070751395370426	0.00319465866411658	-0.016216851725402655	-0.0153511596701336	-3.617545467321185e-05
Xe	6.063034301329997e-05	8.949545386853185e-05	0.0027796881944886216	0.0072566881156444435	-0.004629837672915897	-3.0467432865894924e-05
2
178600
Ar	-4.224957537050168e-06	-0.0002864813139828042	0.0031943550627662647	-0.022396335206375222	0.00026959187514942137	-3.678371485291558e-06
Xe	0.00010844027915620388	2.21902866488481e-05	0.0027795306935021534	0.001827208510964577	-0.008141220651067491	-1.4592595742123888e-05
2
178800
Ar	-0.00020517629001823992	-0.00020180118236085842	0.003194153732309204	-0.01572693624820084	0.01582427795476412	-4.220430774075199e-05
Xe	9.375424240256372e-05	-5.754003320066415e-05	0.0027793668544609574	-0.004605261502056391	-0.006989275182777605	-1.7169423124242943e-05
2
179000
Ar	-0.0002883564899951303	-1.1783611061878486e-06	0.0031936469375778774	-7.510550534814185e-05	0.02228577995957929	-4.882906898371335e-05
Xe	2.5244248810897555e-05	-0.0001040175273040953	0.0027796629515953646	-0.008381819893434455	-0.0018422190904619415	3.6290835208654875e-05
2
179200
Ar	-0.00020633541353229105	0.0002001598828166892	0.0031934769409198154	0.015648008800684565	0.015940169453758663	1.6679005034656232e-05
Xe	-5.7461889573275046e-05	-9.064386519424713e-05	0.002779929403592333	-0.007328070870245242	0.004358677449303149	1.0075692554098733e-05
2
179400
Ar	-6.10754998596692e-06	0.0002866172852496498	0.0031940326375865247	0.022357811178840083	0.0004541538774414815	8.925246304028139e-05
Xe	-0.00010711731644074119	-2.5446851581916474e-05	0.0027798900375228335	-0.0020994531874553232	0.008014197683305122	-6.340199467975182e-06
2
179600
Ar	0.00019769180227250516	0.00020863510334866444	0.0031948096566085846	0.016319968858958433	-0.015285469728671999	3.6162620305659936e-05
Xe	-9.547886278358234e-05	5.42646375125472e-05	0.0027800240235714402	0.004323700462971317	0.007099207400848444	3.1770943428370435e-05
2
179800
Ar	0.0002882852841843116	1.0947677380945364e-05	0.003194699469306763	0.0008556402436900421	-0.022263448328103196	-5.1313810245677906e-05
Xe	-2.900926434180686e-05	0.0001030937299043795	0.0027802438554803033	0.008294427169458475	0.0021599652703682528	3.2432352297839376e-05
2
180000
Ar	0.00021329521698318794	-0.00019304802091798024	0.003194272088548123	-0.01505954005278509	-0.016475362520640413	-2.743600493322028e-05
Xe	5.4176507131091845e-05	9.320218958120946e-05	0.002780532591843978	0.007487430144563259	-0.00407078436069433	2.155813539416216e-05
2
180200
Ar	1.6066177974654533e-05	-0.0002863326594264676	0.003194025788694234	-0.022389537419722435	-0.0012526999327419695	-2.5497650504437158e-05
Xe	0.00010623574658473738	2.9978208083789243e-05	0.0027805798910421307	0.0024014947116107635	-0.007948709232413035	-6.39410210977387e-06
2
180400
Ar	-0.00019082636344614366	-0.00021570993013739147	0.003193575653042687	-0.01687704161203732	0.014681199773528112	-7.127944959065655e-05
Xe	9.757917105444239e-05	-5.042980408804011e-05	0.002780496516533178	-0.0040588034987243836	-0.0073355221864143715	-4.916748953594482e-06
2
180600
Ar	-0.0002882735256550855	-2.148437348737514e-05	0.0031929667957146116	-0.0016092272523448047	0.022171755044393955	-7.178027767169634e-05
Xe	3.295770913733681e-05	-0.00010204305633387723	0.002780394905146934	-0.008216256443811323	-0.002466556598963869	-1.930880828612851e-05
2
180800
Ar	-0.0002203120725336509	0.00018480633176990428	0.0031925869235265793	0.014519720449260271	0.017009919669303604	2.9708616910647916e-05
Xe	-5.0408218662139206e-05	-9.504236329822775e-05	0.00278001583669297	-0.0076284263872627035	0.0037980860850096213	-5.861409126430158e-05
2
181000
Ar	-2.6041841242795707e-05	0.0002852067128386457	0.003193321339293926	0.022360619132644897	0.0020702138367187494	0.00011491950930354746
Xe	-0.00010463505683559674	-3.350903311722436e-05	0.002779229801765439	-0.0026748049149802806	0.007911248012163077	-9.946787346067734e-05
2
181200
Ar	0.00018307129436856794	0.00022200564937178188	0.0031944358047178868	0.01734940743424644	-0.014063638357982609	9.974617443780947e-05
Xe	-9.869026823518933e-05	4.731761941199543e-05	0.0027784069203052684	0.003795114849482869	0.007455243265530175	-4.339933482304701e-05
2
181400
Ar	0.000286801005108042	3.1386768556574773e-05	0.003195073600053124	0.002338440121218095	-0.02212231864475422	7.12686697702091e-06
Xe	-3.605661361807483e-05	0.0001010444843905862	0.0027784920755116213	0.008094896883812265	0.002728292010552232	6.840798886507874e-05
2
181600
Ar	0.00022590553289848216	-0.00017693199935691527	0.0031947728899724085	-0.013907364820172028	-0.01745750171597259	-4.931911225374948e-05
Xe	4.7370880520967244e-05	9.669289730631107e-05	0.002779400929238762	0.007721784917016964	-0.0035748741610656352	0.00010483205937266353
2
181800
Ar	3.5534746795547015e-05	-0.0002836479829944483	0.0031942481706507615	-0.022231261388113936	-0.0028168768766045926	-3.123062406554288e-05
Xe	0.00010345278712330928	3.6601949963505195e-05	0.0027802233706223896	0.0029318222384355536	-0.007822624354577402	5.641515840132452e-05
2
182000
Ar	-0.00017547248238000676	-0.0002275214918654639	0.0031938689027588333	-0.01783350370449401	0.013469931242935254	-3.7139009485164496e-05
Xe	0.00010019239075368573	-4.4637644208668994e-05	0.002780454229743403	-0.0035388838472162625	-0.00760753430496426	-4.418591829967895e-06
2
182200
Ar	-0.0002859149022376973	-4.0803694651126804e-05	0.003193658671577557	-0.003137633103796264	0.021963301777445973	-3.143757683371677e-05
Xe	3.9432862719001474e-05	-0.00010058845364742481	0.0027803433551475856	-0.007989830251187114	-0.0029893673090867065	-2.7717311571082962e-05
2
182400
Ar	-0.0002322444330936837	0.00016900916426396646	0.003193761860715502	0.013349954302507076	0.017896641064181273	3.313724508160723e-05
Xe	-4.395593949501351e-05	-9.873610789308718e-05	0.0027798083861458587	-0.0078804953299464	0.003348217537168906	-6.785854003915699e-05
2
182600
Ar	-4.521698017373523e-05	0.0002821170779109079	0.003194231121692113	0.022153088807685888	0.003585686117917954	5.3268009634941654e-05
Xe	-0.00010249698519348672	-4.027087061127672e-05	0.002778687966915493	-0.0032292464416518044	0.007764495533522226	-0.0001506090997173757
2
182800
Ar	0.00016759004529165523	0.0002334937212517237	0.0031945638924387298	0.018248183842445156	-0.012815375268167103	1.3947784234554568e-05
Xe	-0.00010211012402416578	4.142796925116968e-05	0.002777739658791923	0.0033060049498802513	0.007764645066290577	-2.832380042030589e-05
2
183000
Ar	0.00028409207120549745	5.0692065540279294e-05	0.003194325619845594	0.003877090647843851	-0.021882524085372574	-8.044766056513603e-05
Xe	-4.2597779877895545e-05	9.968199130658964e-05	0.0027781761874091817	0.00798745683938176	0.0032740604978063817	0.00012424786228203838
2
183200
Ar	0.00023753068339175804	-0.0001613562874143148	0.0031937726167574104	-0.012712531174955232	-0.018368154222423133	-3.993174643359586e-05
Xe	4.183239199378304e-05	0.00010079902253379778	0.0027796267245275095	0.008022866564651641	-0.0030815566202058195	0.00015195461129381837
2
183400
Ar	5.487921612589757e-05	-0.0002809909623853561	0.0031935900470618584	-0.02197919439364089	-0.004325619255542001	8.97907680096028e-06
Xe	0.00010209932076693022	4.4411527879650824e-05	0.0027812046174685166	0.0034380991983566944	-0.007635267489766711	0.00011019934250663344
2
183600
Ar	-0.00015929533480301672	-0.00023933185020536695	0.003193825091719785	-0.018693667294465525	0.012245858867807661	-5.32604225770233e-06
Xe	0.00010377048780950182	-3.699339575171296e-05	0.002782003801443525	-0.003098057277196633	-0.007817222005437694	3.956339253534663e-05
2
183800
Ar	-0.0002822951264472058	-6.008054271860497e-05	0.0031935110498761197	-0.004668205394874765	0.021794246453006726	-3.9363696103819723e-05
Xe	4.6382026495347424e-05	-9.710069939195178e-05	0.0027817590144552985	-0.007815287656328742	-0.0035937561300107526	-7.582279440505024e-05
2
184000
Ar	-0.00024370559187637087	0.00015354663203339595	0.0031932265805224348	0.011994654271047673	0.018773017480104705	-5.061076473005555e-06
Xe	-3.7454462320231324e-05	-0.00010176889393650924	0.0027807623415514898	-0.008110204380264009	0.0027016378135199465	-0.0001386717122965418
2
184200
Ar	-6.545478220047499e-05	0.00027901654039804406	0.003193557887727737	0.021833489459485968	0.005032970250634765	5.6350280924359615e-05
Xe	-9.981605337714367e-05	-4.8244515767623666e-05	0.0027791825010935263	-0.003747250898136061	0.007481592209395424	-0.00015236608197985067
2
184400
Ar	0.0001503409497571689	0.0002441899421609785	0.003194130578271277	0.01912855164229103	-0.011617439058559598	2.2747581101372768e-05
Xe	-0.00010496829057943373	3.341883003901218e-05	0.00277813907236708	0.002777652459690194	0.008011418005433927	-4.1256104746569606e-05
2
184600
Ar	0.0002794879803153839	6.954228771177959e-05	0.0031941566313287632	0.005409671513057503	-0.02153485028583635	-3.0220320980235845e-05
Xe	-4.9825458080362614e-05	9.59984543138676e-05	0.0027782358537237263	0.007695941390568897	0.0038556737641587285	8.514144192597188e-05
2
184800
Ar	0.00024785234901974085	-0.00014468125478794814	0.00319358212616632	-0.011378341288877925	-0.01914846180394342	-7.83493674779779e-05
Xe	3.378579750861197e-05	0.00010312033116695326	0.0027792918561134225	0.008182750116155463	-0.0024951387383225	0.00012373924360359757
2
185000
Ar	7.395081623520541e-05	-0.0002762490065357674	0.0031931785276743474	-0.02161603804797596	-0.0058380445475386495	1.4053558539592004e-06
Xe	9.772701459847493e-05	5.102617800718708e-05	0.0027802833504253143	0.003984129443524411	-0.007387644905764297	8.354061494858079e-05
2
185200
Ar	-0.00014239061438503438	-0.00024966362579964736	0.0031933283495814897	-0.019456328682505856	0.010880731886376628	1.0444901421375344e-05
Xe	0.00010558979271551059	-3.034407136923579e-05	0.002780708217929689	-0.002488301735866174	-0.008040307437578506	1.0796117913854853e-05
2
185400
Ar	-0.00027707501101336914	-7.982342105778025e-05	0.003193541136425593	-0.006090111920107387	0.021375657183535134	4.167199819487863e-05
Xe	5.2884680858959135e-05	-9.402003970576241e-05	0.0027808759708025923	-0.007512862378832931	-0.004065054437148364	-4.51067814975532e-06
2
185600
Ar	-0.00025253511046958576	0.0001358200466354455	0.0031939348067934067	0.010741776660291195	0.01958392939729806	5.7002159400103686e-05
Xe	-3.006688596653391e-05	-0.00010389416696007598	0.0027803060315809125	-0.008241088706321311	0.0022140242332473856	-0.00012224189339978976
2
185800
Ar	-8.308173903671228e-05	0.00027357229734942804	0.0031943770373656435	0.021404139788450176	0.006579363247583975	3.230229062339342e-05
Xe	-9.573823368149115e-05	-5.401025521934496e-05	0.002778929008827167	-0.004210952936901607	0.007269219451589584	-0.00012743566753843977
2
186000
Ar	0.0001338540031856947	0.00025441262311628343	0.0031944131486901445	0.01978951931593398	-0.010224636240653617	-2.8312689184944993e-05
Xe	-0.00010612757541142201	2.7025077932890562e-05	0.002778090559464047	0.00226006582755641	0.008138937631257179	-3.504753115646893e-05
2
186200
Ar	0.0002737753297547837	8.894066004643331e-05	0.0031941685290232183	0.006781117761379582	-0.021157028182400138	-2.2384881238280645e-06
Xe	-5.4929219554553346e-05	9.272126583656345e-05	0.002778301744435918	0.007462844200720631	0.004336586540168466	7.239368422834332e-05
2
186400
Ar	0.0002563673510617702	-0.00012764293924595783	0.003194086599242055	-0.010073472471743557	-0.019964014194509716	3.92368645852726e-06
Xe	2.797128871491666e-05	0.00010521689562174287	0.0027791213756219904	0.008279996201809338	-0.0019458405870595688	8.131946789779954e-05
2
186600
Ar	9.192674759188715e-05	-0.0002712409063394161	0.003194163475892132	-0.021153351913712388	-0.007305630068609232	1.805456474545031e-05
Xe	9.472497709281146e-05	5.760090618661319e-05	0.002779930789155962	0.0043918162904936	-0.007103912124551401	7.151343290571149e-05
2
186800
Ar	-0.00012545726663772304	-0.00025902244357425776	0.003194220009507439	-0.02009756853591383	0.009603452932149304	-7.723290324033523e-06
Xe	0.00010696843491277342	-2.3106703731141285e-05	0.002780964102470141	-0.0020564457822532115	-0.008209604172048437	8.07048574869354e-05
2
187000
Ar	-0.000270828932942501	-9.831818646724388e-05	0.00319399163690769	-0.007519370412482051	0.020909492618673163	-5.1608587561804e-05
Xe	5.7950488816707935e-05	-9.044909421715525e-05	0.002781537833347442	-0.007262442714053567	-0.004586068058038047	1.8666430957773303e-05
2
187200
Ar	-0.0002613339183580977	0.0001184907375894618	0.0031935503116737643	0.009332504107990011	0.020275642435001958	-1.6677707964813333e-05
Xe	-2.404777018842083e-05	-0.0001059440988146136	0.002781063644622659	-0.008316699160488774	0.001635815700132357	-0.00010781802429810788
2
187400
Ar	-0.00010249848871245895	0.0002676999067455775	0.003193848786032947	0.020855515733201612	0.008036117164452822	2.5737862297197433e-05
Xe	-9.228914561010371e-05	-6.099930564870694e-05	0.00277980859597762	-0.004621408021369144	0.006893928653518526	-0.00011936968085818589
2
187600
Ar	0.0001152690726833664	0.0002635856062013357	0.003194203003082394	0.020463770510449193	-0.008819918465515704	1.4987606457217631e-05
Xe	-0.00010756814017575403	1.8756503285999374e-05	0.0027788011235881814	0.0017154093961857884	0.00826039768095836	-7.915256836694874e-05
2
187800
Ar	0.00026679352776470957	0.0001082844674914315	0.0031943258831863995	0.008303389295665766	-0.020653363547961535	-7.3262114921878635e-06
Xe	-6.126122025151938e-05	8.7952779139965e-05	0.0027784442632662293	0.0071061501005694515	0.004874277553692788	8.6345039430008e-06
2
188000
Ar	0.00026500116835818775	-0.00010911535814185939	0.003194189062435091	-0.008616026510335382	-0.020621292614722456	-1.7842007591652827e-05
Xe	2.066656695762242e-05	0.00010656947100557073	0.0027789013894862105	0.00843291749855299	-0.0013376654485223686	7.670971801168887e-05
2
188200
Ar	0.00011099275212365213	-0.00026407983807871056	0.003194349305877077	-0.020619493091124503	-0.008803978849778469	3.2215899699918864e-05
Xe	9.078892355794593e-05	6.382806536169669e-05	0.002779603154301482	0.004906812781342423	-0.006777251741262999	7.323829644149736e-05
2
188400
Ar	-0.0001069863347736398	-0.0002680544335578435	0.0031943838553152156	-0.020732528236724654	0.008058808961109772	-2.3829611543716137e-05
Xe	0.00010892429785185213	-1.549581211811522e-05	0.002780300024029126	-0.0014529385956563886	-0.008308091048668231	8.946059322754173e-05
2
188600
Ar	-0.00026371415522618376	-0.00011847725624408503	0.0031938489863931985	-0.009017043833772715	0.02034897832977305	-7.46575358309815e-05
Xe	6.469117044625818e-05	-8.609873505222269e-05	0.002781158001128773	-0.006938343742760233	-0.005106308674018428	6.666859096196212e-05
2
188800
Ar	-0.000269533193307105	9.915189224379645e-05	0.0031932078549080623	0.007893435300889472	0.020997808057259305	-5.287250643772835e-05
Xe	-1.6131048509115607e-05	-0.00010753472054382024	0.0027814424341505344	-0.008428403193857579	0.0010184841990634062	-3.95985918717052e-05
2
189000
Ar	-0.00012132124273749567	0.0002603217794997741	0.0031934278937231783	0.02024924221494599	0.00960379138099168	6.543225905703297e-05
Xe	-8.753731254224015e-05	-6.771242571072983e-05	0.0027805686929987957	-0.005123009294427316	0.006543362004082781	-0.00012535856975476873
2
189200
Ar	9.623597986159147e-05	0.0002723500735236485	0.003194063990380296	0.021037008967593647	-0.007328077512796857	4.5373501596791386e-05
Xe	-0.00010859480702612205	1.0737469514437963e-05	0.0027792704580790312	0.0011193842540574623	0.008346174104273466	-0.00011270305363245858
2
189400
Ar	0.000258217895701333	0.00012804923370898463	0.003194179506928237	0.009713413534675254	-0.020060914557179448	-3.0588361966480055e-06
Xe	-6.718468761787677e-05	8.313865610940167e-05	0.0027783739213112705	0.006728202839297596	0.005401761107655055	-4.6394250652276966e-05
2
189600
Ar	0.0002720095297209693	-8.968456164569961e-05	0.003193944438756725	-0.007116906675347064	-0.021277456876860012	-2.0538763695499515e-05
Xe	1.2855500122643773e-05	0.00010781572420823266	0.0027782191340321883	0.0084724116996431	-0.000699459781276101	9.554320040467887e-06
2
189800
Ar	0.00012983306749475145	-0.0002559695765053142	0.0031936863272801178	-0.019865819428340502	-0.010298629637215046	-2.665364842718035e-05
Xe	8.571282340523451e-05	7.069608076783777e-05	0.00277860771815358	0.00535212690261374	-0.006347546955255899	9.271549671192294e-05
2
190000
Ar	-8.68707706533017e-05	-0.0002754821377386886	0.0031934003191828506	-0.02126065592719338	0.006587450520812956	-2.425653145373813e-05
Xe	0.00010927648024311864	-6.642187656022629e-06	0.0027800238732324047	-0.0008736768314449166	-0.008340810246042914	0.00017857734604944417
2
190200
Ar	-0.0002540249959025194	-0.00013707404579332507	0.003193224615097902	-0.010470028406370298	0.01970061243929877	-9.80660579574107e-06
Xe	7.012448838060489e-05	-8.002558696034897e-05	0.0027816817178539233	-0.006562055770591264	-0.005602746052437682	0.00013015507768421466
2
190400
Ar	-0.00027567683172833907	8.005820634513615e-05	0.003193660751140811	0.0063442097959981614	0.021496487104761	0.00010718371243908327
Xe	-8.970193475931896e-06	-0.00010773508527548686	0.002781959298422037	-0.008444629932586717	0.00033073772883489896	-6.700547875940778e-05
2
190600
Ar	-0.0001393137989845983	0.0002512992175555535	0.0031951441126800624	0.019540163330619247	0.01100611379043728	0.00012628662335492042
Xe	-8.259987832057664e-05	-7.367152025950942e-05	0.002780790451099232	-0.005516901474420803	0.006142829364840624	-0.00014201735221404244
2
190800
Ar	7.703541902162051e-05	0.0002784181670120025	0.003195651736991279	0.0215170053363097	-0.005874872712493242	-1.4441806078705508e-05
Xe	-0.00010874271564226269	3.148197156904236e-06	0.0027794671098530926	0.0005613740501908411	0.008438432263300315	-0.00011642502464974681
2
191000
Ar	0.0002489566337784772	0.00014559348364364446	0.003194970549778615	0.011156440115175477	-0.019322642528358164	-0.000104337948418396
Xe	-7.210056585729832e-05	7.864416289040558e-05	0.00277860121112954	0.006386538742763397	0.005866072896981292	-3.715332885158689e-05
2
191200
Ar	0.00027765459560974876	-7.040862986181405e-05	0.003193754965867108	-0.00567824405036192	-0.02170584460585426	-0.00010770068149243702
Xe	6.531021675469201e-06	0.00010912102701563127	0.0027784602791813278	0.008526346400593353	-7.597273487939355e-05	-8.339868818305764e-06
2
191400
Ar	0.00014654377725319942	-0.00024629007285558504	0.0031932625527988957	-0.019214378848968563	-0.011684932946501221	4.720304968055805e-06
Xe	8.145679963606566e-05	7.708165397609501e-05	0.00277865657259093	0.005697384343637979	-0.006032351037215165	5.529612357322853e-05
2
191600
Ar	-6.901681871906374e-05	-0.00028101328424288003	0.0031933668083362816	-0.02170080059191848	0.005116604544578812	1.334012004761759e-06
Xe	0.00010951930439156749	4.224832684808572e-07	0.0027796413738068308	-0.00037865155452776234	-0.00852772755136355	0.00013636030725855828
2
191800
Ar	-0.0002451884871348183	-0.0001540081958676783	0.0031936845118817232	-0.011733050217995157	0.018967973328975388	6.0161965237007295e-05
Xe	7.471712576668261e-05	-7.666155317914239e-05	0.002780987189967565	-0.006243773783972143	-0.00607994624679318	0.0001036434418431909
2
192000
Ar	-0.0002807596703905173	6.12655216576254e-05	0.0031942606548945574	0.004982597346092458	0.02191231796224766	6.049100086854503e-05
Xe	-2.9211938609791496e-06	-0.0001097834208443598	0.0027815076703625	-0.008497392600383442	-0.00019199938981650263	-1.9863684028885347e-06
2
192200
Ar	-0.00015540635616811596	0.00024151049795972896	0.0031946346783559916	0.018839834287484945	0.012297933466976057	1.1052823675188671e-05
Xe	-7.88594649869106e-05	-8.010651514858608e-05	0.002780805966417862	-0.005910944320889719	0.005831985308861333	-0.0001227788007996278
2
192400
Ar	5.9378217151337344e-05	0.00028308803915098613	0.0031944185430416994	0.02192081168954142	-0.00443426657915588	-3.884662736537431e-05
Xe	-0.00010954542139825838	-4.386150268889843e-06	0.002779924530756678	8.332819762728154e-05	0.008526615626419922	-3.89227374858976e-05
2
192600
Ar	0.00024029621468657332	0.00016172505552339633	0.0031938101698756327	0.01240890875714963	-0.018612325488008754	-7.420067442175663e-05
Xe	-7.723792534540389e-05	7.385762763230992e-05	0.002779830315655272	0.006034374069333412	0.006328312357111638	7.3132408856164135e-06
2
192800
Ar	0.0002832447631311489	-5.249712434550932e-05	0.0031935260833457066	-0.004244078025612973	-0.02208881692145845	2.7103570570244478e-05
Xe	-3.7676776566962983e-07	0.00010976157033591305	0.0027797900441491586	0.008558167205171156	0.00048140999960610294	7.644511066950651e-06
2
193000
Ar	0.00016345085115865489	-0.00023687007812490276	0.003194038419568807	-0.018507275121047505	-0.012921400083724251	5.892461208807772e-05
Xe	7.687011566998139e-05	8.232831473019419e-05	0.002779498946746767	0.006129151031493908	-0.005670620647993711	-4.024505591562558e-05
2
193200
Ar	-5.0896376135509704e-05	-0.0002853334916854435	0.003194435278822929	-0.022170979378059442	0.0037488863343798982	-2.5646223534129813e-05
Xe	0.00011015132386052711	7.372977671549624e-06	0.0027795035170759988	0.00018404646331436788	-0.008563606211510831	5.478448520936147e-05
2
193400
Ar	-0.00023628600724334226	-0.00016967393054228332	0.003193843662506012	-0.01302191599444686	0.018208477421160864	-8.178267340406498e-05
Xe	8.021236516761251e-05	-7.192147854006301e-05	0.0027801278248174932	-0.005844353163609441	-0.006492528798267319	8.700868259024835e-05
2
193600
Ar	-0.00028604757578062185	4.3327518032304004e-05	0.003193128615090921	0.0035671444732095882	0.02223311296360795	-3.434147674622261e-05
Xe	4.557458469468415e-06	-0.00010987375585319459	0.0027807247993132584	-0.00854674722154965	-0.0007196126177531322	4.174659562472391e-05
2
193800
Ar	-0.00017197409941372885	0.00023166894610200398	0.0031930722377105395	0.018091734801692516	0.013500660994177639	3.143499064410342e-05
Xe	-7.369260235693713e-05	-8.506833807570795e-05	0.002780844781203846	-0.006321272281640002	0.00544166179963249	-2.2031580203608407e-05
2
194000
Ar	4.07843863044997e-05	0.0002871127673490427	0.003193467071141288	0.02231354208052283	-0.002999718428812459	1.6862139736289497e-05
Xe	-0.000109488263306921	-1.1383647242197913e-05	0.0027807105946851753	-0.0004736514533242858	0.008546270878892297	8.41083263421596e-06
2
194200
Ar	0.0002303045315394962	0.00017768988563810671	0.0031938445936734294	0.013665090411541896	-0.017755412302765575	4.641950715294964e-05
Xe	-8.243440802488755e-05	6.890320617965384e-05	0.0027808052776575427	0.005640132812937912	0.006675946458194127	-1.5789175653122548e-05
2
194400
Ar	0.00028765085414499385	-3.3377092429976815e-05	0.0031940767047772965	-0.002775013671553561	-0.02232286354775868	2.9683874108649575e-05
Xe	-7.890965510597856e-06	0.00010928247040602367	0.0027803587512059357	0.00850040412777425	0.0010099211405793331	-5.369042156413196e-05
2
194600
Ar	0.000179958773381895	-0.00022526492391680963	0.0031943732548167895	-0.017665844681494708	-0.014097586411091633	2.6903829548273904e-05
Xe	7.095890101899755e-05	8.705351053391138e-05	0.002779484357146008	0.006457917656516805	-0.005238136419128598	-8.806487136215294e-05
2
194800
Ar	-3.133545140062517e-05	-0.0002876313533040465	0.003194322123440009	-0.022442377352247616	0.0022608190234298465	-3.085236216517122e-05
Xe	0.00010893071161379471	1.5006912368042551e-05	0.002778852379852665	0.0007545701334847257	-0.008477599605820103	-2.4068907535061028e-05
2
195000
Ar	-0.00022465347179259263	-0.00018466907685182714	0.0031937514821121123	-0.014247653854391615	0.017271451115415462	-5.0981578120989996e-05
Xe	8.426886594616563e-05	-6.583920802923832e-05	0.002779277777860105	-0.005428609298528586	-0.006867644497756985	0.000122968166128158
2
195200
Ar	-0.00028886546306544284	2.4251450903741115e-05	0.003193457660251215	0.002067267284476524	0.022376412675774855	-1.3510990073092922e-05
Xe	1.0998916295381557e-05	-0.00010892548838191417	0.0027809112800143716	-0.008467381042014445	-0.001313504079110593	0.00015818629543392615
2
195400
Ar	-0.0001873151271270441	0.00021941840065102986	0.0031935822409537807	0.017195087879825363	0.014694175969026817	4.294309685856772e-05
Xe	-6.857795740453176e-05	-8.952944776708322e-05	0.0027819423578985007	-0.006624537449076225	0.004989078041353245	4.5997986713459745e-05
2
195600
Ar	2.1895416515749018e-05	0.00028915685744784785	0.0031939457634407977	0.022500564435775295	-0.0014732536612547923	2.5665691651911606e-05
Xe	-0.0001089317142840056	-1.8892535491746395e-05	0.002781794803702399	-0.0010097549475692868	0.008444775070952192	-5.9082649472068324e-05
2
195800
Ar	0.0002186420695090354	0.0001927587770801354	0.0031940235241424207	0.014845479561210451	-0.01683870698414015	-7.224434166409004e-06
Xe	-8.713723883349224e-05	6.277160532859946e-05	0.002780836774938144	0.005162291053641805	0.0070386439520447345	-0.00011267840233711484
2
196000
Ar	0.00028967840529939244	-1.4560808348489681e-05	0.003193699151275958	-0.0013415199031113654	-0.022503264000397392	-3.840072747143886e-05
Xe	-1.5790748789385822e-05	0.00010829254778576344	0.0027798418623581744	0.008369968606389973	0.0016187536096102535	-8.784604180863384e-05
2
196200
Ar	0.00019454248986768325	-0.0002133432078948779	0.003193435311232172	-0.01673875714473517	-0.01523560902116715	-2.8078856639358035e-05
Xe	6.416194107159021e-05	9.181367403386969e-05	0.002779198233113453	0.006814760714227616	-0.004740336786738071	-4.8716917140955865e-05
2
196400
Ar	-1.231565257883147e-05	-0.00028963624962565084	0.0031930981984250734	-0.02254200293094389	0.0007546851817857856	-4.701237741616726e-05
Xe	0.00010731797775489083	2.262461293586538e-05	0.002779226189112963	0.0013721728310182046	-0.008408246358344128	6.63585275649226e-05
2
196600
Ar	-0.00021204647551552558	-0.0001997934813511804	0.0031927457993409626	-0.015371827173479092	0.01628963838408501	-1.7446195442329166e-05
Xe	8.9014260056362e-05	-5.984218704862982e-05	0.0027801417280655027	-0.004870993886703984	-0.007249551864826617	0.00011147288963427085
2
196800
Ar	-0.0002899320250633563	4.58042144167982e-06	0.0031925693599121653	0.000581000913809446	0.022524141269909866	1.364078670189978e-05
Xe	1.9471556216601278e-05	-0.00010805137864054386	0.0027812797738871373	-0.008291512339641118	-0.0019097568940946747	0.00010091560163507517
2
197000
Ar	-0.00020166024379336838	0.0002066157402565507	0.0031932466361506416	0.01620467081327178	0.01581187418661231	0.00010924148375233343
Xe	-6.099372585970608e-05	-9.429762012790218e-05	0.0027815970716606976	-0.007006627865635804	0.004512461135796244	-6.794819213676948e-06
2
197200
Ar	2.487343217247478e-06	0.00028965273535332207	0.003194291400262197	0.022521793847776986	-5.878866985464702e-05	6.935867263262041e-05
Xe	-0.00010696663235062883	-2.643405957598179e-05	0.0027811368515271565	-0.0016777384173911	0.008351093730616226	-7.039876942616669e-05
2
197400
Ar	0.00020512810494612954	0.00020580065582731958	0.003194468674059796	0.015919257709959098	-0.01585291679464223	-3.556119325295534e-05
Xe	-9.10424998992446e-05	5.634143659719991e-05	0.0027801455620495774	0.004676631225568811	0.007381198975629364	-0.00010500036775986135
2
197600
Ar	0.00028978979707172876	3.8142307969685633e-06	0.0031940907826131077	0.0001318212845562978	-0.02249956141378477	-4.405427876338733e-05
Xe	-2.2507312589847266e-05	0.00010658481456052405	0.0027791933619223403	0.0083109532167258	0.00215641075148148	-9.462091384599032e-05
2
197800
Ar	0.00020757305507598667	-0.00020041143479320969	0.0031937001787351424	-0.015737672838047126	-0.016248650331653864	-2.5997512494782677e-05
Xe	5.88613033602909e-05	9.537630912585476e-05	0.0027784919832815618	0.007139760446825631	-0.004281911993702105	-2.0243703278791854e-05
2
198000
Ar	5.919454746702177e-06	-0.00028952292576583314	0.0031932789895878742	-0.022558623992636237	-0.0006716271326689728	-5.7366445797474835e-05
Xe	0.00010635446053395374	2.91128271653365e-05	0.0027788555106590426	0.001877700148760397	-0.00831446951994381	9.641185217278035e-05
2
198200
Ar	-0.00019920306525835906	-0.00021231271189074035	0.003192522431407639	-0.016408436545069762	0.015301843817741415	-7.542280510498052e-05
Xe	9.289990224512028e-05	-5.457650448608501e-05	0.002780301198014365	-0.00441085436864534	-0.007547194362162135	0.00015640812244773503
2
198400
Ar	-0.00029014607688005156	-1.323044104700541e-05	0.003192153401497864	-0.00086844934125732	0.022495486998425903	3.0499438932046028e-05
Xe	2.6712358108657258e-05	-0.00010686311405551544	0.002781598185086493	-0.008148932356113683	-0.0023997435907827116	9.358439111810424e-05
2
198600
Ar	-0.0002148132814496499	0.0001937186639982116	0.0031931656683095878	0.015159035827781893	0.016775199304464215	0.00013089642481363848
Xe	-5.4234878074082557e-05	-9.790200014934497e-05	0.0027819291876815355	-0.0072347844959478	0.004104148951740253	-6.82571226083347e-06
2
198800
Ar	-1.6568384722409e-05	0.00028955296898897835	0.003194603994539904	0.022488267701692814	0.0013879422981777848	0.00012684936702290364
Xe	-0.00010411501192796333	-3.297537849487436e-05	0.0027814318552028903	-0.0022359736369354645	0.00823117136468456	-8.808361819947531e-05
2
199000
Ar	0.00019087924889928953	0.00021884536760027824	0.0031952922541610765	0.016894324823772327	-0.014820040485158252	2.6315925308414462e-05
Xe	-9.429619102150086e-05	5.0947861475116976e-05	0.0027803681306391606	0.004087116945162582	0.007692767449634655	-9.492269414405537e-05
2
199200
Ar	0.00028837540663988203	2.2186395534389415e-05	0.003195265655781337	0.0016243845296619033	-0.022518589897826364	-2.4771083651414525e-06
Xe	-3.0160647048407143e-05	0.00010573334956864255	0.002779458014321895	0.008071627804903173	0.002697103064980101	-5.8005753009349954e-05
2
199400
Ar	0.0002201068955198926	-0.00018739291030805025	0.0031947541771880483	-0.014564680278907388	-0.017272534761236146	-8.607926111882967e-05
Xe	5.1348938674983835e-05	9.952174084568444e-05	0.0027790502503297412	0.007413271311119585	-0.0038729515995428233	-2.0499846690432275e-05
2
199600
Ar	2.5300569147849955e-05	-0.00028962392678498483	0.0031935622767230052	-0.022403223817653715	-0.002128929437709225	-0.00015064618119045405
Xe	0.00010376436702392338	3.6036580538010485e-05	0.0027794300660118694	0.002526119895903489	-0.008168205396184864	9.834284742866743e-05
2
199800
Ar	-0.00018412707953668957	-0.00022560200612513616	0.003192284147873107	-0.017359819911209603	0.014274477221672672	-0.00010976200500995084
Xe	9.675515048537028e-05	-4.79831016892051e-05	0.0027806099553823135	-0.00386364007376199	-0.00777780943441938	0.00011712908600155245
2
200000
Ar	-0.00028788956965048026	-3.203692665772292e-05	0.0031917647313248008	-0.0023495330420160994	0.02247224348113987	1.626930908360077e-05
Xe	3.43282215021173e-05	-0.00010430931418007491	0.002781466798616026	-0.008003420251351784	-0.0029294074939261697	2.4635059616634326e-05
2
200200
Ar	-0.00022643006119417195	0.00018009198997210536	0.0031926477471318397	0.014031074347072668	0.017787692156373547	0.00013220792064028213
Xe	-4.77438746912083e-05	-0.00010077478776155244	0.0027813891915617677	-0.007553217288815313	0.003629241634494847	-5.291657751973381e-05
2
200400
Ar	-3.493680254219928e-05	0.00028897183680654816	0.0031940732828012568	0.02231517834358203	0.0028532098142914036	0.00013174467329239847
Xe	-0.0001021188598087373	-3.920581190489532e-05	0.0027806842605728943	-0.002764877234141885	0.0080777888635004	-9.345002882221849e-05
2
200600
Ar	0.00017633229237308236	0.00023148936061351518	0.0031949235993425722	0.01779169076739534	-0.013775042122773817	2.908057346783384e-05
Xe	-9.766882542538576e-05	4.503105374422002e-05	0.0027797552700416727	0.003618404804984126	0.00790366940712846	-7.098669703760812e-05
2
200800
Ar	0.00028607861344387403	4.0838900240614914e-05	0.003194737330520746	0.0030237398662294485	-0.022449195878169726	-6.453490200839375e-05
Xe	-3.664082043271142e-05	0.00010320689204023567	0.00277941245920536	0.007968944338500995	0.0031587540138619656	-1.6828433476400813e-05
2
201000
Ar	0.0002312398142764704	-0.00017355265888487398	0.0031937115174480715	-0.013446872141056526	-0.018232223488764344	-0.00013074876619979453
Xe	4.577808543747106e-05	0.00010201291568870745	0.002779348698433993	0.007664177533289144	-0.003363930583214092	1.4805633051469038e-05
2
201200
Ar	4.3481486294854367e-05	-0.0002882360597609954	0.0031922343547502404	-0.022202315952295867	-0.0035464509056838153	-0.00014524669715030607
Xe	0.00010201862404362688	4.2018160825075774e-05	0.0027799614116373176	0.0029883921857037526	-0.008001828355246586	0.00010166946372722046
2
201400
Ar	-0.00016941633953971018	-0.00023728558298874065	0.0031910916149510055	-0.01822787648676071	0.013197797041664277	-4.0847705205449765e-05
Xe	9.991997791028991e-05	-4.237895572841436e-05	0.0027810265836035472	-0.0033791199139199656	-0.008009370546404125	8.281156486213873e-05
2
201600
Ar	-0.0002855244874283562	-5.004678096169469e-05	0.003191509077323701	-0.003812907036175343	0.022364134559169493	0.00011488402704033767
Xe	4.110775410612188e-05	-0.00010218062860365604	0.0027813947903649145	-0.007782612959073574	-0.003353373788445903	-1.2041399479798847e-05
2
201800
Ar	-0.0002379704403201506	0.00016624257187610147	0.0031933936639042273	0.012869736134905907	0.018680123793100415	0.00023215133553341615
Xe	-4.091033566106622e-05	-0.00010300871762231197	0.002780619476794775	-0.0078065567977709865	0.003186993117103347	-0.00011904808903609703
2
202000
Ar	-5.350123390245482e-05	0.00028703595147295207	0.0031951744966398576	0.02215149719796422	0.004221027964780478	0.0001011628974716612
Xe	-9.980972198633707e-05	-4.4673826604402775e-05	0.002779484116354014	-0.00337110993599062	0.007898994050990489	-7.252086252988689e-05
2
202200
Ar	0.00016163954107333454	0.00024250161137602397	0.003195449706456782	0.018664955575585142	-0.012674802506021167	-3.5844499023050466e-05
Xe	-0.00010165428414493191	3.9949746851693784e-05	0.0027790986260965533	0.0030373037209895	0.008128861238876859	1.112022319677333e-05
2
202400
Ar	0.00028351273869333586	5.827051301640001e-05	0.0031946462330130886	0.004478712832377758	-0.022288031115195842	-0.0001376806118485101
Xe	-4.463410515571876e-05	0.00010171686958271382	0.002779506062966786	0.007779436258513579	0.003598868870630203	9.197054800271574e-05
2
202600
Ar	0.0002425985206510442	-0.00015968338824905482	0.00319338207034511	-0.01224668542285542	-0.01909536174805765	-0.00012114083434416623
Xe	3.8530530861829924e-05	0.00010499838023845171	0.0027806190597463826	0.007985513843284494	-0.002970195924342565	0.00011240193893395779
2
202800
Ar	6.232035554553147e-05	-0.00028624245548819656	0.003192291701479708	-0.021964846372846757	-0.0049376236026769885	-0.00010085829704015039
Xe	9.956933402828464e-05	4.78882098000311e-05	0.00278187342483832	0.003620779352020579	-0.00786043613833568	0.00010536916995640823
2
203000
Ar	-0.00015370552218476672	-0.0002486461257845004	0.003191629066808817	-0.019047376566592587	0.012061779154179532	-2.1652895278450298e-05
Xe	0.00010376943209373483	-3.651020724246692e-05	0.0027827158353920943	-0.002827950507882419	-0.00816792495910156	6.94725801724402e-05
2
203200
Ar	-0.0002818231418342816	-6.867245194232503e-05	0.003192275235648071	-0.0052689883308947956	0.022106021943402464	0.0001461177582237419
Xe	4.863641529228236e-05	-9.971154710044688e-05	0.0027826959696378418	-0.007618183396772755	-0.0038458675454328766	-6.918929027599812e-05
2
203400
Ar	-0.0002486390163044404	0.00015069098720367111	0.003193909847351818	0.011621646675845239	0.019535975971078874	0.00015863566997164358
Xe	-3.399926110275005e-05	-0.00010608553906952987	0.002781446605180217	-0.008074220894681673	0.002629494289397214	-0.00019602883518275528
2
203600
Ar	-7.241599993436844e-05	0.0002835229630945929	0.0031950617848248517	0.021826984443534748	0.005666129024998758	5.7099365705235724e-05
Xe	-9.70611301946262e-05	-5.198231718478564e-05	0.002779539267051799	-0.0038910992226309886	0.007648674835166785	-0.0001578847879029854
2
203800
Ar	0.00014522700969660718	0.0002530077324312864	0.0031947135208390356	0.019452691829756046	-0.011476182522161869	-0.00012353812401154717
Xe	-0.00010423166526217129	3.241506878500814e-05	0.0027785494665100497	0.002530295760057793	0.008334481884619563	-3.7601815432416693e-05
2
204000
Ar	0.00027908689339389657	7.678677465665294e-05	0.0031930475412980377	0.005953146751642599	-0.021955404816603616	-0.00017140221039229326
Xe	-5.13949185277786e-05	9.841856973302491e-05	0.0027786671043451457	0.007495636724868378	0.004187680893899261	6.864329277426924e-05
2
204200
Ar	0.0002526257835341288	-0.0001434306185994826	0.003191650106763783	-0.010986159075274156	-0.019841388319132746	-9.829471610304723e-05
Xe	3.1006087058717434e-05	0.00010795856262245912	0.002779685993066229	0.00813677030542846	-0.0023690659004826694	0.00012794233645815073
2
204400
Ar	8.094304435661823e-05	-0.00028114570890509425	0.00319114087869912	-0.021631446109672787	-0.006301904133825527	-5.456821139770686e-06
Xe	9.556793572745208e-05	5.552665805331628e-05	0.002781233129040243	0.004125484828289135	-0.00758305149969675	0.00017052941678374423
2
204600
Ar	-0.00013750998969241078	-0.00025748253372018714	0.0031917967278651893	-0.019830533337256394	0.010808399140810615	0.00014453929527944972
Xe	0.00010578184409764616	-2.8706336494326763e-05	0.0027827098282512674	-0.0022188078491938825	-0.00840724876223088	0.00011545940801540626
2
204800
Ar	-0.0002769680253774361	-8.63154891351258e-05	0.0031936223954669983	-0.006653263305711462	0.021707519402948437	0.00021941001122387685
Xe	5.5520437418970034e-05	-9.618421690664958e-05	0.002783046709123528	-0.007334145514612024	-0.0044447406687168015	-5.963860249997159e-05
2
205000
Ar	-0.00025750173948577794	0.00013458220097493505	0.0031954422911536534	0.010366172558006492	0.020218006628916464	0.00012321888631382816
Xe	-2.639306171712809e-05	-0.00010847082732506045	0.0027817632888815116	-0.008225117696368666	0.0021146399943932485	-0.00016907315119093916
2
205200
Ar	-8.989394293111432e-05	0.0002781218647933403	0.003195694189421229	0.021456107195085755	0.007027334041359913	-8.035700927481447e-05
Xe	-9.331474218751308e-05	-5.792102669207317e-05	0.0027800553864577183	-0.004449942712998706	0.007461607239135132	-0.00015564609445196056
2
205400
Ar	0.0001295167800449515	0.00026162044995064907	0.003194178577207305	0.02017734198108248	-0.010162395091600726	-0.00021940260968117617
Xe	-0.00010667770961131174	2.6309146706318706e-05	0.0027792122340295684	0.0019237439069727095	0.008513690795848766	8.001300267944465e-07
2
205600
Ar	0.00027444994497911114	9.462212972943434e-05	0.003192014157602259	0.007324134928709996	-0.021541672871859763	-0.00020126961907933477
Xe	-5.8642809967968176e-05	9.558466336681668e-05	0.0027793664311927774	0.007196575163659416	0.004628117924289478	2.012861174872102e-05
2
205800
Ar	0.0002615477843333733	-0.00012709753906408878	0.0031906390463274934	-0.009741365679296997	-0.020547599124248098	-5.9046605345277014e-05
Xe	2.3104361478004648e-05	0.00010997293459554163	0.0027799323263197153	0.008313848744743483	-0.0018961129219910431	6.363068083512084e-05
2
206000
Ar	9.875619956053276e-05	-0.00027582873968636185	0.0031907939530576557	-0.021186501720445325	-0.007705374601048921	8.945922681984882e-05
Xe	9.125910067750239e-05	6.097651938524524e-05	0.0027806447573858317	0.004638685459126678	-0.007367604972823428	7.682493152780579e-05
2
206200
Ar	-0.00012077500390225841	-0.00026629372088753225	0.0031923296308673027	-0.02051463363920147	0.009529084574709037	0.00019750698544344027
Xe	0.00010709326485565298	-2.2676126690742486e-05	0.0027812534168745844	-0.0016422798490456582	-0.00854214641954926	6.913288924308192e-05
2
206400
Ar	-0.00027121364575240475	-0.00010375577716532101	0.0031945400546103523	-0.00802999370124968	0.021343234617467396	0.00023504970889025862
Xe	6.165616636956855e-05	-9.334807185675204e-05	0.002781412489685214	-0.0069870146228683755	-0.004854218649378354	-1.2505708410017386e-05
2
206600
Ar	-0.000265718562643004	0.00011881313601194088	0.003196297256060454	0.009074645019890592	0.02087642151497156	8.285418505212379e-05
Xe	-1.9188809488777458e-05	-0.00011057867882131978	0.002781173200428285	-0.008382538215889463	0.001599363382457194	-3.0944977656288385e-05
2
206800
Ar	-0.00010730061742215276	0.00027262418029251763	0.003195844064012908	0.020985355961096644	0.008321940597000395	-0.00016769767152833437
Xe	-8.939494567682434e-05	-6.423490015010487e-05	0.0027808987810277524	-0.004932820660796003	0.007212354311611324	-3.257116955583341e-05
2
207000
Ar	0.00011268335008702581	0.00026921304172369023	0.003193437969793791	0.020788747693893106	-0.008958679202236858	-0.00027619834874570426
Xe	-0.00010830713975499427	1.926028335674383e-05	0.002780648077453573	0.0013543654375421609	0.008630247253958	-2.3062375529210617e-05
2
207200
Ar	0.0002680099220565012	0.00011115393043465104	0.0031910532996559005	0.008703405753171634	-0.021048307043861975	-0.0001740988765618221
Xe	-6.504011645070299e-05	9.163227626808307e-05	0.0027805831709428915	0.006866376835649374	0.005127052999723729	6.706575294037738e-06
2
207400
Ar	0.0002698177466658019	-0.00011044082563729716	0.003190132548408239	-0.00837222787594822	-0.021046864723227268	-2.4323656370083913e-05
Xe	1.5669179303284194e-05	0.00011176049724622099	0.002780650394746413	0.008440641136572733	-0.0013164735570256032	1.6520773036841744e-05
2
207600
Ar	0.00011714214158461458	-0.0002686865336452053	0.0031905650154437485	-0.020621912517538248	-0.008988803446452117	0.0001017310768905376
Xe	8.730324377527583e-05	6.823028337014006e-05	0.0027810262185375472	0.005159786294538638	-0.006978826688755615	3.709702665334702e-05
2
207800
Ar	-0.00010256875835048382	-0.0002726734593762226	0.003192048571994128	-0.021082110080098047	0.008232070714968127	0.00019131006252166323
Xe	0.00010877689369690044	-1.4091182888940657e-05	0.0027812912822005207	-0.001086767095308205	-0.008665626707478028	5.310603729896791e-07
2
208000
Ar	-0.0002634241207245965	-0.0001202703953324036	0.0031940527147792898	-0.009446417046648463	0.020698491273379784	0.00019674711205567663
Xe	6.781400290838577e-05	-8.823892033200098e-05	0.002781062618202772	-0.0067023989304195765	-0.005400838119848847	-2.9008073213185152e-05
2
208200
Ar	-0.00027280648889345876	0.00010095115639595968	0.0031955007047563583	0.007660043674319673	0.021292439199296877	7.125238327915352e-05
Xe	-1.2096078284562525e-05	-0.00011153580144175357	0.002780898638652183	-0.008468589270055069	0.0009634676600798443	-3.920949297351244e-05
2
208400
Ar	-0.00012529183403312675	0.0002639377759461189	0.0031954069210936415	0.020341876266839955	0.009644403436083294	-0.0001014502242691598
Xe	-8.498924189528501e-05	-7.07696980654155e-05	0.002780776185629673	-0.0053797706587689256	0.0067738915754360154	2.0942315217485208e-05
2
208600
Ar	9.41739669028808e-05	0.0002750639570812463	0.0031938150337778907	0.02132545894667667	-0.007499753605705513	-0.00019389892106114442
Xe	-0.00010914196137495564	1.0699451439998641e-05	0.002780766335900448	0.0007994351802357479	0.008684338093183148	-1.403045696696368e-05
2
208800
Ar	0.0002595963457186312	0.00012850252828633155	0.003191974801851409	0.010068221151655699	-0.020318033876547938	-0.0001427755732340328
Xe	-7.070579853131375e-05	8.596739362464916e-05	0.002780225742803859	0.006501582971560685	0.005609643353309401	-6.385631631881209e-05
2
209000
Ar	0.00027590142885344717	-9.16583849304863e-05	0.0031910620097107957	-0.006941375695983161	-0.02149296748014768	-2.307937068187014e-05
Xe	8.330493493838763e-06	0.00011167062708814934	0.0027797357140741945	0.00850539251885853	-0.0006898078044870622	-1.5260318996518263e-05
2
209200
Ar	0.00013396301234950428	-0.00025948348155321914	0.0031913413620238526	-0.019988963929891683	-0.010368491430331486	8.831240540347131e-05
Xe	8.24552184867933e-05	7.374360000764021e-05	0.0027800699332454597	0.005585193443773518	-0.006532334559970248	8.397846424866165e-05
2
209400
Ar	-8.457669324211783e-05	-0.0002784962243834644	0.003192487987798233	-0.021483889913585855	0.006745067908033487	0.00010912155315876246
Xe	0.0001090528955021512	-6.123902212067451e-06	0.002781306172270811	-0.000528340997882303	-0.008620748327979204	0.00013549652439310352
2
209600
Ar	-0.00025419856090778227	-0.00013776464016545926	0.0031937632122396144	-0.010720081420717686	0.019961713967434784	0.0001148736780714208
Xe	7.296147506818836e-05	-8.21689573386869e-05	0.0027824812893863394	-0.006306817554934497	-0.00582143470128628	7.633086922583857e-05
2
209800
Ar	-0.00027815953723291293	8.18136909993649e-05	0.0031947822775092102	0.0061721320378512416	0.021711012180845802	5.9809305051685494e-05
Xe	-4.6817135426298704e-06	-0.00011117902539659676	0.002782569371065683	-0.008463037666479321	0.0003313533436593795	-4.122247648964584e-05
2
210000
Ar	-0.00014268476610249767	0.0002541746260923376	0.003194687713736431	0.019544950719942528	0.011020832718563496	-5.6370715966629723e-05
Xe	-7.977136115881931e-05	-7.602864301167174e-05	0.0027817973855673596	-0.005777179432252463	0.006316861724196955	-0.00010152659763775316
2
210200
Ar	7.457071443324725e-05	0.00028038279495301615	0.0031935360044267856	0.021678849806946333	-0.006036111597528874	-0.0001532050297235952
Xe	-0.00010885645705986888	2.859002912201295e-06	0.002780613791998612	0.0002576029496221268	0.008663507082885104	-0.00011208203619091058
2
210400
Ar	0.00024886413874212554	0.00014552305849887287	0.0031922784314367615	0.011396613670532785	-0.01956599397888725	-8.979970646778439e-05
Xe	-7.531158376962941e-05	8.021950087211444e-05	0.00277954951249684	0.006114816588329168	0.006018443095766973	-0.00010128592610022975
2
210600
Ar	0.00028013250394441603	-7.285613199944785e-05	0.0031918821473076136	-0.005440531848349488	-0.021895470438777664	1.593456995242512e-05
Xe	1.4685308596700169e-06	0.00011153161525337357	0.0027788272674930162	0.008456844568147989	-8.534785938504451e-05	-3.2492445476513845e-05
2
210800
Ar	0.00015060703664179548	-0.0002495055073687313	0.003192356308766173	-0.01913958020259876	-0.01164323072417696	7.777111067329475e-05
Xe	7.756574099759336e-05	7.878426242437164e-05	0.0027791050461801066	0.0059706237272167135	-0.006118752496607713	0.00012097401503109742
2
211000
Ar	-6.558735959405171e-05	-0.0002828003434525106	0.0031930274434630464	-0.021874946220462047	0.0053437470564152425	5.275391440439744e-05
Xe	0.00010909432255071293	9.929418068140307e-07	0.0027805315365796186	2.8224209702208322e-05	-0.00864161865662494	0.00015364302325444816
2
211200
Ar	-0.0002442638757381401	-0.0001536339088790181	0.003193922996909966	-0.012030202983702543	0.0191745155291751	9.091223992609815e-05
Xe	7.804971523318771e-05	-7.737744191096555e-05	0.002781772746468382	-0.005931769679915678	-0.006230268871029238	0.0001039495773508654
2
211400
Ar	-0.0002826598770374325	6.350502327352992e-05	0.0031945923618844374	0.004745977410877723	0.022049833143484677	2.6248496474241598e-05
Xe	2.09673385348095e-06	-0.00011148038524966783	0.00278236955156879	-0.008471219293435502	-0.0002201865958479055	1.0221071013492029e-05
2
211600
Ar	-0.00015862482911322337	0.00024432551403352727	0.003194159231528482	0.018796026011409655	0.012245822097428615	-7.965308430612739e-05
Xe	-7.478694537758341e-05	-8.146583611164636e-05	0.0027821828892447054	-0.006114214287354186	0.005930407207716394	-5.968506548730464e-05
2
211800
Ar	5.6582007981441674e-05	0.0002849882469235188	0.003192921305912105	0.022063998517813137	-0.004553626646437003	-0.00015861892405849844
Xe	-0.00010872832861586838	-4.628437800062476e-06	0.002781407525909914	-0.0003229910132204483	0.008677464931249925	-9.440601349459878e-05
2
212000
Ar	0.00023940649028006856	0.00016227937715167202	0.003191757408227443	0.012636504846537736	-0.018734798002941054	-5.730918734508788e-05
Xe	-8.050469478879122e-05	7.486737746327563e-05	0.0027801580742516842	0.005700385627036022	0.006416217457777676	-0.00013830034289420785
2
212200
Ar	0.00028481259820825426	-5.334451480007386e-05	0.0031918281562685314	-0.004003309210659371	-0.022232962458156754	6.702076986170926e-05
Xe	-6.088277971038239e-06	0.00011152756418747547	0.0027790506067251136	0.008433163919241933	0.0005314198562358076	-7.9442348821733e-05
2
212400
Ar	0.00016674034827781682	-0.0002386622290205866	0.003192858394432845	-0.018399487404669096	-0.01295467642224048	0.00011049457756621438
Xe	7.183922309617714e-05	8.412487581666828e-05	0.002778893647882572	0.006373665293542779	-0.005725042114866922	4.304827836869756e-05
2
212600
Ar	-4.718694103653675e-05	-0.00028694880433033967	0.0031937960648608698	-0.022208085664433202	0.0037709673771600502	3.6680137689437205e-05
Xe	0.00010860158048316082	8.160197747985758e-06	0.0027798607333927635	0.0006083411331591123	-0.008703747002223271	0.00013182673850681558
2
212800
Ar	-0.0002338877005286006	-0.00017062818436913984	0.003193896501628282	-0.013238534506391895	0.018295255800193647	-1.4915755429605696e-05
Xe	8.293355670015798e-05	-7.266269907950354e-05	0.0027812802508140632	-0.005477521746306638	-0.006635619498199248	0.00014129737844822791
2
213000
Ar	-0.00028631494462502146	4.336631235878561e-05	0.0031936695421429465	0.0032725593286110064	0.022325715727898245	-2.9147634368709344e-05
Xe	9.725392209571279e-06	-0.0001118112096782518	0.002782507419199508	-0.008416463444097978	-0.0007902976959390639	7.499751228685637e-05
2
213200
Ar	-0.0001749551409447423	0.0002326081060651728	0.0031931342706835925	0.01789490409891453	0.01360398889940414	-5.8967684897027404e-05
Xe	-6.891457729172973e-05	-8.71371187335926e-05	0.0027826799605254493	-0.00649400002502007	0.005487775077684085	-2.8040076249250304e-05
2
213400
Ar	3.670825717650576e-05	0.0002886547782999151	0.0031924259617043477	0.022272835836223144	-0.002933425986172719	-6.624776122595047e-05
Xe	-0.00010780496980191603	-1.260932399576916e-05	0.0027821991091205285	-0.0008898136460593614	0.00862349976173581	-6.224228622156787e-05
2
213600
Ar	0.0002271216512249178	0.0001794431398242901	0.0031922211644358077	0.01388128000760997	-0.017811811964734428	2.134845831524721e-05
Xe	-8.494411165676121e-05	6.889006086227017e-05	0.002781148088824577	0.0052217040545303505	0.0068522672865803606	-0.00013869702338488796
2
213800
Ar	0.00028710587770885857	-3.303462965050985e-05	0.003192938794189982	-0.002487737149485841	-0.02253490265277711	0.00010792994204186188
Xe	-1.3409082969487744e-05	0.00011118787410271032	0.0027798881469660542	0.008359037468760204	0.0011640017186725746	-0.00010440578868981391
2
214000
Ar	0.00018193981631129866	-0.00022660151511724066	0.0031939474538376627	-0.017486510527077767	-0.01421039734024747	6.826833818129536e-05
Xe	6.6026590398319e-05	8.976936432729492e-05	0.0027789313720899215	0.006731419191298421	-0.005241605742867031	-5.881319719007928e-05
2
214200
Ar	-2.7795345718651068e-05	-0.00028970644400836467	0.003194058501550462	-0.02233623626738404	0.0022233617038823527	-3.1469724062739954e-05
Xe	0.0001081106675851757	1.6577570670191502e-05	0.002779102251262443	0.0012506332145378095	-0.00865367747097944	9.420140295587132e-05
2
214400
Ar	-0.0002213872286929607	-0.0001866788969796939	0.003193396233322095	-0.01443348785455114	0.01734343310047626	-7.415461591317484e-05
Xe	8.839577907457187e-05	-6.61347845769593e-05	0.002780310193012404	-0.004996717740463385	-0.007039848767268813	0.000135018665910118
2
214600
Ar	-0.0002883249848948987	2.359912724048661e-05	0.0031925190636091856	0.0017415308617228285	0.02255913529407468	-8.503430112307652e-05
Xe	1.80505330676318e-05	-0.00011072474181642889	0.0027814687900019684	-0.008349175428430167	-0.0014346897899901504	8.549536129917858e-05
2
214800
Ar	-0.00019005361643024352	0.00022060424969527808	0.0031921172753113765	0.016914109363132	0.014833351415651489	-2.481019226199484e-06
Xe	-6.242950644488459e-05	-9.184352680620099e-05	0.0027820647750602563	-0.006927036800069943	0.0049998554321034295	1.2227470489127186e-05
2
215000
Ar	1.7091733648384634e-05	0.0002910928242091816	0.00319223904551708	0.022418128168138835	-0.0014385794300539342	4.382932445129977e-05
Xe	-0.00010696609080051962	-2.076746960464309e-05	0.0027821874613422107	-0.0015501430940627172	0.008487599652257469	6.9197569900073474e-06
2
215200
Ar	0.00021465915501440996	0.00019463913518173406	0.0031930607647788854	0.015072725428451013	-0.016841172591462738	0.00011164338033649579
Xe	-9.031242961939275e-05	6.184169094232449e-05	0.0027817949654244823	0.004703151388074669	0.007186536792211644	-8.016206905238775e-05
2
215400
Ar	0.000289116317006247	-1.2970169358852017e-05	0.0031941405998515346	-0.0009365844007303092	-0.022586273667062246	8.78903138835896e-05
Xe	-2.1903727855163436e-05	0.00010871200504271608	0.0027806572510318487	0.008290915292900101	0.0017072951745042031	-0.00014262745662629853
2
215600
Ar	0.00019756685145979144	-0.00021277702886218072	0.003194666304637803	-0.01642672062847379	-0.015328555707943121	7.031762949348995e-06
Xe	5.9174249432655635e-05	9.295576194070379e-05	0.0027795355291620385	0.007089179449676037	-0.0047299086700281065	-7.908623510620151e-05
2
215800
Ar	-7.562383923503888e-06	-0.0002897504066083272	0.003194189411007706	-0.022468020542484812	0.0007223027522385765	-9.732072717153148e-05
Xe	0.00010609280250859892	2.3279220225786407e-05	0.002779332445702705	0.0018223327000113562	-0.008501396438568376	3.098827462944817e-05
2
216000
Ar	-0.0002080224012800752	-0.0002000824357900977	0.0031931877716918416	-0.015608919706384143	0.01628764545599949	-8.545040270058779e-05
Xe	9.210171192436055e-05	-6.014014420687098e-05	0.002780095822618863	-0.004485033931502983	-0.0073245193743674344	0.00010160180622003829
2
216200
Ar	-0.0002889169611330286	4.24158064668173e-06	0.0031927527533594092	0.00025626227098075546	0.022504011959450648	-4.085544055854411e-06
Xe	2.5142345764378884e-05	-0.00010912381640217964	0.002780827750688973	-0.008183549172580318	-0.0019832052952080707	5.4489883295695815e-05
2
216400
Ar	-0.00020386568537860065	0.00020621133856120068	0.0031928241919282683	0.015895427291620523	0.01581470837641643	2.8570352896919395e-05
Xe	-5.613344968886808e-05	-9.561816858871286e-05	0.00278151312901447	-0.007240905661130159	0.004534082879151498	7.005449512155841e-05
2
216600
Ar	-2.2609654147374855e-06	0.00028981354677776644	0.0031928773802141915	0.022378074892669002	5.8435852704759076e-05	1.006934183115935e-05
Xe	-0.00010533339676281995	-2.717256574895819e-05	0.002781917187966283	-0.0021032987058566283	0.008473223706065125	6.450303008226892e-06
2
216800
Ar	0.00020017706953799556	0.00020723098179228065	0.0031933989119713353	0.016060714378292134	-0.015761985868409753	7.386144860384284e-05
Xe	-9.406637583297096e-05	5.6721388717543676e-05	0.0027817321202257246	0.004237556381293684	0.007474651610578032	-5.1059657106359695e-05
2
217000
Ar	0.0002878534127668165	5.724033454329504e-06	0.0031943949056867497	0.0005734187161950714	-0.0225095107970585	8.992759358936018e-05
Xe	-2.907206871525912e-05	0.00010773149645830551	0.0027805668989097096	0.008114427705873735	0.0022202123964577387	-0.00014660259606428863
2
217200
Ar	0.000210403139339559	-0.00019918730269542358	0.0031948819778446096	-0.015298273111577408	-0.016370736990492227	-3.5595847955917844e-07
Xe	5.2464821908099256e-05	9.656537169523246e-05	0.0027794802207811694	0.007362145767809367	-0.004353960105346868	-4.473917813399735e-05
2
217400
Ar	1.2076094614161289e-05	-0.0002895459300995171	0.0031941449892543498	-0.022355797356608614	-0.0007986661533879619	-0.00011928135106192856
Xe	0.00010379280075880304	2.9579988024847425e-05	0.002779487288415843	0.002363485916868791	-0.00836682440610123	1.8057215346961834e-05
2
217600
Ar	-0.00019295710646459403	-0.00021372087615858045	0.0031928393800293663	-0.016588048131262165	0.015190144448137282	-0.00010301239580964466
Xe	9.532145856223341e-05	-5.44015780372988e-05	0.0027796830446457947	-0.003970362328026406	-0.0075761734469905525	3.452629858014935e-05
2
217800
Ar	-0.00028731049374656554	-1.5438203991377284e-05	0.0031922619931574686	-0.0012951086881698567	0.022451739551718	-1.2901623021420584e-05
Xe	3.2218190703047784e-05	-0.0001070380241367455	0.0027800923015239196	-0.008006982993998265	-0.0024382955050882577	3.781411441088394e-05
2
218000
Ar	-0.0002167571977171543	0.00019173104264963114	0.0031925220306691714	0.014691198125703754	0.016878500873208777	7.704780177577892e-05
Xe	-4.9250098191243586e-05	-9.828957006755967e-05	0.002780544561565759	-0.007451911823985152	0.00407500278178499	5.167251052859467e-05
2
218200
Ar	-2.2006019375206015e-05	0.0002889257960522027	0.00319349380625175	0.022292819761480075	0.0015644463074950131	0.00011433027073358743
Xe	-0.00010227749067278143	-3.345277668025868e-05	0.00278111120802962	-0.0026195280948603573	0.008230824664041753	7.490259855668093e-05
2
218400
Ar	0.00018543387049677632	0.00022039323772033177	0.0031945846964997002	0.017100697064083636	-0.014572643598566602	9.28623664212951e-05
Xe	-9.661644171700031e-05	5.034844536850835e-05	0.002781534579327887	0.003713148260686156	0.0076782096579998405	-1.4675171743226883e-05
2
218600
Ar	0.0002867559729762657	2.5707194234531084e-05	0.0031953932586538587	0.00212568865877703	-0.022375578607405053	6.225038826657199e-05
Xe	-3.543622806988866e-05	0.00010505454481852585	0.002781107890759499	0.007891941064473749	0.0026819616127116102	-7.581752724675306e-05
2
218800
Ar	0.00022363374020137173	-0.00018361734433941127	0.00319516047408926	-0.014123638114086451	-0.01734645841184423	-9.926874936425568e-05
Xe	4.60574374889278e-05	9.912742973553966e-05	0.002780221112512997	0.007551916333029686	-0.0038325136437881925	-9.859635215498562e-05
2
219000
Ar	3.186314646024623e-05	-0.0002871833929267574	0.0031935874496771426	-0.02226414612355279	-0.002311275400378628	-0.0001810922983550392
Xe	0.00010113621324782969	3.617202465365618e-05	0.0027793156606587713	0.0028900196806600086	-0.008127318262725485	-4.7819656311876554e-05
2
219200
Ar	-0.0001782025634118731	-0.00022591499891347176	0.003191983842672859	-0.017644841033532845	0.013954001149470062	-0.00012396954353129216
Xe	9.812178729783541e-05	-4.77804213830367e-05	0.002779048888091494	-0.003449043498605991	-0.0077942059494226935	-4.873448982947658e-06
2
219400
Ar	-0.0002864524180017474	-3.507108894741726e-05	0.0031914800231659848	-0.0028823974065420145	0.022280591396036113	3.193557943830628e-05
Xe	3.895080834524149e-05	-0.00010433703826263106	0.002779215246020629	-0.007795755353764705	-0.002939884018603373	5.584798372603319e-05
2
219600
Ar	-0.0002302851675842807	0.00017585591554523307	0.003192276943508374	0.01355218654808844	0.01777484193997674	0.00010991673276400034
Xe	-4.2470886207378265e-05	-0.00010100961741877767	0.0027801634737133333	-0.0076698966793379425	0.0035850383976995396	0.00013165218100096138
2
219800
Ar	-4.195028550640681e-05	0.0002858726290588988	0.003193693070317642	0.02222310089277152	0.0031011670798134564	0.0001577655500519455
Xe	-9.94449207050719e-05	-3.988296612416894e-05	0.002781483415825066	-0.00313379049662334	0.00801450468510315	9.844775511181295e-05
2
220000
Ar	0.00017057868615441945	0.00023196033286307	0.0031952096762481778	0.01812024041878787	-0.013345218278256885	0.00014400308706567143
Xe	-9.934500019337353e-05	4.380938889677008e-05	0.0027818894491590395	0.0031662994308618506	0.007872090327909585	-1.6349109643196834e-05
2
220200
Ar	0.00028510932362225895	4.4969453416703545e-05	0.003195880746431443	0.0035925069613899586	-0.022150170975609118	-1.2012682661872182e-05
Xe	-4.222113657704295e-05	0.00010251924360506328	0.0027813639956376355	0.0076854587910978045	0.0032581415953437925	-9.804403847505554e-05
2
220400
Ar	0.00023551420295739181	-0.00016768253715027855	0.0031950598292188504	-0.01302021325575353	-0.018218939462860666	-0.00014412924921561486
Xe	3.955659518680384e-05	0.00010222850760816478	0.002780309477336971	0.007839371452318616	-0.003332471784557683	-0.00010666719196331926
2
220600
Ar	5.057607810023573e-05	-0.00028374930353742596	0.003193263808551217	-0.02208525157503343	-0.0038286647976888332	-0.0001873709181551528
Xe	9.901333746976013e-05	4.263871723946868e-05	0.0027795611742644664	0.00344800805728249	-0.007962482205431897	-4.488015194689151e-05
2
220800
Ar	-0.0001632766471988446	-0.0002369676915934994	0.003191903278028891	-0.018524826041522027	0.012700519389889855	-6.71316718864355e-05
Xe	0.00010161545863239235	-4.131805786137638e-05	0.002779367726919788	-0.0029303767981326474	-0.007978203639092084	1.7074288257771615e-05
2
221000
Ar	-0.00028384174870478286	-5.4441563220904786e-05	0.0031917862532954686	-0.004368926626331664	0.021945639965597015	5.0822783990091964e-05
Xe	4.5883608842231345e-05	-0.00010153610286178576	0.0027798007543689777	-0.007632324768697502	-0.003444588402809313	7.741571476873385e-05
2
221200
Ar	-0.00024179379564926226	0.00015914880769725165	0.003192619104783729	0.012337530255931388	0.018597162323426387	9.095621393895577e-05
Xe	-3.6058839259117415e-05	-0.00010352006071820272	0.0027806296560342588	-0.007927010603840516	0.003057663790512856	9.893105250328142e-05
2
221400
Ar	-6.108161059766564e-05	0.0002813259343244759	0.0031938619518051634	0.021957518167458334	0.0045914699378174235	0.00016422707374390535
Xe	-9.73730330447331e-05	-4.6300412630452146e-05	0.0027816232377601514	-0.0036904489638943704	0.0077945786983785225	8.640587887066292e-05
2
221600
Ar	0.00015455909191326129	0.00024210106200974697	0.003195932333021621	0.018989669538619407	-0.012058875187595158	0.00019530404019783712
Xe	-0.00010290851477826785	3.738443266691072e-05	0.00278204275431686	0.002643980457284192	0.00808416787873523	3.58276944129226e-06
2
221800
Ar	0.0002813364394745289	6.371572481614106e-05	0.003196782464306857	0.005057891667516781	-0.021785768428654515	-6.206841438108705e-06
Xe	-4.939164195026135e-05	9.937377829080828e-05	0.0027813735370926028	0.007536203123441564	0.0037045728906192955	-0.00011319792276757318
2
222000
Ar	0.000246216962774273	-0.00015125650617673633	0.0031955032505870144	-0.011734672998252833	-0.01905034816806317	-0.0002324000263061533
Xe	3.287024603454545e-05	0.00010444151617946011	0.0027802525047788892	0.008081616924323668	-0.002740243388432672	-0.00012037907104328763
2
222200
Ar	6.961252065877968e-05	-0.0002798398869738491	0.0031927964557058545	-0.021797711930908428	-0.005357726131634738	-0.00028873992361763863
Xe	9.640013941285157e-05	4.964070163184318e-05	0.0027795457599304415	0.0039940991671934805	-0.007658809622238561	-4.1365361239073154e-05
2
222400
Ar	-0.00014720688993700642	-0.0002479627650388126	0.0031906805016507105	-0.01937521233412986	0.011399936979677597	-0.00011596941812615528
Xe	0.00010479576687284233	-3.337364537676921e-05	0.0027795856938708915	-0.002389998162231806	-0.008108672275341752	3.768428391774603e-05
2
222600
Ar	-0.00028001937325861987	-7.396176108822641e-05	0.0031907138658262314	-0.005836577491083666	0.021614409429035274	0.00010909043901700117
Xe	5.314380934322284e-05	-9.701483939546537e-05	0.002780149025129209	-0.007406330307745265	-0.003964943400063117	7.375237848921742e-05
2
222800
Ar	-0.0002524842544047006	0.0001422949859957754	0.003192644966603197	0.01107656129947701	0.019457864683800098	0.0002461020229184847
Xe	-2.8931203770578537e-05	-0.00010489301815705362	0.002780686042831904	-0.008175323955874633	0.0024662549475129706	4.389716991124641e-05
2
223000
Ar	-8.004453705340153e-05	0.0002768877137325634	0.003194901685631553	0.021659382848824866	0.00610715247752747	0.0002028057474589647
Xe	-9.4262448357194e-05	-5.261207179056186e-05	0.002781176717675777	-0.004208108859509894	0.007409765705700199	1.6229887961882327e-05
2
223200
Ar	0.00013829822498438187	0.00025275931600412155	0.0031960635944345895	0.019794585548380882	-0.010682796666064875	3.76660854209107e-05
Xe	-0.00010506544013626898	2.9294939945171272e-05	0.002780846785816175	0.0021649878627924535	0.008150542809396023	-7.670762792085378e-05
2
223400
Ar	0.00027702094063060525	8.367779032525327e-05	0.0031954202975161055	0.006551998981982011	-0.02140101169248326	-0.00015296376543141678
Xe	-5.5274550269808784e-05	9.432396860526488e-05	0.002780078018235338	0.0073122140996012535	0.004214892380222997	-7.666038696235815e-05
2
223600
Ar	0.00025666592002993017	-0.00013329115530758193	0.003193511669813152	-0.010425097722795089	-0.019775112204340126	-0.0002406380798662601
Xe	2.6508863836847778e-05	0.00010496074690548448	0.0027795635085365623	0.008227581647256258	-0.0021871092631970675	-4.099930612703394e-06
2
223800
Ar	8.92315187241634e-05	-0.00027348669837226006	0.00319172266476892	-0.02136654380330701	-0.006852957907361552	-9.685716487753579e-05
Xe	9.308942745978311e-05	5.521181276872179e-05	0.0027795767824676577	0.0044205126737977135	-0.007258257219004615	2.9384991515408523e-05
2
224000
Ar	-0.00012927768187028573	-0.00025708576454574404	0.0031917082964975415	-0.020117703172014913	0.00998890522998975	7.878424305033734e-05
Xe	0.00010638603916077458	-2.588137724909495e-05	0.0027797373491333017	-0.0019197784202240919	-0.008133927426974876	-6.826334167716094e-06
2
224200
Ar	-0.0002737356573516824	-9.308415386827739e-05	0.003193020401377814	-0.007317452165322085	0.021140936758788205	0.00018385025489796496
Xe	5.8743977999140036e-05	-9.202964258207498e-05	0.0027798795166854716	-0.007123306190323884	-0.004419226078963855	2.213192736263257e-05
2
224400
Ar	-0.0002611371418168059	0.00012417611839456765	0.003194823116038983	0.009689393582851522	0.020115471315070278	0.00014146434253486514
Xe	-2.2659936009793495e-05	-0.0001053875779700631	0.002780336870808221	-0.008317040999713836	0.0018682106769205614	3.4067728780712174e-05
2
224600
Ar	-9.898131180273576e-05	0.00026981998427913744	0.0031957328218404648	0.021122822845398334	0.007546146484302203	4.5099493745029125e-05
Xe	-9.104219999292234e-05	-5.8185534383743845e-05	0.00278068505982941	-0.004689596269933023	0.00706408142859455	2.025758594904824e-05
2
224800
Ar	0.0001202843932658314	0.00026027825159757856	0.0031957514021851642	0.020493387859595046	-0.009364809376503323	-4.409692317269182e-05
Xe	-0.0001074284463382953	2.221948831293175e-05	0.0027805884099926835	0.0015923321803405408	0.00822322049694644	-3.662181860099625e-05
2
225000
Ar	0.00027054521948865904	0.0001010747139734939	0.0031946898561819943	0.008036496231406303	-0.020879202930668434	-0.00011296342316783027
Xe	-6.194015836385894e-05	8.994291863877444e-05	0.0027801980278880797	0.0070410851616734	0.004629249803732048	-1.2474059418224894e-05
2
225200
Ar	0.0002653564031232869	-0.00011609066287991863	0.0031934174308832727	-0.009030952882577966	-0.020349467832733354	-0.00011373042599111263
Xe	1.944958656527797e-05	0.00010567994874908566	0.0027801747231005294	0.008434623280411254	-0.0016156106445724947	1.670877408883935e-05
2
225400
Ar	0.00010776370398150917	-0.00026641529963340857	0.003192688353733729	-0.02086325630349572	-0.00820735589541079	-2.0585341682640366e-05
Xe	8.988658633813638e-05	6.086689342500143e-05	0.0027802410591226557	0.004946546245414979	-0.0068942126888387415	-1.8247470639637027e-05
2
225600
Ar	-0.0001114726403616476	-0.00026390455295593844	0.0031931108866275542	-0.020761200884212343	0.008667789651091778	8.489624066046715e-05
Xe	0.00010884375199853335	-1.872885664412209e-05	0.0027797485828844576	-0.0013694139316803168	-0.008229517167020013	-5.564653010231666e-05
2
225800
Ar	-0.0002668859826942599	-0.00010970740980906278	0.0031942068802956356	-0.00871498108148379	0.02056925660898752	0.00010431173024257447
Xe	6.51457649720314e-05	-8.766185957284242e-05	0.0027792959412141585	-0.006920272239347034	-0.004858846848894507	-3.210071477060834e-05
2
226000
Ar	-0.0002688741002231007	0.00010738926453470273	0.0031947248105560553	0.008354016870044438	0.020649851578545594	-2.6906347940248027e-05
Xe	-1.6114187844955284e-05	-0.00010637788571492171	0.0027789498347616645	-0.008486163812575307	0.0013410521204723542	-2.1469505983755587e-05
2
226200
Ar	-0.00011642471921802335	0.0002630202091716295	0.003194347477439605	0.020565794204849074	0.008876803772873124	-4.9151986496960154e-05
Xe	-8.83540309427013e-05	-6.368555175564933e-05	0.002778903978985343	-0.005226790510070892	0.006754527071478093	1.0912576989232095e-05
2
226400
Ar	0.00010260008784121199	0.00026755768649822396	0.003194104580001822	0.021028562079412404	-0.008004692026672425	-3.1504851395797805e-05
Xe	-0.00011003125016372447	1.5780161899360886e-05	0.0027792483497386124	0.001119764543665366	0.008306740149290438	5.891206937975718e-05
2
226600
Ar	0.0002629312599169307	0.0001184965574118877	0.0031935786003190634	0.00940384773017089	-0.020294142992981993	-9.559653023471698e-05
Xe	-6.817008389001472e-05	8.643145693317742e-05	0.0027799573582840686	0.006817578520598553	0.00511190981460824	9.958821597292755e-05
2
226800
Ar	0.00027222533121301536	-9.863482852341809e-05	0.0031925612561314286	-0.007621225557595881	-0.0209238563898598	-8.115837405899675e-05
Xe	1.2808062309035095e-05	0.00010791903701807188	0.002780882513773899	0.008554140528874724	-0.0010306699425708275	8.836675595364307e-05
2
227000
Ar	0.00012518987531702022	-0.000259351566262975	0.0031920606820693485	-0.02027763305116177	-0.009555999381278187	8.57010258003213e-06
Xe	8.617145408855566e-05	6.781171226634831e-05	0.002781361111670946	0.005367493793653181	-0.006582702544935074	7.728893489356704e-06
2
227200
Ar	-9.383332515803156e-05	-0.0002714973877681498	0.00319278103092168	-0.021319405809000887	0.007278181421762913	0.00014747027099156024
Xe	0.00010971738933456614	-1.0800173269351768e-05	0.0027810975799515067	-0.0009085677717635298	-0.00834719257536925	-5.3153417062785136e-05
2
227400
Ar	-0.0002594080502124932	-0.0001280756068493284	0.0031943579704139485	-0.010093847830946736	0.019951191914458162	0.0001489052347191904
Xe	7.02539780928499e-05	-8.290846000828041e-05	0.0027804925390283934	-0.006594143393717447	-0.00534865738512307	-4.701514347259026e-05
2
227600
Ar	-0.0002759877396414989	8.863492444359748e-05	0.003195102792815276	0.006972461861537583	0.0212033868355527	6.2941797173960445e-06
Xe	-9.832703193173648e-06	-0.00010746149971045396	0.00277997846394319	-0.008597047350728746	0.0007065383576524895	-6.0328761581883206e-05
2
227800
Ar	-0.00013381615487812325	0.0002547775250287512	0.003194605819127095	0.02002241268043546	0.010325925723356652	-9.306785961850399e-05
Xe	-8.470959692095814e-05	-7.014296606306066e-05	0.002779600803522229	-0.005608128700939574	0.006355129982443774	-2.8297939927906644e-06
2
228000
Ar	8.523048986442268e-05	0.0002746509646148052	0.0031936921056811294	0.021554129462410566	-0.0065438056309369014	-8.08566736208103e-05
Xe	-0.00011090783541305191	7.289076189640209e-06	0.0027798646278939924	0.0006164995066608977	0.008351787566582926	3.765448493670139e-05
2
228200
Ar	0.00025537039866971957	0.0001367015284824695	0.0031930243516649476	0.010751766778950268	-0.01964753631118617	-4.345638071866614e-05
Xe	-7.365142697801015e-05	8.079406610479265e-05	0.0027805307582723982	0.006462513944699977	0.005543311260179468	7.627079127538728e-05
2
228400
Ar	0.00027882470880640707	-7.98508038723028e-05	0.0031929569699003834	-0.0062965745397982106	-0.021451864849113614	1.9956387469726134e-05
Xe	5.861214358762397e-06	0.00010761388845255545	0.0027809703098111895	0.008619299735350083	-0.00044701233901850174	1.3255973094106954e-05
2
228600
Ar	0.0001420211751142799	-0.0002506906842823679	0.0031934212878349188	-0.019670480890093135	-0.010984426110669271	8.807641208964274e-05
Xe	8.18876203579969e-05	7.280001087404263e-05	0.002780992748659582	0.005790316362600083	-0.0061560194421873046	-8.610276642465125e-06
2
228800
Ar	-7.623432654557244e-05	-0.00027813208729665997	0.0031944422260323604	-0.02175337866574761	0.005783962656463972	0.00010342395263468075
Xe	0.0001108195501047352	-3.642481617053774e-06	0.002780558267572777	-0.0003061373944518494	-0.00837352201401039	-6.418568055686329e-05
2
229000
Ar	-0.00025080810899602134	-0.00014617036936405737	0.0031947735118174553	-0.011384767429988082	0.019259339926774234	-2.1289367822138476e-05
Xe	7.62929190013959e-05	-7.829130642553668e-05	0.002779955532790788	-0.006268502755994418	-0.005805393878965599	-2.1805555613778624e-05
2
229200
Ar	-0.0002813968725840054	6.970467406480744e-05	0.003194276764132358	0.005557577705226444	0.02170490158185025	-7.875619127009772e-05
Xe	-2.3125061793733073e-06	-0.0001079136314321787	0.0027798745614968073	-0.008642082248813953	0.00018400229058293635	1.926484042176968e-05
2
229400
Ar	-0.00015063479769725948	0.00024554804068454953	0.0031934975589946618	0.019282243027500763	0.011677762014218513	-7.81559465445903e-05
Xe	-7.958370670231922e-05	-7.51611483677851e-05	0.0027802110342644115	-0.006021474981514515	0.0060144953026216195	4.7687000339042934e-05
2
229600
Ar	6.653172451708453e-05	0.00028041474213374	0.0031928494250993847	0.021939449522047134	-0.005064213140457829	-5.528199078594534e-05
Xe	-0.00011104374603238919	9.363675212203781e-07	0.002780287711276425	4.2248122729991886e-05	0.008424003630293738	-1.2057566389651549e-05
2
229800
Ar	0.00024538295008322275	0.00015418560861461431	0.0031925966599064175	0.012015736730271155	-0.018909455234893884	-8.280377505124978e-06
Xe	-7.875285863335367e-05	7.636020740208873e-05	0.002780279547230282	0.006077055472353822	0.005933056190108762	1.3801328106487996e-06
2
230000
Ar	0.0002830706382665465	-6.061600526344232e-05	0.003193012977110595	-0.004809259223839211	-0.021862729309468226	7.4502164662625e-05
Xe	-1.5230816680964195e-06	0.00010805585799580543	0.002780321119298998	0.008616269279253366	6.815131146420236e-05	3.030122566154933e-06
2
230200
Ar	0.00015865429343633948	-0.00024046980360643697	0.0031941398426137304	-0.018826569232780536	-0.012278227544944774	0.0001339830433159827
Xe	7.646247713319821e-05	7.777460959308137e-05	0.0027802937744109265	0.006192109585394955	-0.005787711375672957	-8.252910227022801e-06
2
230400
Ar	-5.680608679670602e-05	-0.0002824528720083569	0.003195069159972061	-0.022073509172561283	0.0043331676160418015	3.731746527301815e-05
Xe	0.00011035166519260942	3.254811622253084e-06	0.002780051093774817	0.00024266572149783439	-0.008357104244187204	-3.952304448985435e-05
2
230600
Ar	-0.00023979575008356804	-0.00016224779360536862	0.0031945993374273584	-0.012656142376608977	0.018493324532703557	-0.00011654288658455541
Xe	8.061639789308842e-05	-7.316258749411479e-05	0.0027798128060662957	-0.005872707630045916	-0.006139224631106589	-5.3409609202600254e-06
2
230800
Ar	-0.0002849042105810179	5.1298768726575765e-05	0.0031932598572657657	0.004066122226826032	0.022017812691558763	-0.00012835388835521604
Xe	4.473918674403032e-06	-0.00010753344042955104	0.0027802664059095564	-0.008598646239047854	-0.00036968919408137145	6.20996514053906e-05
2
231000
Ar	-0.0001667733475391805	0.00023547544257815012	0.003192430899415673	0.018360571382428432	0.012941937653773163	-3.240680868041366e-05
Xe	-7.441176730579166e-05	-7.99111139420337e-05	0.0027806565293600734	-0.006377076513850354	0.005589346483987085	7.568345378518725e-06
2
231200
Ar	4.6914683801089494e-05	0.00028488206885465703	0.003192552414475929	0.022186536534291933	-0.003564789350131335	8.89864391963366e-05
Xe	-0.00011059784429136524	-6.651019852043231e-06	0.0027804579637164327	-0.000509277899577961	0.008318215292019138	-4.7389612477949654e-05
2
231400
Ar	0.00023365716336967002	0.00017074974376339496	0.0031937674122416407	0.013257062908055945	-0.018098467301823486	0.000137029826787324
Xe	-8.36861684365558e-05	7.016199802184727e-05	0.0027799574982677647	0.00563848423316589	0.006274510117184681	-5.5801276409314785e-05
2
231600
Ar	0.0002863682978261015	-4.1476367824062794e-05	0.0031951494197933737	-0.003274849414721876	-0.02219177943682956	0.00010700421274252343
Xe	-8.575081168519646e-06	0.0001065808788491819	0.0027793516041371663	0.008638354465691172	0.0006439646112114013	-5.002737531832965e-05
2
231800
Ar	0.0001748192295203226	-0.0002298743513893285	0.0031957956619979608	-0.017894003863233053	-0.013528179544564235	-1.1153986636469573e-05
Xe	7.186473201357576e-05	8.171365601436457e-05	0.0027791903020065152	0.0066204959805866055	-0.0053732715142103815	1.601517850125708e-05
2
232000
Ar	-3.680874503628794e-05	-0.00028593541118693516	0.0031949434042004643	-0.02225958319145107	0.002884937314706354	-0.00016695566044578074
Xe	0.00011085528983469969	9.373306773249476e-06	0.0027796239570687803	0.0007990121654709357	-0.008339963513909672	5.664075884293733e-05
2
232200
Ar	-0.00022712974011351321	-0.0001776493856781169	0.0031930380958351498	-0.013888515087835764	0.017646829724703963	-0.00017403035291039252
Xe	8.640691295000285e-05	-6.857711518206589e-05	0.0027804023038308654	-0.005445469641827691	-0.006450183634066327	7.882267154372285e-05
2
232400
Ar	-0.0002870194532370199	3.259138969466198e-05	0.0031919152978614387	0.0024906695154353776	0.022249789854621567	-5.8673714965526214e-05
Xe	1.2501550339389472e-05	-0.00010711262282589851	0.0027810043365136183	-0.008547886084584894	-0.0008789550592152995	4.3027904023496903e-05
2
232600
Ar	-0.000182294000014963	0.0002242038716149378	0.003192091305101131	0.017382201134727913	0.01410767942366215	0.00010305723774203595
Xe	-6.80535807142748e-05	-8.442177545487698e-05	0.002781058124114703	-0.006748377396908994	0.005163203273093432	-3.7982026640415476e-05
2
232800
Ar	2.6884405685550327e-05	0.00028713937782909104	0.0031939555527530127	0.022318489800800954	-0.0021583016372534168	0.00023726609071075092
Xe	-0.00010972329338259116	-1.3520094904313523e-05	0.002780631726359796	-0.0011602628911498469	0.008293804564861292	-4.1161853328385696e-05
2
233000
Ar	0.00022060994140620134	0.000185139852380608	0.0031960775592916033	0.01444041058217389	-0.017209521230992994	0.00013440167179896067
Xe	-8.865371433513107e-05	6.5255266506484e-05	0.0027802051393286836	0.00515264774891829	0.006665832614013129	-3.0691110034426505e-05
2
233200
Ar	0.0002873796053082455	-2.3372671496168104e-05	0.0031963815295296414	-0.0017616949807433093	-0.022354818244237358	-6.435988716705167e-05
Xe	-1.6541415535841928e-05	0.000106665433412063	0.0027800377270975965	0.008533263375383505	0.0011758947365089851	3.239765978414229e-06
2
233400
Ar	0.00018915618471430627	-0.00021814466156566063	0.0031951444128791866	-0.016852967304795345	-0.014641178694276977	-0.00017616696111466567
Xe	6.538143603170924e-05	8.665572676333955e-05	0.0027801065876482977	0.007029748936848747	-0.0049754919320059	1.668841896264329e-05
2
233600
Ar	-1.729380347534825e-05	-0.0002876627112864033	0.003193079805659059	-0.022358950745465296	0.0014236921935056512	-0.00019822228352163
Xe	0.00011012779619051597	1.6719232092266684e-05	0.002780234921359052	0.0014797287477434655	-0.00828296885585452	1.219090926200872e-05
2
233800
Ar	-0.00021408324168394258	-0.0001921909050620243	0.0031913635576021615	-0.014978795838109486	0.01667967236284757	-0.00010597440753416844
Xe	9.219900609193868e-05	-6.272004527489806e-05	0.0027801704501373126	-0.004887296183301297	-0.006797363252447219	-1.5654354167845197e-05
2
234000
Ar	-0.0002880718470275408	1.3304422737790113e-05	0.0031911796947207394	0.0009338905060759355	0.02234366890853318	5.9676685392541525e-05
Xe	2.2060459137039578e-05	-0.00010609197176658365	0.0027799996258444115	-0.00844222076019039	-0.0014299832767420224	-1.4422246242778657e-05
2
234200
Ar	-0.00019701249890716045	0.0002112614435748947	0.003192310422096434	0.0163580992502474	0.015244477987075008	0.00016772933891788348
Xe	-6.044450657670638e-05	-8.867851905259585e-05	0.0027798834400813927	-0.007237192210547531	0.004721784325479942	4.832041518430403e-06
2
234400
Ar	7.079938273192368e-06	0.00028826886454471094	0.0031942927275773426	0.02237994421650518	-0.0006481805216654576	0.0001882377975305274
Xe	-0.00010845777990772818	-2.073504358984228e-05	0.0027798255042027643	-0.0018840924844441968	0.008181388720355126	2.4399722981098005e-05
2
234600
Ar	0.00020675506221493682	0.00019965870583437456	0.0031959563607480306	0.01554364515845805	-0.01617464313576803	0.00011734987310196829
Xe	-9.416197595450712e-05	5.9151444346819576e-05	0.0027801716953846723	0.004573214681530689	0.006980071359838385	5.3488370229098274e-05
2
234800
Ar	0.0002875287248724178	-3.4549748281719906e-06	0.0031963108009640563	-0.00018852365984107746	-0.02238878942445607	-4.367000682581522e-05
Xe	-2.5791685223019226e-05	0.00010531134827007652	0.002780771134157451	0.008440016827407087	0.0017534109860385442	4.810174009648281e-05
2
235000
Ar	0.0002029398956522105	-0.0002043851234177432	0.0031952826412723137	-0.01588956538250423	-0.015747021670120053	-0.00014690374340554062
Xe	5.779402875422384e-05	9.096703103259743e-05	0.002780910563034124	0.007430065582334149	-0.004489776616299176	-1.1178131303366118e-05
2
235200
Ar	1.117054226267289e-06	-0.0002877786781737427	0.0031935501888853556	-0.02241963928377367	-8.004627411540512e-05	-0.00014404443845997446
Xe	0.00010796694970533711	2.4239019903456317e-05	0.0027804252807402145	0.0021085815716652833	-0.008168146764020556	-8.675053738068912e-05
2
235400
Ar	-0.0002013582612807295	-0.00020617843303040066	0.0031926030531224557	-0.016044125728663063	0.01557888907178211	-6.934381204693394e-05
Xe	9.606996341023504e-05	-5.612223810511291e-05	0.002779716036002431	-0.0043480996350951815	-0.007090406030628074	-5.837067426256148e-05
2
235600
Ar	-0.0002885113056098461	-6.437203428755427e-06	0.0031923218756078307	-0.0004937565679986888	0.022337085891496366	1.0057530212677317e-05
Xe	2.9316697625276674e-05	-0.00010431103760662525	0.002779621945122207	-0.008312580042779492	-0.002044920604458831	2.7949947814299623e-05
2
235800
Ar	-0.00021013475621520718	0.00019681240773899116	0.0031931194500788816	0.015374981874471725	0.016251401833820664	0.00012939843145225768
Xe	-5.408181285498659e-05	-9.288891644880208e-05	0.002779968566306102	-0.007495802314454925	0.004209129545792542	2.0279699990891687e-05
2
236000
Ar	-1.0985602662257674e-05	0.0002871259737003246	0.0031947682373218043	0.022424175237703802	0.0008693676095227538	0.0001688336269720418
Xe	-0.00010604358495638417	-2.818496197982947e-05	0.0027798066275305316	-0.002360711636810918	0.008105871774407232	-4.361160749018982e-05
2
236200
Ar	0.00019460788514461037	0.00021262729986307245	0.0031961011554463114	0.016582095942311487	-0.015006722976015047	6.36356375390851e-05
Xe	-9.69752992148628e-05	5.3167468748371743e-05	0.002779625487417781	0.004106449758172222	0.007306247412330903	-9.09271000855532e-06
2
236400
Ar	0.0002882891202706362	1.6258174240275246e-05	0.0031958574519337993	0.0011808161688073096	-0.02225693172483179	-0.00011863405413939208
Xe	-3.183626977514027e-05	0.00010377158135198518	0.0027796689024044774	0.008252234289897055	0.002289138525368904	1.95448000255355e-05
2
236600
Ar	0.0002163236746228616	-0.00018931299203251003	0.0031941896780994217	-0.014851370185287597	-0.016752030253713256	-0.00016795328189077817
Xe	5.159668681829649e-05	9.444807960454816e-05	0.002780375122392382	0.007608000420856885	-0.004049940983925729	7.431443829892385e-05
2
236800
Ar	2.015585697493593e-05	-0.00028629174488311416	0.003192916084844713	-0.022400245795059212	-0.0016672745830390863	-6.663310409218693e-05
Xe	0.00010565305425996851	3.09879107068641e-05	0.0027805921576523787	0.0026512594439871634	-0.008014001087829455	-1.7199282886619304e-05
2
237000
Ar	-0.00018766707385326715	-0.00021925195706251315	0.0031926161943345126	-0.017060000256344496	0.01440261827433501	-2.6176824894808808e-06
Xe	9.914700538213153e-05	-5.0141401244074485e-05	0.0027800231821162365	-0.0038611511943635415	-0.0074127951840206934	-0.00011930043747476906
2
237200
Ar	-0.0002879526718819688	-2.612633699382747e-05	0.003192714496448495	-0.0019589169197625667	0.02223218707367328	-1.2288591697438707e-05
Xe	3.6020778735033425e-05	-0.00010252962231881132	0.002779004500352985	-0.008135297312504787	-0.0025413531225128103	-9.560475230190298e-05
2
237400
Ar	-0.00022312814493264773	0.00018184032959862233	0.0031927013287788423	0.014266960249418835	0.017258819137045776	2.8193589753646867e-05
Xe	-4.7968228981127454e-05	-9.610665574128464e-05	0.0027783679985665956	-0.007820176213460976	0.003765718028707996	-3.97432335447661e-05
2
237600
Ar	-3.0484477123083726e-05	0.0002851998831914776	0.003193320880151512	0.022330233069827354	0.0023762005288709503	0.00010820336831027596
Xe	-0.00010465165148954123	-3.430489826223388e-05	0.002778371463642333	-0.0029579927340918793	0.007984089331699197	4.2689766220392924e-05
2
237800
Ar	0.00017969757666372083	0.00022469403499591768	0.0031944680659793732	0.01756220600288267	-0.013867499546868516	9.241713263384933e-05
Xe	-0.00010124970791250706	4.763226406120976e-05	0.002778924990431687	0.0035997328260787866	0.007587322331588918	8.446818389494275e-05
2
238000
Ar	0.0002864259522288054	3.510776795089462e-05	0.0031949228807317837	0.002691290429037833	-0.0221047786458572	-1.3330910336616906e-05
Xe	-3.9733310143251325e-05	0.00010230663828799668	0.0027800344851840264	0.008104445143248581	0.0028078997086560253	0.00012716614906069934
2
238200
Ar	0.00022853152656530465	-0.0001743596364395614	0.003194320107178639	-0.013668344935715223	-0.017659921335132524	-8.254776270500871e-05
Xe	4.4887993402651533e-05	9.84154320264236e-05	0.002781690460786188	0.007938418657770258	-0.0035389651693225116	0.0001298714363281387
2
238400
Ar	3.954909820102028e-05	-0.00028387341342472325	0.0031938314096279577	-0.022201673934193093	-0.0031453724765693994	-1.121316362617172e-05
Xe	0.00010360111650463596	3.8445641901689045e-05	0.002782151568137436	0.0032200141148532404	-0.0078377243393869	-3.067786717876631e-05
2
238600
Ar	-0.00017232082816373922	-0.00023085954986410713	0.0031938635647994367	-0.018040341870193075	0.01322100736843955	2.408188359341092e-05
Xe	0.00010290184012827346	-4.31933880018955e-05	0.0027811547670276646	-0.0033482508226470326	-0.007650799478755402	-0.0001380327673803998
2
238800
Ar	-0.0002856511743853162	-4.529975596850156e-05	0.0031940189899751417	-0.0034618054949468982	0.021989955472255407	2.22878762405223e-05
Xe	4.311972118484952e-05	-9.976997628489329e-05	0.0027798667885432743	-0.00803184065828636	-0.0031104280355198697	-0.00011394808747377585
2
239000
Ar	-0.00023498553536984207	0.00016593559608356784	0.003194093096469844	0.013094380543348577	0.01811308342326078	-4.731506688795566e-06
Xe	-4.167429899741874e-05	-9.902292102254716e-05	0.0027788125329095024	-0.008085496374414107	0.003226176402327455	-9.147655628454465e-05
2
239200
Ar	-4.9514909523671276e-05	0.00028198098445945323	0.00319392482489186	0.022121609889764426	0.003910919293060201	-9.938656371524148e-06
Xe	-0.00010266304534552976	-4.161219916464013e-05	0.0027782481401164437	-0.0034968292356898872	0.007665471388295324	-2.011235767624651e-05
2
239400
Ar	0.00016426389604401234	0.00023623749486324517	0.003194013670929092	0.018448572208126738	-0.012603203955947976	2.326811950277796e-05
Xe	-0.00010472137200719233	3.947287430512198e-05	0.0027784836164617206	0.0031533464048170033	0.007720235345831715	7.773693627749232e-05
2
239600
Ar	0.00028370644389687975	5.488620265979413e-05	0.003193946186801039	0.00422338991209281	-0.021839429220275753	-4.56669242575991e-05
Xe	-4.6180595346303785e-05	9.778823506331104e-05	0.0027798844803203983	0.007968769282544447	0.003327425707982717	0.0001757065280046444
2
239800
Ar	0.00024049305709445318	-0.0001580761454985517	0.003193231069357164	-0.01241699721607368	-0.01858419490755583	-7.270748866835869e-05
Xe	3.8988585040838495e-05	9.959617970033474e-05	0.0027813660706366657	0.008200552621283493	-0.0029757707431352703	0.00010164366000023288
2
240000
Ar	5.9368521601601285e-05	-0.00028065084177577606	0.00319282399125303	-0.02196253317767326	-0.004695088298467994	-9.651656720200937e-06
Xe	0.00010186310113013267	4.449233262146093e-05	0.002781819513986491	0.0037172602508121285	-0.007486106431085047	-2.1065896644141282e-05
2
240200
Ar	-0.00015606177456800504	-0.00024260567519805427	0.003192919855165482	-0.018898455181255734	0.011936879871938191	3.5541507304357916e-05
Xe	0.00010592905069512409	-3.5710748467002544e-05	0.0027810784783591537	-0.002915882800678006	-0.007738257094453028	-0.00010181998284850055
2
240400
Ar	-0.0002817633777543423	-6.506604566108891e-05	0.003193277466337905	-0.0049768895615298426	0.021733676704610353	4.234738634355402e-05
Xe	4.918421205269123e-05	-9.514560335799764e-05	0.0027800917946370135	-0.007857208866167864	-0.0035477987121860944	-9.281563846748664e-05
2
240600
Ar	-0.00024577727077746314	0.00014960652809765715	0.0031938658927291716	0.011787694349420112	0.019030409860632983	6.4798003297441e-05
Xe	-3.586129463267364e-05	-9.97905715675822e-05	0.002779274944063763	-0.00828687639803955	0.002642613640229938	-8.105829924621697e-05
2
240800
Ar	-6.907057226457739e-05	0.00027834150134341414	0.0031945548434470995	0.02178134032043833	0.005413694456256324	7.192339279502773e-05
Xe	-0.00010015827760619001	-4.7470139562030475e-05	0.002778367571174559	-0.003948599573750281	0.007306523902495501	-8.541724736709856e-05
2
241000
Ar	0.00014748934119167962	0.00024726683662705355	0.0031949057112774623	0.019326763017507055	-0.011331082456417025	-2.6193267102875904e-05
Xe	-0.00010678638945082515	3.230937679533808e-05	0.0027780930749776917	0.002694304039662965	0.007839223963152292	3.7579173496202906e-05
2
241200
Ar	0.00027932116458093175	7.389035574679187e-05	0.003194066532847979	0.005716079662325261	-0.0215705982318934	-0.0001050101030000418
Xe	-5.16794360077102e-05	9.40356606842866e-05	0.0027790622759273757	0.007789043860705243	0.003877006995195825	0.00015713872041183481
2
241400
Ar	0.0002508956100330599	-0.00014199221800254702	0.003193149388413241	-0.011097673266768382	-0.019410507699129522	-6.318385432687805e-05
Xe	3.332899434306298e-05	0.00010217811267995765	0.002780615312073901	0.008347592050564484	-0.0023308931142121798	0.00013155736306726552
2
241600
Ar	7.86047298530181e-05	-0.00027674967324622934	0.0031931201914266465	-0.021625834103481723	-0.006162642215108493	4.663326671327893e-05
Xe	9.906561175943802e-05	5.1882376124329824e-05	0.002781458710819107	0.0041202492023082495	-0.007208437481568956	4.693572893332551e-05
2
241800
Ar	-0.0001391875051794881	-0.0002527669276159854	0.0031938911804637645	-0.01972276432862006	0.010717738031494848	0.00010158334483605264
Xe	0.00010771918684040588	-2.7979577566767234e-05	0.0027815861424291925	-0.0024554389425091674	-0.00794395592502849	-8.586786545673331e-06
2
242000
Ar	-0.0002770910899387775	-8.363625992342292e-05	0.0031945757757326715	-0.006450298404879237	0.02140772775853686	3.2443388233495395e-05
Xe	5.4738930052454576e-05	-9.173736250597765e-05	0.0027812656990358646	-0.007594828797963271	-0.004155093255116038	-4.1859125183857936e-05
2
242200
Ar	-0.00025573279675001205	0.00013346025608689752	0.0031947856969009583	0.01050886806374091	0.01981992244204971	7.1462185390018905e-06
Xe	-2.9531702823184432e-05	-0.00010294304019831831	0.0027804872708628208	-0.008410541700707121	0.0020169239373602353	-0.00011545037092403122
2
242400
Ar	-8.750035530200685e-05	0.0002740153913116011	0.0031947674800778545	0.0214277307900863	0.006858961945353179	-3.0070394329645876e-05
Xe	-9.675015053685724e-05	-5.5134979792629006e-05	0.002779045421727081	-0.00436030517129302	0.007061512350538809	-0.00013786526358667658
2
242600
Ar	0.00013111898122486273	0.0002571701146755376	0.0031941530669242105	0.02005804705709309	-0.010061341960983773	-9.61289399180717e-05
Xe	-0.00010825540767664238	2.4814793751974782e-05	0.002778316939191663	0.0021815951683752527	0.008103185374531688	-9.562570261106661e-06
2
242800
Ar	0.00027429674400661493	9.26992068896138e-05	0.0031930443526538167	0.007117923304622695	-0.02117005206312891	-0.0001021880221677519
Xe	-5.754777031130025e-05	9.100765391319424e-05	0.002778894027114801	0.007464251178035074	0.00443994549014116	0.0001214635675085225
2
243000
Ar	0.0002599511977899232	-0.0001248522381570089	0.003192340295160522	-0.009861776883316147	-0.020139437806282783	-2.591985929505509e-05
Xe	2.6319446699647453e-05	0.00010500905258172646	0.002780087795370895	0.008468764948097849	-0.0017697806044901566	0.0001060196686046762
2
243200
Ar	9.63380131178071e-05	-0.0002706103594944127	0.003192802881340324	-0.02119881439730972	-0.007524532213811065	9.417590871802269e-05
Xe	9.517957340917476e-05	5.915541556867868e-05	0.002780793928680783	0.004595955540495539	-0.006932940918172408	3.566668991832232e-05
2
243400
Ar	-0.00012275467361654783	-0.00026109414516034557	0.0031938219751752577	-0.02036609763714703	0.009332956232043032	8.427471600309106e-05
Xe	0.00010927576825994168	-2.0434714408796096e-05	0.0027810184400138636	-0.001933614615394516	-0.008185471448686582	1.0302022120621013e-05
2
243600
Ar	-0.00027133134583552903	-0.00010210383939040286	0.00319456770868682	-0.007833001179186307	0.020849818433573617	6.118581769745135e-05
Xe	6.053755547270655e-05	-8.8557755395276e-05	0.0027810658242005864	-0.007320681140633726	-0.004732916618747486	-2.5797446705574977e-06
2
243800
Ar	-0.0002639482000330106	0.00011530322000257501	0.0031948309087170266	0.009238260415261294	0.020424541958429264	2.0849771939908e-05
Xe	-2.2812053666703576e-05	-0.0001059466620825082	0.002780738382480253	-0.008505090795317315	0.0014320456880902797	-6.633350599426553e-05
2
244000
Ar	-0.00010489461965444381	0.0002666236031075464	0.003194907961552573	0.02097866908699789	0.0083026731047155	-1.900153953249555e-05
Xe	-9.297434253647757e-05	-6.230243289303617e-05	0.0027798274562803047	-0.0047950628822428145	0.006843285247101125	-9.54213675216564e-05
2
244200
Ar	0.00011443781283800447	0.0002650784116524114	0.0031943743241084218	0.02064762937738695	-0.008620506163294982	-8.617473624425264e-05
Xe	-0.00010948444810424315	1.7237812429294135e-05	0.0027789021457578734	0.0016510630500398864	0.008265209091770325	-5.599086948340456e-05
2
244400
Ar	0.0002676165203236522	0.00011122986329120419	0.0031928379892551067	0.008461569844334185	-0.020587139354577563	-0.00017119931084774929
Xe	-6.301310729885506e-05	8.694773833510773e-05	0.0027787069756623987	0.0071672811881766905	0.004956658432287344	6.790225530250675e-06
2
244600
Ar	0.0002674691168091237	-0.0001063029187435085	0.0031915648911294723	-0.008479582922757588	-0.020705835419632817	-6.458336425765331e-05
Xe	1.974562521364745e-05	0.00010671866975463449	0.0027791612657606553	0.008538825439562912	-0.0012132633123481558	7.045513744553472e-05
2
244800
Ar	0.00011446462496630766	-0.0002627136710641912	0.003191909734020284	-0.020585640449446455	-0.008989008644982328	0.00010450763723926482
Xe	9.097421812954409e-05	6.525208133423521e-05	0.0027799296263116033	0.005004184961467653	-0.006636539332542115	7.82774484521071e-05
2
245000
Ar	-0.00010433562112102755	-0.00026837183946591637	0.0031934343981119785	-0.020957997377468	0.007931676849426854	0.00017704360748953856
Xe	0.00011009570708618056	-1.3246204489538937e-05	0.0027805930775023397	-0.001373323632434308	-0.008272528095775208	4.25320394667724e-05
2
245200
Ar	-0.0002633155344089344	-0.0001199994530091803	0.0031951535854722467	-0.009233443323301387	0.020247790406603395	0.0001498062411608151
Xe	6.60055728700548e-05	-8.401493223708242e-05	0.0027812331396673564	-0.006977530301571248	-0.005150544774930179	6.458399552775131e-05
2
245400
Ar	-0.00027121519250013573	9.696503980766636e-05	0.003196291177934051	0.007747858546754041	0.0209288822720222	5.821651577753779e-05
Xe	-1.597406183771661e-05	-0.00010637732794570176	0.0027815024038189947	-0.008580416856345998	0.0009097255284614008	-2.5160792999337765e-05
2
245600
Ar	-0.00012340249267572579	0.00025809440131970777	0.003196049887454768	0.02030476844037325	0.00968331670441342	-0.0001068284191014979
Xe	-8.894464442594187e-05	-6.76483693813459e-05	0.0027805283209530684	-0.0052616473586683	0.00647619535384663	-0.0001258712807554172
2
245800
Ar	9.529761893989141e-05	0.00027139303890344436	0.003194234394334266	0.021208495480822456	-0.007162036263463087	-0.00023403487416318822
Xe	-0.000110997924425047	1.0240458776314327e-05	0.002779190584775144	0.0010597133817934435	0.008325150867054789	-0.0001417905665188131
2
246000
Ar	0.00025932139437214135	0.00012883938712146992	0.003191978580731904	0.009902301758308248	-0.01989906004283644	-0.00019824114014501028
Xe	-6.954168845092831e-05	8.24399025289684e-05	0.0027781929571266176	0.006795202982260188	0.005407226893805856	-4.825938524867785e-05
2
246200
Ar	0.0002746235341907776	-8.76698646837954e-05	0.003190821348655466	-0.007026361011002308	-0.021200136425481297	-4.3472618198949695e-06
Xe	1.1568760981817186e-05	0.00010759869999006732	0.002778193244018003	0.008589804168572345	-0.000618466645455322	2.0435215864205156e-05
2
246400
Ar	0.0001324368546767121	-0.0002540163978096867	0.003191986902180107	-0.019954146309968206	-0.010378345094976968	0.00020136954802642908
Xe	8.599814966026942e-05	7.119070587093321e-05	0.0027788051240847764	0.005537747100503067	-0.006288799288639782	0.00010693908065776163
2
246600
Ar	-8.581807304211245e-05	-0.0002747961377105002	0.0031942140141524157	-0.021483171862153667	0.006446761001375821	0.0002277927923955633
Xe	0.00011124927488514438	-6.032436836810288e-06	0.0027798619897772083	-0.0007460819470836337	-0.00837166247576361	0.00010117569704976076
2
246800
Ar	-0.0002548241076226884	-0.000137584929467356	0.0031959054735702336	-0.010601481616068822	0.019589396759359043	0.00010062376405032231
Xe	7.238267736523621e-05	-8.015684917261093e-05	0.002780957824779164	-0.006612288381464738	-0.00568608837172532	0.00010632981401369143
2
247000
Ar	-0.00027729737493396796	7.854708346777468e-05	0.0031958244437858816	0.006341652812921959	0.021446285433966615	-9.692963175977638e-05
Xe	-8.003894908906575e-06	-0.00010866551225480992	0.0027814487294414185	-0.008648596273082416	0.00027001543196760694	-2.911242250848046e-06
2
247200
Ar	-0.00014036667732804858	0.00024962305653116883	0.003194381353262843	0.019659749279718686	0.011030337683564123	-0.00015950882832981621
Xe	-8.365029753531174e-05	-7.482909851089837e-05	0.002780781909039954	-0.005706548478301098	0.006153803822385655	-0.00013543403489994167
2
247400
Ar	7.744198437058132e-05	0.00027733116479803244	0.0031928595488790123	0.021693277589846082	-0.00575818117850216	-0.00013593146300842703
Xe	-0.00011124844745115621	2.28990146800238e-06	0.002779405360754621	0.00046833370636367494	0.008473521386757981	-0.00011861795551943923
2
247600
Ar	0.0002508973516059292	0.00014569919891700418	0.003191820039282839	0.011229491319534	-0.01923813496606987	-4.35512043174777e-05
Xe	-7.4852342837322e-05	7.800872547281114e-05	0.0027788615223594258	0.006450778348237779	0.00593116949689975	-2.7182736335093525e-06
2
247800
Ar	0.00028004037828300524	-6.967122861808916e-05	0.003192050969079068	-0.005684876548101349	-0.021672278656691954	8.06665301532639e-05
Xe	4.590241102897368e-06	0.00010907769173822685	0.0027789169850522696	0.008635637922702015	-4.8485507693111293e-05	3.7131537316712866e-05
2
248000
Ar	0.00014838985410362785	-0.0002450322147018099	0.003193248801303319	-0.019309239456731436	-0.011642455774058732	0.00015648094710663638
Xe	8.105932047251833e-05	7.737841722732406e-05	0.0027793144669164224	0.00590373437000258	-0.0059576566419646025	5.5838923958419645e-05
2
248200
Ar	-6.827793694180075e-05	-0.0002795965912674576	0.003194954150893966	-0.021829016663241715	0.005094293323288993	0.00013837021531608082
Xe	0.00011103607925611285	1.4139590164740546e-06	0.0027801017784230167	-0.00019891568653727132	-0.008469200627223354	9.821559523216433e-05
2
248400
Ar	-0.00024559758369507883	-0.0001532754207389684	0.003195751415756428	-0.011838973870657155	0.01888139616494862	1.9069998575104356e-05
Xe	7.714156951773066e-05	-7.54881692229145e-05	0.0027809910939228244	-0.0062219878882425975	-0.006112328625131891	6.685005857082346e-05
2
248600
Ar	-0.0002818169921133484	6.110659326515981e-05	0.00319524913783319	0.004960235301435071	0.02181865362933429	-0.00010079853063469541
Xe	-1.157945625079556e-06	-0.0001091266267953039	0.0027811978554471172	-0.008622035262190108	-0.00027843345277194756	-2.2995045485292588e-05
2
248800
Ar	-0.00015619366156915742	0.0002405745781363514	0.003194000912377147	0.018865508076868164	0.01225223603102517	-0.00014081895732071304
Xe	-7.86640270505643e-05	-8.028324657311439e-05	0.002780490335575513	-0.0060776878395471115	0.005770805462725341	-0.00010134367316326849
2
249000
Ar	5.9249816792581035e-05	0.0002820710909429356	0.0031926432267634975	0.02200951798200233	-0.004369851552352402	-0.0001327664081900913
Xe	-0.00011112838357765365	-5.256127762448962e-06	0.0027794076114922824	-8.018278817722722e-05	0.008496792233893387	-7.845314592870979e-05
2
249200
Ar	0.00024054672368270728	0.00016193684501141065	0.003191584240030985	0.012413237336936144	-0.01846000942367278	-6.0512265541893344e-05
Xe	-8.014126924503662e-05	7.285834985838628e-05	0.0027791667187593385	0.005952899562079772	0.006334423275368261	2.9873156061030777e-05
2
249400
Ar	0.0002833987851353816	-5.120454910164945e-05	0.003191867999882812	-0.004254241640260485	-0.021998945811709185	0.00012480150721876264
Xe	-3.6481697710650413e-06	0.00010909738942881701	0.0027797288660903704	0.008558925930640173	0.0005424189634495342	6.906785443928957e-05
2
249600
Ar	0.00016367361329916363	-0.00023528851112536648	0.0031938021497619974	-0.018457671768060915	-0.012917189901636589	0.00022614638971032606
Xe	7.462930664608653e-05	8.290301147229844e-05	0.002780554073208857	0.0063019357912783526	-0.005538901053151482	9.286984050639081e-05
2
249800
Ar	-4.966729013786132e-05	-0.00028442923605119725	0.0031957782192127433	-0.02206376088800726	0.00359913255857229	0.00013477801032944203
Xe	0.00011017091472127907	9.124176801873497e-06	0.0027810929973724995	0.0004289957811166361	-0.008472894603523035	6.61739501982608e-05
2
250000
Ar	-0.0002342634815521577	-0.00017015389821508194	0.003196360471942853	-0.012970512276777629	0.01808586449158345	-6.2081122327475805e-06
Xe	8.22868977827809e-05	-7.02576312622942e-05	0.002781669588619216	-0.005702668557841918	-0.006595156422209035	3.927786042930288e-05
2
250200
Ar	-0.00028406640715169	4.1918632751688645e-05	0.0031955324683045445	0.0035168592164708597	0.022180951786136494	-0.00014377047603059153
Xe	7.047073361542319e-06	-0.00010962769005909217	0.002781757710342359	-0.008583968252201965	-0.0008970537252473675	-3.4421799692826215e-05
2
250400
Ar	-0.0001709752381599721	0.0002301876295501302	0.0031939721409469128	0.01798115405350971	0.013557473872348349	-0.00014625661429193266
Xe	-7.223169021567169e-05	-8.642565159218869e-05	0.0027808168659705047	-0.006483177559425902	0.005320175050007399	-0.00012474490392696194
2
250600
Ar	4.0373292004785716e-05	0.00028648280016075375	0.003192555211355758	0.022125321144563684	-0.0028662145966259637	-0.0001543682615675351
Xe	-0.00011006315166043521	-1.338354590326074e-05	0.002779515993417086	-0.0006700043440144126	0.008534929535223475	-0.0001059190093886278
2
250800
Ar	0.0002283088516294531	0.00017850153709188596	0.003191121595993676	0.013552062661618977	-0.017627562776236373	-8.395519736699724e-05
Xe	-8.450704782186934e-05	6.755256990182295e-05	0.002779032584861242	0.005512655232003748	0.006810972443605843	2.1295636715355985e-05
2
251000
Ar	0.00028537764212392376	-3.177883384976409e-05	0.0031911677326780493	-0.0027079530989260227	-0.022315182319090025	0.00011504902215137796
Xe	-1.0501084299701034e-05	0.0001095496805730428	0.0027794338431688173	0.00852962035030257	0.00119437859258596	6.343235288175704e-05
2
251200
Ar	0.00017920334419233177	-0.00022421944717468671	0.003192917004412574	-0.017442555980299104	-0.014219648690770758	0.00022739756480383823
Xe	6.959754567823988e-05	8.88114975089898e-05	0.0027802090308990473	0.006683942756490047	-0.005124905715890186	9.653374168162824e-05
2
251400
Ar	-2.9629703347206866e-05	-0.0002883962095792599	0.0031953037602463295	-0.022211934517324488	0.0020628178700678947	0.0002122293133538533
Xe	0.00011008987085756265	1.704203520654359e-05	0.002781249234104021	0.0010122310789500075	-0.00850963221982968	0.000136121069382505
2
251600
Ar	-0.0002215890606949763	-0.00018696288895497836	0.0031961844633222837	-0.014241715772753709	0.017186274423238425	-4.104558681067477e-05
Xe	8.764583124687794e-05	-6.477130546367488e-05	0.0027822030324386343	-0.005254702607972848	-0.007007969181649861	4.729972398654108e-05
2
251800
Ar	-0.0002865405338304751	2.166166865836626e-05	0.0031951598070020966	0.001908256161461194	0.022412059591532113	-0.00013666561843218435
Xe	1.5024534459852298e-05	-0.00010948452738136564	0.002782115457412586	-0.008516756228305769	-0.0014987003475332263	-5.2506748847746265e-05
2
252000
Ar	-0.00018698217417187184	0.00021795427594883143	0.0031937785197412552	0.016990402787245392	0.014841147409862228	-0.00015984271715773087
Xe	-6.596287193416845e-05	-9.15054216773894e-05	0.0027809703827712026	-0.006860596050471126	0.004919631901890875	-0.00017735081446314905
2
252200
Ar	1.999532503528633e-05	0.0002892887019329741	0.003191929302786776	0.022314325762395747	-0.0012930272951778012	-0.00017030416686455218
Xe	-0.00010896662310047728	-2.088867738384923e-05	0.002779441901459479	-0.0012980458734629188	0.008535077582820115	-0.00013374353367472615
2
252400
Ar	0.00021557657183433448	0.00019459323516929095	0.0031907682426937064	0.014818512781647383	-0.016669576853819756	-5.7714850364382625e-05
Xe	-8.934390000772658e-05	6.204939982419127e-05	0.0027785623671846226	0.004983984559848823	0.00719971038498647	-3.7271758499084555e-05
2
252600
Ar	0.00028754364816425173	-1.1513078868313357e-05	0.0031912203526073637	-0.0011534471618583038	-0.022478850610839405	0.0001503464774510121
Xe	-1.8837492123906526e-05	0.00010900868791476024	0.00277877429433575	0.008397596883634954	0.0016979980018334492	6.065488832187181e-05
2
252800
Ar	0.00019455024463146817	-0.0002111927709259125	0.0031931579744639733	-0.016505689581020323	-0.015424621526236644	0.00020767570307617927
Xe	6.238777584124548e-05	9.307589846534483e-05	0.0027798359101427143	0.007036323310811353	-0.004729139869437568	0.00014247860378681628
2
253000
Ar	-1.0087142712114494e-05	-0.0002897615348977683	0.00319533521914499	-0.022359913425529943	0.0005165251662885259	0.00019831002771383965
Xe	0.00010816220062857815	2.328578037544993e-05	0.0027812001153283503	0.0016426696060886543	-0.008497654675212183	0.00011388679960737546
2
253200
Ar	-0.00020894768692117664	-0.0002018627177529582	0.0031961698739196645	-0.015380184544961047	0.01615897555779089	-1.399329874056478e-05
Xe	9.197294583011668e-05	-6.0082370273289045e-05	0.0027817618444408543	-0.004716571520700753	-0.007339723946413528	4.959482221724234e-06
2
253400
Ar	-0.0002876033155672574	1.7941960479488915e-06	0.003195243119203502	0.00042603268264037675	0.022518504645569447	-0.0001685054986486335
Xe	2.302364913865456e-05	-0.00010924029032651811	0.0027815303171056524	-0.0083753276841991	-0.0019571119592249778	-5.476824148285399e-05
2
253600
Ar	-0.00020149601769174557	0.00020469668947641802	0.0031933400645446607	0.015939478256750392	0.01596578371953027	-0.00019822564766480577
Xe	-5.9210191678381464e-05	-9.552792189031915e-05	0.0027805174039528674	-0.00722470714201636	0.004545813894167692	-0.0001290487531529372
2
253800
Ar	8.607835652670727e-08	0.00029021985182204143	0.0031915883533663717	0.02231803906597542	0.00026227547642796757	-0.0001356612586513343
Xe	-0.00010764115549962199	-2.7176798861627672e-05	0.002779511308264471	-0.001945698341747953	0.00841209086169712	-6.987453899500369e-05
2
254000
Ar	0.00020130075606095222	0.00020917883137643175	0.0031907334343295934	0.01587691816657816	-0.01564466030754347	-1.947740820256582e-05
Xe	-9.437879417667047e-05	5.637955816569303e-05	0.00277928098230409	0.004460682706524714	0.007464902761258861	8.275301152206658e-06
2
254200
Ar	0.00028683778790457526	8.088076352354878e-06	0.003191546135253073	0.0003655503957888166	-0.022536706891412423	0.00017642881827948487
Xe	-2.7242008155299465e-05	0.00010743854613570514	0.0027795090767158376	0.008277490668724002	0.0022476441853323545	2.137199833621074e-05
2
254400
Ar	0.0002078233443556897	-0.00019749173730924333	0.003193843450377326	-0.015344669956009995	-0.016500050975174603	0.0002518853349949972
Xe	5.5101514194206805e-05	9.681389587186966e-05	0.0027796733738578703	0.00735152128387355	-0.004261175418866296	3.6447249325073233e-05
2
254600
Ar	9.624186024003003e-06	-0.0002897171845963041	0.003195982756462914	-0.022269426256140288	-0.0009902239136392352	0.00013013483589694038
Xe	0.00010578522871659504	3.036779089068348e-05	0.0027801547391487847	0.0022649527766289345	-0.008317151916543957	4.5101895460315585e-05
2
254800
Ar	-0.0001943043781208523	-0.000215176683716971	0.0031961662784928094	-0.016430913698348842	0.015127569229292944	-9.884700081234921e-05
Xe	9.595164460631818e-05	-5.3573859962733176e-05	0.0027808312099742148	-0.004145989554842085	-0.007603801665829251	7.650935490541411e-05
2
255000
Ar	-0.000286923330917772	-1.713074012716456e-05	0.0031946644656987307	-0.0011456619126570975	0.022468625773694722	-0.00019836806846494127
Xe	3.097450254510493e-05	-0.00010691402667344482	0.002781402946518191	-0.008177566026580053	-0.002505389128006642	2.4286670646177302e-05
2
255200
Ar	-0.00021481874550090737	0.00019067006480627118	0.00319258420707777	0.01483864735163354	0.016966285112158055	-0.00019644977918385233
Xe	-5.153758556846088e-05	-9.90365476678633e-05	0.002781277655542751	-0.007493065645628738	0.003990948163376551	-5.460652879536201e-05
2
255400
Ar	-1.939142029666306e-05	0.00028938626070831343	0.0031911467678365614	0.02227172175125227	0.001758918002463713	-6.566089263725913e-05
Xe	-0.00010409224652134516	-3.4617720352671146e-05	0.002780613737584789	-0.002504315637236964	0.008258134956453559	-6.836574709515308e-05
2
255600
Ar	0.00018728491707167036	0.00022206360186746975	0.0031912233534682265	0.01695375312986442	-0.014540596882034207	7.290342839164702e-05
Xe	-9.680859104110615e-05	4.969740555418447e-05	0.0027800601398165936	0.0038749958971379646	0.007754759806017632	-3.756121403928134e-05
2
255800
Ar	0.0002865634766655993	2.7083512946946537e-05	0.003192714337020245	0.0019035051176948623	-0.022469467191521236	0.00021557026707487559
Xe	-3.4246457615658593e-05	0.00010554016633449293	0.0027795472560356704	0.008015458218672371	0.0028414553922826175	-4.242970217277639e-05
2
256000
Ar	0.00022156511228214822	-0.0001836168793331731	0.0031948589920030427	-0.014263458618568233	-0.017524204841744915	0.0001552474273794198
Xe	4.7846166074702935e-05	0.00010103106226752554	0.0027792946677001377	0.0075711336565157895	-0.0037229473356939573	-8.568088267749548e-06
2
256200
Ar	2.9242351838391116e-05	-0.0002887794075287759	0.0031955489700139887	-0.02224017025151035	-0.0024104208732699055	-1.669660065957369e-05
Xe	0.0001023801560728663	3.822093208835125e-05	0.0027795703117885575	0.002761966634388869	-0.008184224497024838	8.839119741641332e-05
2
256400
Ar	-0.00017938366540606936	-0.00022745418425376473	0.0031946624754738027	-0.01738724736849225	0.014032878522202781	-0.0001479943213353508
Xe	9.799843889149699e-05	-4.682107443814755e-05	0.002780646525620583	-0.0036002144458626745	-0.007948712114915329	0.00013613148134613185
2
256600
Ar	-0.000284709312171404	-3.575489065585593e-05	0.003193214304296139	-0.0026275596893482983	0.022375063242420494	-0.00013365709940883023
Xe	3.764439882278691e-05	-0.0001052747247089724	0.0027816369979075098	-0.007851735890527166	-0.003111894130635114	3.446098156916025e-05
2
256800
Ar	-0.00022688759432936187	0.0001767100223890212	0.003192289249012004	0.013626552282005745	0.01793066665316488	-3.982345252644513e-05
Xe	-4.4109930243054164e-05	-0.00010329536309568899	0.002781571068969582	-0.007644059819576303	0.0034821963852703502	-3.597389655188486e-05
2
257000
Ar	-3.886835419988187e-05	0.00028787787837356775	0.0031921615086130317	0.022065276681523825	0.0031774199755675117	-3.585938212634718e-06
Xe	-0.00010027926354674338	-4.2384849514022705e-05	0.0027808381819886935	-0.0030397929187855927	0.008089576005156	-7.436455710529116e-05
2
257200
Ar	0.0001714647126297331	0.00023394395928330385	0.003192575354760404	0.017859892516708293	-0.013440626543891051	9.185578237397543e-05
Xe	-9.885256541654008e-05	4.25148989431992e-05	0.0027802301746917453	0.003314188840893834	0.008046718809298577	-7.226743221942752e-05
2
257400
Ar	0.00028348148350665857	4.5430971982445225e-05	0.0031937642887352384	0.003432582323361956	-0.022323767544485354	0.00015251300948227587
Xe	-4.0721324641872845e-05	0.00010289818887424867	0.0027793643564255994	0.007725641788287733	0.003434401939728655	-9.452187088078848e-05
2
257600
Ar	0.00023310001338794838	-0.00016908009698694403	0.0031950633569424575	-0.013010595045970078	-0.018415036268511556	0.00010105076751691926
Xe	4.091756624893438e-05	0.00010431913251002466	0.002778897298703197	0.0077819511951148276	-0.00316815884756402	3.6329045327159016e-05
2
257800
Ar	4.895675539578047e-05	-0.00028659036891503977	0.0031951802400873694	-0.02195136977256358	-0.0038876509235869906	-8.185204716890625e-05
Xe	9.935970169870151e-05	4.5589884164168184e-05	0.002779897440845139	0.0033193379185892653	-0.007964705685935766	0.00014998695845716683
2
258000
Ar	-0.00016295533914864325	-0.00023919946675809357	0.0031939292289141267	-0.018294489048121036	0.012868190270966735	-0.00016499833643733504
Xe	0.00010072031118553685	-3.959010775246535e-05	0.002781617335357355	-0.0030709753753691265	-0.008203466104824687	0.00015602078452367501
2
258200
Ar	-0.0002813120602434053	-5.4516077974035856e-05	0.0031927279832382927	-0.00419718163129991	0.022204602630436814	-6.459909099098385e-05
Xe	4.437981949294043e-05	-0.00010216289682547833	0.00278267231011587	-0.007604769978166142	-0.003688321059323888	9.61367287488464e-06
2
258400
Ar	-0.00023855804282934957	0.00016161300473909528	0.0031928492445358948	0.012319969242193918	0.018822226287881338	2.283353065813395e-05
Xe	-3.662136014534033e-05	-0.00010646079375163252	0.002781996342672674	-0.007778413408370027	0.0028833158795481552	-0.00012182513040898777
2
258600
Ar	-5.8841177092428925e-05	0.00028498542309434344	0.0031930488142929204	0.021787623233814408	0.004573883648689183	8.264441615078417e-06
Xe	-9.63786681179909e-05	-4.993177928668989e-05	0.0027807593767171586	-0.0035637564221469133	0.007853734337142032	-0.00012781054969159913
2
258800
Ar	0.00015424701770852444	0.00024453454221564584	0.0031934140447311245	0.018699250530289098	-0.012238210886776575	5.837707984745792e-05
Xe	-0.00010073368737687384	3.516881761617952e-05	0.002779829592116953	0.002729636169629792	0.008291249899178009	-7.598501544019015e-05
2
259000
Ar	0.00027911811931416556	6.388551151851772e-05	0.003194209583478121	0.004965919579338497	-0.022059187011633754	0.00010389493695589233
Xe	-4.7083292796855415e-05	9.984673129151604e-05	0.0027792576411871488	0.007457854970649601	0.00400388237474292	-4.5606882348207326e-05
2
259200
Ar	0.00024373518203345252	-0.0001535780067373509	0.003194945645587634	-0.011684143823940377	-0.019226046200938294	2.2262707054258015e-05
Xe	3.365667126900041e-05	0.00010736750591504509	0.0027793444763641335	0.007860983845542348	-0.002585444830250151	5.0118155612045795e-05
2
259400
Ar	6.803508193871525e-05	-0.00028295135042563364	0.0031944617759856507	-0.02165724959643575	-0.005329720712193839	-0.00011042085149984012
Xe	9.529492122354768e-05	5.296117587659739e-05	0.0027804350604055225	0.003814073807854775	-0.0077316712229925635	0.00014485348804531026
2
259600
Ar	-0.00014672647488155201	-0.0002497132765967284	0.003193123786496613	-0.019123991026035837	0.011633655664610994	-0.00011552663982204375
Xe	0.00010234777278676648	-3.206424412743477e-05	0.0027820797269752177	-0.002466930188258363	-0.00839149477090037	0.00013217854429990202
2
259800
Ar	-0.0002773321678452649	-7.33279911833473e-05	0.003192662810775985	-0.005676758504048372	0.02185704430586267	2.757048366388626e-05
Xe	5.103768804349603e-05	-9.844442454118788e-05	0.002782619187258663	-0.007296820609815731	-0.004226122692767659	-3.219631606893274e-05
2
260000
Ar	-0.00024955086619679373	0.00014522333128645136	0.0031932096579134215	0.011002028122673462	0.01962888902197482	6.140727986090365e-05
Xe	-2.923435677374596e-05	-0.00010815041244430095	0.0027816127680053222	-0.007956340169725748	0.0023649157976838174	-0.0001458789461956587
2
260200
Ar	-7.867333220853807e-05	0.0002806864772033205	0.003193521235618527	0.02141681605794216	0.0060741071606121135	-3.4626416550281377e-06
Xe	-9.284380674934141e-05	-5.579648443245257e-05	0.0027803878419543366	-0.004091102536198668	0.007586565653885519	-0.00013106965821468923
2
260400
Ar	0.00013689497037221998	0.00025496056491287	0.00319325430485935	0.019501450808784706	-0.010945727311192421	-2.556103642217941e-05
Xe	-0.00010309826106126131	2.8783788958407915e-05	0.0027792136442958636	0.0021537595322053084	0.008467875366388669	-0.00010414611923522234
2
260600
Ar	0.0002737482144061785	8.28624243755313e-05	0.00319318253752641	0.006485387337832815	-0.02170558346139619	8.420796883807608e-06
Xe	-5.4197934487893374e-05	9.702268210472395e-05	0.002778436639185447	0.00713351325703939	0.004473400188841188	-4.146791638095984e-05
2
260800
Ar	0.0002537251615980058	-0.0001368590355553308	0.003193406587650242	-0.010286398981272425	-0.019989750879988315	4.534734501552465e-05
Xe	2.584215428559194e-05	0.00010949344911179807	0.0027785277709953646	0.008060853223904317	-0.0021122092929485173	5.9772816369691706e-05
2
261000
Ar	8.802887995825537e-05	-0.00027779442135470253	0.003193418521417103	-0.021174865567268233	-0.006759951459730801	-4.3788648514368707e-05
Xe	9.109415529963267e-05	5.855437950677815e-05	0.002779938889418239	0.004319460452423872	-0.0075297821158418305	0.00020430101828350573
2
261200
Ar	-0.00012814843729510005	-0.00025928893513941126	0.003192678524375675	-0.019861786948182435	0.010276286618707216	-5.4701924015364884e-05
Xe	0.00010393346962676808	-2.5723363901248515e-05	0.0027820991759268947	-0.001861492487324188	-0.008487858123433122	0.00018799963876338816
2
261400
Ar	-0.00027106107941980505	-9.225580092116458e-05	0.0031927238279214547	-0.007272117501677802	0.021433289867268748	9.311738898035e-05
Xe	5.7449187753282e-05	-9.495790205817171e-05	0.002783135498508896	-0.006974570851527753	-0.004650940863641487	2.2323207562144897e-05
2
261600
Ar	-0.0002591922496259656	0.00012763120328478954	0.0031938443600667173	0.009543682987421899	0.02032352074361435	0.0001213393360651588
Xe	-2.1806184909587114e-05	-0.00010989760882757441	0.0027826364811348813	-0.00809837189356122	0.0018222539059117575	-0.00010503932842853732
2
261800
Ar	-9.868164276161528e-05	0.00027424600349721794	0.003194563930290966	0.020916745297825553	0.007527101694009894	-3.003955950867847e-06
Xe	-8.876452474740019e-05	-6.19464619159836e-05	0.002781123564889779	-0.0046092321779084315	0.00731376779803444	-0.00015616954620257452
2
262000
Ar	0.00011821711626402988	0.0002630784284353037	0.003194044176295275	0.020279244509607976	-0.009608251674188308	-9.016546798039998e-05
Xe	-0.00010509906036882218	2.1869642400457844e-05	0.0027795828313842926	0.001537690026427652	0.008605430285005537	-0.0001545497979065082
2
262200
Ar	0.00026739456953984287	0.00010105081391354008	0.003193405288670228	0.008023144874226399	-0.021152059191002996	-2.3293930523388552e-05
Xe	-6.125151860699528e-05	9.338852427217685e-05	0.002778130383750927	0.006799642656281096	0.004965464664894484	-0.00013934595761309201
2
262400
Ar	0.00026299949910880087	-0.00011875675025374956	0.0031932804233649596	-0.008847124564910056	-0.02056848589553573	-3.703994512336598e-05
Xe	1.82520231420353e-05	0.00011134837775262	0.002777572527120595	0.008278865547830014	-0.0015902212435777792	3.0922229216509095e-05
2
262600
Ar	0.00010748791428762428	-0.00026991538240969426	0.0031927604196933072	-0.02064346327538946	-0.00811459109633855	-4.90090329941105e-05
Xe	8.78170384744826e-05	6.48452477357851e-05	0.0027788956598459274	0.004930710007275275	-0.0072332313595889625	0.00022663114359987906
2
262800
Ar	-0.00010957408446680075	-0.0002656649948805696	0.0031925164992902128	-0.02055783787630569	0.008909348818899796	2.2260806321634624e-05
Xe	0.00010696413716009409	-1.8957215510938253e-05	0.0027812523814585905	-0.0013090390760754807	-0.008689216835162784	0.00020860703185416002
2
263000
Ar	-0.000263978177130377	-0.00010939441454048305	0.003193429985661831	-0.008761709622808164	0.02077281712009775	0.00013595347267042162
Xe	6.470524016473325e-05	-9.163087461282307e-05	0.0027824490726712555	-0.006716263970184446	-0.005110851347317561	4.207690513166221e-05
2
263200
Ar	-0.00026732613709184777	0.00010950273304912529	0.0031945695347424443	0.008142176637854033	0.020776178644069578	4.245000861292682e-05
Xe	-1.4266381682509178e-05	-0.00011168974619073574	0.0027822988129730794	-0.008295107712883708	0.0012850441242372409	-3.8147052505584535e-05
2
263400
Ar	-0.00011706294505112739	0.0002654989637911565	0.003194278058785913	0.020369612548007867	0.008853745352847463	-6.47459676980203e-05
Xe	-8.4957164090111e-05	-6.784051621581211e-05	0.0027817351754542956	-0.005138686345303317	0.007025484933747864	-6.949408317724941e-05
2
263600
Ar	0.00010013079347024775	0.000269253948899655	0.0031935208978314884	0.0208972884616907	-0.00812247463803296	-6.449531520016363e-05
Xe	-0.0001069532983088386	1.5184968304445724e-05	0.0027808001449772836	0.0009475563657759728	0.00873781593175667	-0.0001235060033414331
2
263800
Ar	0.0002601693392920313	0.00011885023950744387	0.0031932630079887637	0.009498374765251838	-0.020436850293888042	3.6876901819164054e-05
Xe	-6.791577568791787e-05	8.958689693878482e-05	0.0027793040388039685	0.006470691230951145	0.005390108370685388	-0.00015127470131292355
2
264000
Ar	0.00027113509248011513	-9.966764615095636e-05	0.0031934107355557624	-0.007413194491740926	-0.02106403728498264	5.772335359236335e-07
Xe	1.0158786519416655e-05	0.00011236391593795022	0.002778040947671262	0.008367331588917188	-0.0010890989519132797	-7.485235839344999e-05
2
264200
Ar	0.00012612341911344017	-0.0002609166288947038	0.0031933758516357073	-0.02011293592065249	-0.009547563365355343	-7.336510746737514e-06
Xe	8.297530653355156e-05	7.016056492091463e-05	0.0027780503499460828	0.005431906559440066	-0.006894685035674881	8.942580632494471e-05
2
264400
Ar	-9.155322282469887e-05	-0.00027212774881190294	0.0031933789791809782	-0.021212942728710132	0.00741440987295372	4.682531584134314e-05
Xe	0.00010819173013893708	-1.2204539202926675e-05	0.002779550719833528	-0.0006609738931082046	-0.008724961813017863	0.0001816793153349133
2
264600
Ar	-0.00025683041411737314	-0.0001272809757809091	0.003194125468882722	-0.010151004505828707	0.02009557190279571	9.235590987164586e-05
Xe	7.129889974267508e-05	-8.729791300151432e-05	0.0027812275934886222	-0.006314854103822693	-0.005529637351070447	0.00011957284573619806
2
264800
Ar	-0.0002747758008183686	9.086835363341972e-05	0.003194712183201481	0.006733930255422789	0.0212816281778148	-1.0046863969904987e-05
Xe	-6.179779574449959e-06	-0.0001122429632486908	0.0027819572675180974	-0.008369046685462305	0.0008112239419356519	4.489581506307488e-05
2
265000
Ar	-0.00013502437779669782	0.00025692169369595557	0.003193821716861653	0.019798268188504362	0.010234475298290475	-0.00014588150868888092
Xe	-7.997791848853495e-05	-7.262806312567944e-05	0.0027820291146093234	-0.005631576661361568	0.006695748131671885	-2.9875477368248068e-05
2
265200
Ar	8.221929095652044e-05	0.00027587557207803303	0.0031923973961512746	0.02146839681215077	-0.006623021777776248	-0.00011448920753354045
Xe	-0.00010787955812249577	8.422514828217841e-06	0.0027815726820341613	0.0003357572893032183	0.008676157157396803	-9.065037389683558e-05
2
265400
Ar	0.00025258952477725735	0.00013699649552811793	0.003192311239357184	0.010866441506949985	-0.01974047516283925	6.763389503886053e-05
Xe	-7.412518793592377e-05	8.429018483356314e-05	0.0027803260191443468	0.006085413438959658	0.005729183996610053	-0.00017196104104908532
2
265600
Ar	0.0002779686677667851	-8.057834557464414e-05	0.0031933801059831585	-0.0060611897280357365	-0.02154465493230565	0.00011031324844085716
Xe	2.2126366747711787e-06	0.00011191146538135676	0.0027787758211840073	0.008386720752592444	-0.0004931209652108997	-0.00011673187874985719
2
265800
Ar	0.00014323362082515348	-0.0002518367833349328	0.0031940252335809476	-0.019498480629929406	-0.010960017679489844	2.3588080185275156e-05
Xe	7.761664647943059e-05	7.532792059052896e-05	0.002778340428749465	0.005905958100688137	-0.006479718762445922	1.5273896749074334e-05
2
266000
Ar	-7.361891297412412e-05	-0.00027834380144782305	0.0031939194017762077	-0.021688463118967636	0.005912116839788692	-3.154404478944962e-05
Xe	0.00010852614621089639	-4.955275563125322e-06	0.002778936547332449	-4.5874350431970105e-05	-0.008753528977772066	0.00010217625124454792
2
266200
Ar	-0.0002481977786429079	-0.0001452858651080864	0.0031939270963933803	-0.011438183461045128	0.019355054491794824	-2.9853919598921184e-07
Xe	7.678914723902192e-05	-8.245439828557575e-05	0.0027800515891612063	-0.0059820648397679605	-0.005942680151561535	0.00013700501082699603
2
266400
Ar	-0.00028042379098317145	7.104966123915785e-05	0.003193830539933173	0.005349171434915517	0.021735527283680268	-3.1598502521738937e-06
Xe	7.177106950635041e-07	-0.00011252864448390592	0.002781517416168283	-0.0084515061718433	0.0002258263615344614	0.00012846807688951566
2
266600
Ar	-0.00015165978343060186	0.0002468687234717788	0.003193473355777664	0.019074555213754327	0.011637341753118854	-5.58769044112314e-05
Xe	-7.565734646308142e-05	-7.802356872640536e-05	0.002782572247347063	-0.006040767459350347	0.006317550235162429	7.301211221374226e-05
2
266800
Ar	6.375182961495005e-05	0.00028122217123451265	0.0031929877502680673	0.021823219220773554	-0.0051165904292430515	-1.154454213833083e-05
Xe	-0.00010850514120706085	1.2020811392505504e-06	0.0027825926998169704	-0.00019725403169945874	0.008715087785873096	-8.026775242781187e-05
2
267000
Ar	0.00024275297494189932	0.00015450760356264552	0.0031933357950830387	0.012171484845574244	-0.01895633224077246	6.263660046995001e-05
Xe	-7.900346159433596e-05	7.922204635636796e-05	0.0027812241039057587	0.00577461785834151	0.006150856404623608	-0.0001985202713901251
2
267200
Ar	0.00028285761057519595	-6.089680313497819e-05	0.0031939302756273137	-0.004573031164380477	-0.021933432785085215	4.034543149580968e-05
Xe	-4.133639835567928e-06	0.00011189258971492777	0.002779580663268658	0.008437193473353765	5.827344046487134e-05	-0.00011710885505638302
2
267400
Ar	0.00016042549476818924	-0.00024134058192595167	0.0031939335991224335	-0.01864715615897991	-0.012283463063660554	-6.026464701115843e-05
Xe	7.336042095126206e-05	8.042171040316851e-05	0.00277894844538879	0.006279783627465462	-0.0060199482547215275	-1.7011842599202718e-05
2
267600
Ar	-5.3749152450058494e-05	-0.0002830041619051102	0.0031933062935626593	-0.022015906987535624	0.004373179948331266	-6.339661383169744e-05
Xe	0.00010904212979263873	3.1669099279112976e-06	0.002779116540945088	0.0005047178566972516	-0.008653467801866722	5.5451201432369565e-05
2
267800
Ar	-0.00023731132501794363	-0.00016240806384527865	0.003192638832420449	-0.012813587048028322	0.01853844295549614	-8.782929707964868e-06
Xe	8.206296236849895e-05	-7.578389448130043e-05	0.0027798780760204854	-0.0056057497985164285	-0.00634879873180875	5.963781840293291e-05
2
268000
Ar	-0.0002845988713173262	5.142144604354201e-05	0.0031929401365184454	0.0038401736499029887	0.022049462640477573	4.945081647369551e-05
Xe	8.118092359646304e-06	-0.0001111313939876604	0.0027804934175552805	-0.008444467684109126	-0.0003745360005539199	6.671426874919392e-05
2
268200
Ar	-0.00016821130546040448	0.0002355610764106328	0.0031933534986391455	0.018237416890437796	0.012916232724515395	5.901687904987999e-05
Xe	-7.034942547329806e-05	-8.273135508401709e-05	0.0027811258462708973	-0.0064571252981900995	0.005752015395029983	5.2917774845342716e-05
2
268400
Ar	4.473173123203343e-05	0.0002846447504675503	0.003193989448179553	0.022184189734378922	-0.00359892829653164	6.589454236204541e-05
Xe	-0.00010858664372933799	-7.1590955194748765e-06	0.002781655206629665	-0.0007976947344792003	0.008587654850441218	4.336193406235156e-05
2
268600
Ar	0.00023230401057764677	0.0001707833950178944	0.003194712873356074	0.013404236818996959	-0.01802686594307651	3.878698316228475e-05
Xe	-8.476504325235057e-05	7.238177580383495e-05	0.0027818156759952637	0.005330676985964982	0.00650012544631109	-3.004496311785618e-05
2
268800
Ar	0.0002866530246761811	-4.095467759522852e-05	0.0031947500987855246	-0.003071535503746734	-0.022156591501903123	-4.040666550381046e-05
Xe	-1.2377778815301955e-05	0.00011049829671039016	0.002781293160445221	0.008414924966794256	0.0007063646558519968	-6.18345193903096e-05
2
269000
Ar	0.00017671238369310914	-0.00022903449625817762	0.003193676972486581	-0.017784979785820023	-0.01353698422966818	-0.00013332267575369116
Xe	6.72628837863092e-05	8.520849318043176e-05	0.0027806014572553605	0.006679708224289932	-0.005511266184763243	-5.78930766436916e-05
2
269200
Ar	-3.4463124107333146e-05	-0.00028534665619890285	0.0031925896654393673	-0.02230905737884057	0.002854434871965582	-5.4694266529969524e-05
Xe	0.00010827029946516029	1.1119985872814446e-05	0.0027798156853953847	0.0010882128178872127	-0.008547019142662978	-0.00010593103366214398
2
269400
Ar	-0.00022581941173791423	-0.0001778536185661361	0.0031926036999731506	-0.014031081876198318	0.017564005891207848	3.802560971955099e-05
Xe	8.721975267370123e-05	-6.923818312213729e-05	0.002778895751636998	-0.005094744063652304	-0.006726660146147206	-5.406821065649459e-05
2
269600
Ar	-0.0002874580534431492	3.1812425427627425e-05	0.0031932173193261284	0.002301788173687339	0.022236345105273152	6.27338903958087e-05
Xe	1.5962749485621742e-05	-0.00010964155352431253	0.002778694996642823	-0.008410581673277285	-0.0009530050291639052	2.4465355519059505e-05
2
269800
Ar	-0.0001840922396863998	0.0002230073549378518	0.003193688426546961	0.017305995537713597	0.014075553860410848	2.9875142704584343e-05
Xe	-6.456427082771713e-05	-8.682364274129699e-05	0.0027794877439652446	-0.006863038947309805	0.005302622005212408	0.00013067860475041778
2
270000
Ar	2.4653214921694173e-05	0.0002860791857235624	0.003193939604752102	0.02231636482822917	-0.002087288316656148	3.699331455620311e-05
Xe	-0.00010810737771484169	-1.3875634561182068e-05	0.0027807812308066203	-0.0013861567831611615	0.008522542147729987	0.00012207458860499519
2
270200
Ar	0.00021909607187462312	0.00018518529362944775	0.0031944614827804623	0.014590292501183603	-0.01707259001156699	4.1241595522274086e-05
Xe	-8.951148227679126e-05	6.702849580888385e-05	0.0027815148785763962	0.0049303078442529975	0.006850399343660521	3.579973348047133e-05
2
270400
Ar	0.00028811792829755027	-2.2109982452708676e-05	0.0031946804469560083	-0.0014946413457913438	-0.022275160495450815	-7.145462595315551e-06
Xe	-1.9550964354474416e-05	0.0001095283538202073	0.0027816004220310967	0.008360598792961886	0.0012372097964570984	1.5227772096007099e-05
2
270600
Ar	0.00019169456805492315	-0.00021690549393989797	0.003194073435317154	-0.01678572237582918	-0.014707360633773599	-0.0001132498618260804
Xe	6.14889811261241e-05	8.94102124002743e-05	0.002781546252382292	0.007022235801660329	-0.005068116793631598	-5.365227049210594e-05
2
270800
Ar	-1.465993366682434e-05	-0.0002873258067180888	0.0031930315857893105	-0.02242088342521462	0.0013297660202700877	-9.227279236689759e-05
Xe	0.00010711274563447865	1.805672512264213e-05	0.0027807236498921047	0.0016524907451115377	-0.008485667477149083	-9.879896297052095e-05
2
271000
Ar	-0.00021285659668302648	-0.00019303314023920952	0.0031924857702009405	-0.015229400232861286	0.016584401162495377	-2.9123634381486997e-05
Xe	9.100089412243358e-05	-6.335825119972469e-05	0.00277962181821518	-0.0046832036730374	-0.006995966454592596	-0.00010130752178333938
2
271200
Ar	-0.00028922356809969903	1.2062243619220165e-05	0.003192399061343318	0.0007213622976550116	0.022352129392988297	-6.08088810639757e-08
Xe	2.2384362311669562e-05	-0.0001082548735124887	0.0027787976145756716	-0.008337201102905237	-0.0015472656326523855	-4.354566831117112e-05
2
271400
Ar	-0.00019951214678823494	0.0002101182306177488	0.0031925740285876684	0.016297147394246887	0.01524558071710573	6.279478336673294e-05
Xe	-5.94325193733265e-05	-9.110961039744641e-05	0.0027788559995569903	-0.007209170429471548	0.004803702629098915	4.495026217318299e-05
2
271600
Ar	4.74669768886267e-06	0.000287436786196536	0.003193529608164219	0.022468100130862055	-0.0005691653663669317	0.000129229193575774
Xe	-0.0001073690017083054	-2.191003188806858e-05	0.0027795519440155228	-0.0018984642469981508	0.008361345793877028	8.877845839373162e-05
2
271800
Ar	0.0002060839275801085	0.0001996809179718657	0.00319483419979495	0.015774617328953914	-0.016092213223857232	0.00010584308945135742
Xe	-9.346219066034349e-05	5.987635621869208e-05	0.002780414179475484	0.004529144100777357	0.00717132698022162	9.65852775274579e-05
2
272000
Ar	0.0002891486654922428	-2.970183491702974e-06	0.0031954380264727477	1.0484763938730624e-05	-0.022365267346730944	-8.278156283719252e-06
Xe	-2.5769646745045034e-05	0.00010753951968582495	0.0027814812296776416	0.008315434725686417	0.0018580440858049327	9.16083214746141e-05
2
272200
Ar	0.00020619462963620001	-0.00020399701478220398	0.003194722904320725	-0.015759554222515057	-0.015806064848424388	-9.997562517336713e-05
Xe	5.6485398899590495e-05	9.34019759254939e-05	0.0027821238595887483	0.0073157077501231176	-0.004525496102338048	4.0504505360598675e-05
2
272400
Ar	5.076317073450903e-06	-0.000288207365602077	0.00319365108066257	-0.02244459480293465	-0.00018293108675959636	-0.00011415650178108227
Xe	0.00010621699915329398	2.608246656144157e-05	0.002781881433444593	0.0021365166658375728	-0.008265994386466876	-8.187988682134156e-05
2
272600
Ar	-0.00019914963164018278	-0.00020714662102080722	0.0031928159780992595	-0.016328703145662128	0.015574924255228705	-3.7103525461123676e-05
Xe	9.510767946612778e-05	-5.582656641029577e-05	0.0027804900732301195	-0.004220919663640311	-0.007303910374722739	-0.00018230760408397437
2
272800
Ar	-0.00028923592595843535	-7.122631138597707e-06	0.0031926480491071075	-0.0007673209418845494	0.022394059692574034	2.2549042032969635e-05
Xe	2.9722843932976163e-05	-0.00010580671743304683	0.002779010242353202	-0.00820509563309599	-0.0021632603180953545	-0.00010299317860918648
2
273000
Ar	-0.00021314033529002535	0.00019718111311326926	0.00319281717747514	0.015210419677371531	0.01635352684729755	1.536457501522775e-05
Xe	-5.283201528661906e-05	-9.50248352642818e-05	0.0027786749784867587	-0.007476290808053958	0.004217905433741797	2.503425275378978e-05
2
273200
Ar	-1.4742475512983134e-05	0.00028821150931061486	0.003193132019932433	0.022456715261698016	0.0009151020540990483	4.1141171571061955e-05
Xe	-0.00010533472835135649	-2.960565037599698e-05	0.0027792018932831226	-0.0024933331908518663	0.008194060439819663	6.967946497719026e-05
2
273400
Ar	0.0001919791805705179	0.00021362596093683016	0.0031937965871482563	0.016807015747064166	-0.015082902042916183	7.835917549523424e-05
Xe	-9.776370983034544e-05	5.309170560870397e-05	0.002780070807436586	0.003954106296528706	0.007493244922583171	8.956953924124153e-05
2
273600
Ar	0.0002886554343326299	1.6132496324526136e-05	0.0031946372476191207	0.0015399344247902908	-0.022387066515820838	5.1061382250536065e-05
Xe	-3.400526487650904e-05	0.00010519737982972837	0.0027807677113201403	0.008144309673822655	0.0024129001210449834	7.149883973405619e-05
2
273800
Ar	0.0002197491404606885	-0.00019030747840446027	0.0031948052995866617	-0.014611870510381767	-0.01680942680298924	-1.7270147654340126e-05
Xe	4.9165918411498444e-05	9.678777882307518e-05	0.0027814935663791995	0.007668711342654176	-0.004002645158198713	8.153397420441525e-05
2
274000
Ar	2.4914540524842136e-05	-0.0002873773103494831	0.003194125080126134	-0.022390767990117546	-0.001623809772318271	-9.848757781114291e-05
Xe	0.00010436014657260167	3.2660390987071016e-05	0.002781801598278224	0.002815438338586261	-0.008164154738396467	-2.5590018997751923e-05
2
274200
Ar	-0.00018433355088243183	-0.00021953193194120408	0.00319320732543397	-0.017337082320837544	0.014497042106420926	-7.42773620942939e-05
Xe	0.00010004149753130709	-5.0338312939795305e-05	0.0027812085925323624	-0.0036225459837034976	-0.007601520747310046	-9.844897546428712e-05
2
274400
Ar	-0.000288113599364504	-2.56747552742792e-05	0.0031928321535195734	-0.002367044182558868	0.02232009606539048	-1.944842363049578e-05
Xe	3.83263886553893e-05	-0.00010441457953027677	0.0027798831878487608	-0.008089324634935374	-0.002681799530662366	-0.00011597443921461663
2
274600
Ar	-0.00022677964841337874	0.0001829498794538725	0.003192678168591973	0.013998065196661807	0.017283882871867204	-2.0383486510026392e-05
Xe	-4.56403313526136e-05	-9.862750981323311e-05	0.002779216195907541	-0.007852971069683204	0.0037646593949142706	-2.8290234734580113e-05
2
274800
Ar	-3.502431423533824e-05	0.0002864676303135983	0.0031927932680082256	0.022399574829877526	0.002381641768157272	6.224183813055816e-05
Xe	-0.0001032371356862393	-3.62741619867527e-05	0.0027794042853821637	-0.0030745683982253834	0.008079626344938204	3.580338184732081e-05
2
275000
Ar	0.00017743624430150586	0.00022575974068666396	0.0031937584195089077	0.01792461040844371	-0.013913340870024658	0.0001070601660799097
Xe	-0.00010124996495300669	4.718956301788345e-05	0.0027796642559811528	0.0034523414696154076	0.007752511590895645	1.2607029889203163e-05
2
275200
Ar	0.00028819930322058785	3.561352695121719e-05	0.003194739395778454	0.0031114624535402277	-0.022215256947928256	6.012942938025049e-05
Xe	-4.1193308818049044e-05	0.00010374018848164684	0.002779943072789395	0.007974568029036861	0.0029841977080471097	6.33322253652654e-05
2
275400
Ar	0.00023318603138987085	-0.00017477333868360522	0.0031945630431507188	-0.013556731750790803	-0.01773727979938678	-9.929077498106402e-05
Xe	4.264572048714778e-05	0.00010082136933695128	0.002780745919714984	0.007948802170508053	-0.0035670765628163285	9.941714556043267e-05
2
275600
Ar	4.4016285170336265e-05	-0.00028496758848198505	0.003193086499283104	-0.022346463973188242	-0.0031661236579408787	-0.0001428362122937206
Xe	0.0001021357640086246	3.967115126515174e-05	0.0027815192398420283	0.003357674349153787	-0.008037466686781713	7.301303971505442e-05
2
275800
Ar	-0.0001704871241568736	-0.0002321139249886761	0.0031919304282167146	-0.01837759194262665	0.013218289402190967	-7.232295484212406e-05
Xe	0.00010327314261167166	-4.385171192692452e-05	0.0027817339836929177	-0.003155218474215392	-0.00782074751165505	-2.9575296011639443e-05
2
276000
Ar	-0.0002876599134113777	-4.617061444854278e-05	0.0031917343773006993	-0.003826632279164058	0.022081756391147414	2.304719891712619e-05
Xe	4.522826052767111e-05	-0.0001018985174804608	0.0027810567976114015	-0.007847991191419263	-0.0032016903929886066	-0.00010426269813036386
2
276200
Ar	-0.00023975450367078478	0.0001663366950947546	0.00319238076152186	0.012923119616254648	0.01824322021282668	6.801326740673295e-05
Xe	-3.858594958895845e-05	-0.00010149320479262199	0.0027803772535396503	-0.008064357537303503	0.003269710995558963	-2.9261284210606076e-05
2
276400
Ar	-5.4256586089676896e-05	0.0002832442318018674	0.00319328839635408	0.02229285373594406	0.003976136789081035	0.00010907513162005982
Xe	-0.0001004718142337595	-4.291060468078042e-05	0.0027801800650446586	-0.0036663156585281117	0.007866036814717233	-3.1397946422158746e-05
2
276600
Ar	0.00016232736050911622	0.0002382141172510526	0.0031945381751044694	0.018858954990580244	-0.012556109458225625	0.00011768861831685722
Xe	-0.00010465777287803343	4.01880556111715e-05	0.0027798989468318103	0.002882371725249539	0.007909681152607546	-2.2749084689784613e-05
2
276800
Ar	0.0002857237911898591	5.659412888022998e-05	0.0031947999816926685	0.004562276152837081	-0.02193272797088365	-7.061741885076622e-05
Xe	-4.8350277284858556e-05	0.00010018296100637686	0.0027799155040978524	0.00781548869656525	0.003478317741468118	3.3137589851510515e-05
2
277000
Ar	0.00024469534287922064	-0.00015759274614732642	0.00319371935850419	-0.012335943709539804	-0.018707081975133894	-0.00013570343172712086
Xe	3.617091484074082e-05	0.00010277721585767056	0.0027806100517510472	0.008217103472331067	-0.0029953047176827234	7.609368038883733e-05
2
277200
Ar	6.325097649698613e-05	-0.00028133033788904876	0.0031926275335143047	-0.02212140984979911	-0.004780181966851572	-8.091469462879636e-05
Xe	0.00010011224954416575	4.6310819774146375e-05	0.0027810956608939675	0.0038971342120575707	-0.007678116005474051	1.935997254421943e-05
2
277400
Ar	-0.00015472591005108707	-0.0002441783920016865	0.00319250675881992	-0.01923783880364378	0.01186372555344322	4.469160893575939e-05
Xe	0.00010659339344364862	-3.628311720314915e-05	0.0027811664009235707	-0.002681037061715295	-0.007996275056494381	-1.684569070804035e-05
2
277600
Ar	-0.00028382330779391264	-6.691835414774477e-05	0.003192879821668314	-0.005227727722189529	0.02176103817053951	4.1613147658527206e-05
Xe	5.197573778978241e-05	-9.794296042095843e-05	0.002781214563423488	-0.007674460492042439	-0.0037188907722584394	1.4582275763885899e-05
2
277800
Ar	-0.0002494091815080616	0.00014863675671403906	0.0031930530472160977	0.01175339361431604	0.019161621799449028	2.1201440444869123e-05
Xe	-3.237013773595602e-05	-0.00010351900821340726	0.00278161014105767	-0.008325532398669264	0.00264583284701194	4.36884213616956e-05
2
278000
Ar	-7.182862394544458e-05	0.0002791231767464195	0.003193635001131508	0.021961178668043417	0.005610584834501989	7.942162018915207e-05
Xe	-9.840627607836188e-05	-5.0186924317549174e-05	0.002781456008373267	-0.004189368049745889	0.007490846739079115	-6.352393586494433e-05
2
278200
Ar	0.00014690127706272317	0.0002495905724127214	0.0031944156559665323	0.01956339658908782	-0.011238653956446224	6.400548509629376e-05
Xe	-0.0001078253841881703	3.1712113875098604e-05	0.002780430469000421	0.002417223984499472	0.0080711769961519	-0.00010898524883848304
2
278400
Ar	0.00028083081819027425	7.655160217741985e-05	0.0031944459989068645	0.005863583235230454	-0.02164049765451416	-5.35540664579708e-05
Xe	-5.4981770609791955e-05	9.562451034322587e-05	0.0027797206824949545	0.0076191137656055	0.004039873363243308	-2.6770435831237842e-05
2
278600
Ar	0.00025310902418088777	-0.00014065083882642418	0.0031932649751865885	-0.011143097906503044	-0.019575051146688692	-0.0001594141701026925
Xe	2.9641719635445428e-05	0.00010477894452590166	0.002779697027811269	0.008435922060108124	-0.0023096104336648646	2.2750807350767817e-05
2
278800
Ar	8.008782144944768e-05	-0.0002769044388718953	0.0031920686774635546	-0.021717575240199138	-0.0063094872134751324	-7.506195230466475e-05
Xe	9.733383048315285e-05	5.400349497996081e-05	0.002780172021470378	0.0044185056342121295	-0.007347900933806215	4.904573644692225e-05
2
279000
Ar	-0.0001390811330266825	-0.0002544067033824755	0.0031916426490871783	-0.019873720726522687	0.010610292934771347	1.2869508872920496e-05
Xe	0.00010920604312471028	-2.7725021625507117e-05	0.0027804871704348298	-0.002144288382434273	-0.00816565391295611	2.8142389994490538e-05
2
279200
Ar	-0.00027860789677758356	-8.557953623593143e-05	0.0031920979569885735	-0.0065964713261763485	0.021428728608427455	6.868729438277486e-05
Xe	5.8493644131078964e-05	-9.352413710959285e-05	0.0027809497996467854	-0.007486728128885611	-0.004335294182597687	5.8870928059225454e-05
2
279400
Ar	-0.0002584657311054898	0.0001323311205202722	0.003192715104810061	0.010417188035957611	0.01994570725013539	8.168937252144133e-05
Xe	-2.565194485504065e-05	-0.00010580718623709649	0.002781558451584031	-0.008480915094855105	0.0020017268045703016	4.408961359045224e-05
2
279600
Ar	-9.063679764272413e-05	0.00027454238745427994	0.0031934171612088766	0.02147134938114826	0.007041167855842133	6.38042035030928e-05
Xe	-9.467251565552975e-05	-5.755242767306744e-05	0.002781663712423696	-0.004627998922545094	0.007146462337315019	-2.6831300581372693e-05
2
279800
Ar	0.00012918948185473215	0.0002594865287958525	0.0031939594992403926	0.020262517914489197	-0.009901837656829327	2.219558330905318e-05
Xe	-0.00010926066318616787	2.3550952216771815e-05	0.0027811966189298294	0.0018509527495221378	0.008239572376124108	-5.921964682801817e-05
2
280000
Ar	0.00027459216682027427	9.554443371699683e-05	0.0031940153091273254	0.007345748738760342	-0.0212116412994246	-2.934104366749585e-05
Xe	-6.12898470016556e-05	9.107973832832122e-05	0.002780566628717212	0.007249560116466313	0.004579926228932659	-7.425380842751468e-05
2
280200
Ar	0.0002619934646949992	-0.0001232316996113984	0.003193693162981646	-0.009725661724800055	-0.02030814722544305	-1.978415824974107e-05
Xe	2.1863063110758353e-05	0.00010632933004873693	0.002779833207789755	0.008533360314690607	-0.001662784146252071	-5.6007685345405346e-05
2
280400
Ar	9.899105754608576e-05	-0.00027111778687092375	0.0031935436775821892	-0.021214136898466268	-0.007760802110123879	-1.8910284995759712e-05
Xe	9.249511497122366e-05	6.0533958443697784e-05	0.00277934482001171	0.004858787715051371	-0.007024762734132272	-3.371230560224587e-05
2
280600
Ar	-0.00012109636217889047	-0.00026323210367599776	0.003193128495398125	-0.020549150485532183	0.009242503179317943	-5.487371230729306e-05
Xe	0.00010978700668056169	-2.0528047991053088e-05	0.0027795950895114704	-0.0015792174232877566	-0.008362261867994913	0.00010397080741277521
2
280800
Ar	-0.0002716485598806961	-0.00010411882200637918	0.003192692911256324	-0.00803192581931758	0.02094649855251547	-2.8322155571425162e-05
Xe	6.399537382946924e-05	-9.025921324701012e-05	0.002781092104076025	-0.007128041891108519	-0.004887046465212354	0.00017328755902520202
2
281000
Ar	-0.00026623018217672504	0.00011461211336900523	0.003192395076721309	0.009046208517194083	0.020576080865628933	2.5218010936742802e-05
Xe	-1.868040018229149e-05	-0.00010842947585931365	0.002782726152285888	-0.008555325454057443	0.0014508472543562434	0.00011492731579344825
2
281200
Ar	-0.00010815406558317508	0.0002675725312738644	0.003193050468429987	0.020963293006875723	0.008437088925993354	0.00010795687358615129
Xe	-9.041153558990463e-05	-6.405643067627654e-05	0.0027832084405793552	-0.005059002979122847	0.006943253906246817	-3.869097090530357e-05
2
281400
Ar	0.0001121868423320309	0.0002668258140640066	0.0031942774051799813	0.020874998509564126	-0.00856775615208798	0.00010860835596741867
Xe	-0.00011036102199732315	1.6833005463206032e-05	0.002782131629074445	0.0012760128518205295	0.008404649168155318	-0.00014985447566054222
2
281600
Ar	0.00026804843428346054	0.00011289853693945166	0.003194856855521254	0.00871404025275532	-0.020662840065039673	4.857752714656636e-06
Xe	-6.715937343156358e-05	8.76300941971965e-05	0.0027805689667484805	0.006950132029013411	0.0050610774737286385	-0.00016943773736687625
2
281800
Ar	0.00026981101384903396	-0.0001060796712072517	0.0031941833225486308	-0.008380931690921167	-0.020880348573895046	-0.00013270405277221418
Xe	1.4828797594285803e-05	0.00010803594085957577	0.002779243129581838	0.008594778552312434	-0.0012062795966303434	-8.810353661269359e-05
2
282000
Ar	0.0001165684341854222	-0.00026406353949010887	0.0031927337156122866	-0.020687959010857668	-0.009113691794740884	-0.00012392507749624986
Xe	8.811702427988241e-05	6.608001253580396e-05	0.0027789042525960626	0.005319687577943314	-0.006755286571646577	-3.938346666538517e-06
2
282200
Ar	-0.0001035327598038669	-0.00027055289927036463	0.0031918844406202767	-0.02109846073347871	0.007883070005123415	-5.4292882409187245e-05
Xe	0.00011079871925015515	-1.373313945807538e-05	0.0027794165482448105	-0.0010182132063388746	-0.008385218021535575	8.557523920691382e-05
2
282400
Ar	-0.0002640806694550486	-0.00012168705269221764	0.0031918846925377774	-0.009407560483230633	0.020377602816916286	6.359879918099769e-05
Xe	6.978025090103375e-05	-8.52195737175224e-05	0.002780785442534989	-0.00675634363048986	-0.005203299501805309	0.00017136500656540196
2
282600
Ar	-0.00027313264956697745	9.71307256391063e-05	0.0031928540749183074	0.007681772682690606	0.021151814264620074	0.0001390020340754393
Xe	-1.1231948600964987e-05	-0.00010798223947478566	0.002782271656152555	-0.008625007298806338	0.0008875143718950293	0.00011902998203676692
2
282800
Ar	-0.00012552361715016628	0.0002600217872080591	0.0031944373499765565	0.020350660818904135	0.009757004859110815	0.00016880365746913255
Xe	-8.580064296451952e-05	-6.911401151328043e-05	0.0027828822068069773	-0.005546854636694594	0.0065003276746790056	1.4948521763303771e-05
2
283000
Ar	9.446910728975693e-05	0.000273500601319699	0.0031955070151438473	0.021396283413429487	-0.0072357485544972365	4.4540305839883784e-05
Xe	-0.00011112223867666362	9.26308729046922e-06	0.0027822741938526366	0.0007461008595293014	0.008388515570919918	-0.0001028332726123176
2
283200
Ar	0.00026017034589049897	0.00012972845341598292	0.0031951553662545287	0.010067787876394518	-0.020046236352771484	-0.00011519027382332042
Xe	-7.232482842395314e-05	8.229652638712154e-05	0.0027811177459709036	0.006656837624206229	0.005491475286932676	-0.00011356580973406885
2
283400
Ar	0.0002764058937981671	-8.82402259354213e-05	0.0031935295343745044	-0.006973429792910026	-0.021331116391710637	-0.00017055070326156568
Xe	8.451375458291254e-06	0.00010806276477508039	0.002780061631236546	0.008669317673143648	-0.0005705221823441889	-9.930298351239538e-05
2
283600
Ar	0.00013419620639988468	-0.0002551939945376581	0.003192085389978849	-0.020024731103906165	-0.010386949119435872	-9.923572871485043e-05
Xe	8.424629178003958e-05	7.176587515865506e-05	0.002779364366571379	0.0057189811314014	-0.006331250232014469	-3.8875162752626165e-05
2
283800
Ar	-8.50060460735614e-05	-0.000275914596970363	0.003191625392653668	-0.021597675265593582	0.006448582641589421	6.81085069960366e-08
Xe	0.00011164082179582221	-5.970514583359432e-06	0.0027790930135094013	-0.0005089190794960955	-0.008416421164848038	-1.9636051050121575e-05
2
284000
Ar	-0.00025550731203911057	-0.00013848396203315093	0.003192134042771304	-0.010768113826614056	0.019630766298975286	8.013064432249719e-05
Xe	7.483162198663275e-05	-8.03104698306244e-05	0.0027791109615873753	-0.006483958825811146	-0.005686276617461633	3.4944356489613006e-05
2
284200
Ar	-0.00027956703584356595	7.860469791794567e-05	0.0031931313593018297	0.006208210682959297	0.021571839658702456	0.0001268621106108976
Xe	-5.217291785452834e-06	-0.00010822172960789245	0.002779810296877302	-0.008706367186484324	0.0003730471672357278	8.428969236894835e-05
2
284400
Ar	-0.00014338173160459745	0.00025076131139644173	0.0031942788798097954	0.01964391695684622	0.011106330702172628	0.0001133249733896983
Xe	-8.223303825802766e-05	-7.401110899199702e-05	0.002780531151030997	-0.00591759612163142	0.006140794741836455	5.148994613000857e-05
2
284600
Ar	7.509000039647086e-05	0.00027886998265916666	0.0031951431473217773	0.021828289990100103	-0.005765261230340617	8.689271536804681e-06
Xe	-0.00011207147441727768	2.8111630817466105e-06	0.00278073893697927	0.0002567260233793373	0.008456182445339706	4.173257298691381e-06
2
284800
Ar	0.00025010564484911554	0.00014675514545320613	0.003194358695747169	0.011395680188356896	-0.019334786021765703	-0.0001413933755266268
Xe	-7.726678659449877e-05	7.86234086459645e-05	0.0027810446266926738	0.0063464068181177755	0.0059072545846787375	2.326585542240939e-05
2
285000
Ar	0.0002812893622633242	-6.984873576435818e-05	0.0031927583881064666	-0.005452003912332888	-0.021772695176907386	-0.0001534273988131207
Xe	2.2316630789938876e-06	0.00010935059486990959	0.00278116747743742	0.008764948518833568	-6.601727065206034e-05	2.525227558466019e-05
2
285200
Ar	0.00015168757701828172	-0.00024636886052960326	0.003191770153622763	-0.019176032849426587	-0.011738484393230856	-3.540952189784433e-05
Xe	8.047104832462528e-05	7.739716223433343e-05	0.002781193054751298	0.006091413892774747	-0.005980342082888681	-2.2213011037628923e-05
2
285400
Ar	-6.507867739852451e-05	-0.00028151916469804425	0.0031917704981622654	-0.021980942475930146	0.005045529214533814	5.2161173637027646e-05
Xe	0.00011270780224203055	1.37645971688777e-06	0.0027808147988355276	3.6117681512048584e-06	-0.008445298388318884	-4.04065346632032e-05
2
285600
Ar	-0.0002448126275490809	-0.0001553160533246583	0.0031928793582416915	-0.012100268076463305	0.018906912851756514	0.00013919568382588494
Xe	8.0578569844295e-05	-7.511431621404568e-05	0.0027804493425174037	-0.006100740455764867	-0.0060817462359239426	-2.9864435867774067e-06
2
285800
Ar	-0.0002838069618988205	6.000651947135805e-05	0.003194049130836752	0.00470300664168399	0.021968175517196896	0.00012195910670863866
Xe	2.280742913818714e-06	-0.00010846948110327348	0.0027805369921984876	-0.008747679924686327	-0.0002510325029633863	6.876656997999051e-06
2
286000
Ar	-0.000159887002780041	0.00024107030258003763	0.003195120672723907	0.01881907314425901	0.012392090823421752	6.917729609707372e-05
Xe	-7.720907749173238e-05	-7.952139219272998e-05	0.0027805702527932174	-0.006324200016759047	0.005765015873323405	2.26542156750378e-06
2
286200
Ar	5.5747533690371e-05	0.00028342300702605583	0.003195338589824011	0.022117765037051783	-0.004352420061126145	-6.0100288666189365e-05
Xe	-0.000112285263912491	-4.495027679282199e-06	0.0027807477903532387	-0.00033239910349286514	0.008473122403479789	3.652282831298645e-05
2
286400
Ar	0.00023936983583492763	0.000163020162886979	0.0031943210850060725	0.012744738205015099	-0.01851871699600667	-0.00010794376610394801
Xe	-8.287613990174565e-05	7.348949988681517e-05	0.0027809091845103643	0.005914136507439594	0.006310504771836918	-4.419656728046307e-06
2
286600
Ar	0.0002857463858968168	-5.060956768561991e-05	0.0031928983274082624	-0.003955262878847826	-0.022025974116885224	-0.00015604011237588554
Xe	-5.564621634213474e-06	0.000109486386383378	0.0027807966055862807	0.008743801867380515	0.0005168687189401618	-3.646014973265921e-06
2
286800
Ar	0.0001678899162145933	-0.00023495880594647046	0.003191936507633744	-0.018418787545214844	-0.012965255068928904	-2.1826060636200495e-05
Xe	7.468196125904284e-05	8.296798857127112e-05	0.0027806875208962814	0.006488581293892043	-0.0055291173982260425	-2.4786123630325327e-05
2
287000
Ar	-4.6388141250465673e-05	-0.0002846612011672685	0.0031922629072730756	-0.022259967963296	0.0035390598117833734	9.081851068120816e-05
Xe	0.00011169619823523935	9.603934190656867e-06	0.002780402033106089	0.0005422996699646264	-0.008415324052071141	-5.0872330969179916e-05
2
287200
Ar	-0.00023377409518304432	-0.0001709839762187849	0.0031933562625394833	-0.013316032665652037	0.01802929456226633	9.798025016034969e-05
Xe	8.463046415138204e-05	-6.912494019765095e-05	0.0027800163331443495	-0.005699058826740733	-0.0065210479331148305	-2.6566929263111595e-05
2
287400
Ar	-0.00028657257165539497	4.0573511311591875e-05	0.0031944848438025127	0.0032902066366238642	0.022106974686737474	0.00010339849275898175
Xe	8.907629026714044e-06	-0.0001080087829344704	0.002779950107011135	-0.008682172293909773	-0.0008636320865132487	1.7990499273722648e-05
2
287600
Ar	-0.00017466886937124616	0.00022824896083471928	0.0031951317471258806	0.017982438427172287	0.013514381654911077	1.2435359905314048e-05
Xe	-7.200460460414808e-05	-8.48265432256782e-05	0.0027802836012273185	-0.006674010816861177	0.0052640094753579345	3.641528212595258e-05
2
287800
Ar	3.750751171152797e-05	0.00028453996268038007	0.0031946935936200322	0.022319698922846257	-0.0028339608434576878	-9.904304245382788e-05
Xe	-0.00011152082575039934	-1.2993692394537132e-05	0.002780666421158686	-0.0008340342324542194	0.00838837158996256	5.1725050794984725e-05
2
288000
Ar	0.00022787440610768216	0.0001773503564376226	0.003193177451780114	0.013811445143570475	-0.017504142224987796	-0.00018871229889714692
Xe	-8.709481841616533e-05	6.653947775503453e-05	0.002781288819234559	0.005462081059431724	0.00668274622476824	8.110523442344226e-05
2
288200
Ar	0.00028734010163804983	-3.159507046965738e-05	0.0031916524740874534	-0.002537236808235605	-0.02216920965435844	-8.405245233853672e-05
Xe	-1.2965830858202595e-05	0.00010768279535915271	0.002781786113579069	0.008568973606941642	0.001148693201968801	3.33208426256525e-07
2
288400
Ar	0.00018227512542563822	-0.000222711848280307	0.003191814927054101	-0.017432673282466962	-0.014097052317149085	8.072831548999358e-05
Xe	6.796013222817056e-05	8.743100234825988e-05	0.002781243855085517	0.00677902807753704	-0.004998547089168466	-9.589365037565765e-05
2
288600
Ar	-2.7288585299854858e-05	-0.0002859694693964476	0.0031931156685107835	-0.022359531303624145	0.0020654964894070388	0.00015507201261237726
Xe	0.00010950967207814066	1.742770860355099e-05	0.002779987764504509	0.001113625034320355	-0.00828456270338832	-0.0001288694947609563
2
288800
Ar	-0.00022109043823016224	-0.0001852810913500068	0.0031944443969507473	-0.014427694590908683	0.017023078298101398	9.649306161020161e-05
Xe	8.81719952979353e-05	-6.243520005764431e-05	0.0027790613634445615	-0.005167554354448005	-0.006850614844828615	-6.480019065682688e-05
2
289000
Ar	-0.0002877448584122781	2.149113928146868e-05	0.0031951592051697748	0.0017848030516014995	0.022243781404572137	2.9007445000656978e-05
Xe	1.6133577805876e-05	-0.00010608394615310245	0.002778964331368334	-0.008500079966825615	-0.001449458790252107	6.469552109794205e-05
2
289200
Ar	-0.00018881972199097334	0.00021585147873908083	0.0031950932963893865	0.016955867782792077	0.01467330665420324	-3.2404691938718674e-05
Xe	-6.538174569296825e-05	-8.858679011724578e-05	0.0027796065525389733	-0.006968436029458787	0.004786494457953503	6.468269883397093e-05
2
289400
Ar	1.839959100601076e-05	0.000286324962184127	0.0031944788343175475	0.022392574041501127	-0.0013223269893694548	-9.991677988300518e-05
Xe	-0.00010948001299522563	-1.9776803528824934e-05	0.0027804144667985965	-0.0014076361017127147	0.00828550580674695	7.892189458449829e-05
2
289600
Ar	0.00021502106631125182	0.00019213471135501125	0.00319332685287882	0.01494300274127676	-0.01656616190431869	-0.00010352333980292746
Xe	-9.091925166114235e-05	6.066449985588044e-05	0.0027811450468354804	0.004934244057063499	0.006981833537786793	5.1262611511334874e-05
2
289800
Ar	0.00028812268685966987	-1.2453344595272723e-05	0.0031927636457689847	-0.0010144989996167552	-0.022278167374914355	9.50276266178463e-06
Xe	-2.0422893888936617e-05	0.00010617988169953386	0.002781216337323014	0.00843441010171785	0.0016416314336810463	-3.090762810161109e-05
2
290000
Ar	0.0001962086016232164	-0.00021021657972384686	0.003193249924715566	-0.01641464843299117	-0.015270582245148429	8.847917621059091e-05
Xe	6.159002103950461e-05	9.075941696771233e-05	0.0027807294521620565	0.0071131329011714355	-0.0045760335047256235	-5.284299217326508e-05
2
290200
Ar	-8.397498702655548e-06	-0.0002876704113143514	0.0031942929702976222	-0.022421736959233038	0.0005789595767720643	9.588638286216e-05
Xe	0.00010806354599981261	2.3393562497398264e-05	0.0027800628310232843	0.00171713963359298	-0.0082033743054566	-6.150479578831571e-05
2
290400
Ar	-0.0002083435053203956	-0.00019982639202178402	0.0031950254328631227	-0.015527202395253629	0.016113097359637785	1.1412601035631235e-05
Xe	9.21831811891761e-05	-5.7379692182063356e-05	0.0027797719579504567	-0.004728675723880987	-0.00714416809899011	-2.4368437109508448e-05
2
290600
Ar	-0.0002887330720019863	3.162752824519146e-06	0.003194674489181953	0.0002762384123340801	0.022394706985055492	-8.726267772699374e-05
Xe	2.2944269605907833e-05	-0.00010545404730974932	0.002779623764784447	-0.00839674680113005	-0.0019881304426212234	4.789559245329269e-06
2
290800
Ar	-0.00020336170919645302	0.00020448140115050722	0.0031936749442752293	0.015921695310607074	0.015791858013425614	-9.807159810827159e-05
Xe	-5.9391410423588643e-05	-9.299008907988582e-05	0.0027798509665643715	-0.007246688811650606	0.004346301004315815	2.1227717722094415e-05
2
291000
Ar	-1.3513885602161813e-06	0.00028853190593584936	0.0031930857624605145	0.0224319890121585	0.0001707899023471803	-2.6469115232702876e-05
Xe	-0.00010777280770750382	-2.7081185149294473e-05	0.002779992894706344	-0.0019666892686628556	0.008152648238011208	1.6871297018124744e-05
2
291200
Ar	0.0002015210952644278	0.00020728336579233525	0.0031929613806694055	0.01608372744111736	-0.01559405672469329	-2.6205068422912932e-05
Xe	-9.467727417103462e-05	5.421382315513273e-05	0.0027804395681114997	0.004438912945918627	0.007288718053904877	5.65146934333822e-05
2
291400
Ar	0.0002889255637976404	7.2199911197942696e-06	0.003193044898299554	0.0005079023553264812	-0.02239096805880362	3.616894820646997e-05
Xe	-2.731185367277808e-05	0.00010480394303313934	0.0027808429031164813	0.008336056165596985	0.0023182740414752923	7.462156742329853e-06
2
291600
Ar	0.00021090462352975304	-0.0001969284243050928	0.003193837728223685	-0.015347650541111318	-0.01634018002336449	8.627154348586197e-05
Xe	5.5717176565954507e-05	9.567551931696888e-05	0.00278077511968952	0.007431794776148736	-0.004077018661083514	-6.854714978818136e-06
2
291800
Ar	1.1978463591006003e-05	-0.00028780880099707966	0.003194686477836423	-0.022386910064036994	-0.0008936826333799802	8.938189944524763e-05
Xe	0.00010683958592468454	3.159656051488082e-05	0.002780725653331026	0.002271923893039747	-0.008095482280777383	4.08586344238232e-06
2
292000
Ar	-0.00019363900328026192	-0.00021323450369929898	0.003194992384663731	-0.016630681815279144	0.015036189156526904	-1.927797241167392e-05
Xe	9.693812359514391e-05	-5.067586473305087e-05	0.002780649771508775	-0.004183141358665145	-0.007514377782659228	4.945616277809261e-06
2
292200
Ar	-0.000287986016424335	-1.6660395515772748e-05	0.0031942029066625594	-0.0012864413867132538	0.02227788246784621	-8.939937576453962e-05
Xe	3.130486749514021e-05	-0.00010381738945161683	0.002780595315603755	-0.008287932712849496	-0.0025898358146233184	-1.0502132937487673e-05
2
292400
Ar	-0.00021675823244334517	0.00018945395573390778	0.0031933959558217025	0.014791223536407192	0.016841881834086178	-5.905341393945076e-05
Xe	-5.215309030954745e-05	-9.728911590529233e-05	0.002780430250968461	-0.007585192714318031	0.0038181292534368457	-3.021381555079783e-05
2
292600
Ar	-2.1227025648310527e-05	0.0002872400324347041	0.0031930738930323562	0.022373908760948392	0.0017080559161271468	-2.1890502854368973e-05
Xe	-0.00010575286307811036	-3.479454874826575e-05	0.002780124491130264	-0.002569133611833412	0.008041218598921403	-1.1297554069897582e-05
2
292800
Ar	0.00018684421929779743	0.00022021510367386477	0.0031928977853626288	0.01711340502536222	-0.014448458855730397	5.468777729596809e-07
Xe	-9.865094741148452e-05	4.7738326957331885e-05	0.002780171422934091	0.003920073226785861	0.007610166985164244	2.3631843168166856e-05
2
293000
Ar	0.00028756969903045293	2.666683550407456e-05	0.0031929173029875656	0.0020107667331426653	-0.022312023269616222	4.8344418792932885e-05
Xe	-3.489425926411072e-05	0.00010276304554131874	0.0027807407056431354	0.0081838805715472	0.002851806086249053	6.074427154783228e-05
2
293200
Ar	0.00022334299536979263	-0.00018228791316664711	0.003193748755370728	-0.014229623709842149	-0.017365550698012204	8.441226298104496e-05
Xe	4.90000922705781e-05	9.896458159381632e-05	0.0027811836248145608	0.007728853750178406	-0.003575222546252821	-1.1330679703395804e-05
2
293400
Ar	3.085882986933316e-05	-0.00028679665691713156	0.0031943606793506047	-0.02231219181118068	-0.002488648234611414	2.499761342520718e-05
Xe	0.00010453144596529795	3.825732276205151e-05	0.0027807818140798525	0.002830400639465296	-0.007963197430107	-5.245669344906909e-05
2
293600
Ar	-0.0001792516597368317	-0.00022708304060599846	0.003194044437440609	-0.017585896435841193	0.013840432718452119	-6.73367822954816e-05
Xe	0.00010029985615334773	-4.461183416045142e-05	0.0027803604890725723	-0.0036607832978181433	-0.007796709089466183	1.0826297178813202e-05
2
293800
Ar	-0.0002864151320206807	-3.68846409159039e-05	0.0031935766417598246	-0.0027917134534881124	0.022243437734121192	-4.315750971568616e-05
Xe	3.854909050078619e-05	-0.00010241026593834958	0.002780526116815735	-0.008062975656404835	-0.003142275826791362	-4.5281651214208713e-07
2
294000
Ar	-0.00022934928463450398	0.00017452131983183763	0.0031934741161599796	0.013622036605960551	0.017898337318918437	1.3263666637939334e-05
Xe	-4.517084109448996e-05	-0.00010127867085559444	0.0027803437225045356	-0.007805842705236021	0.003384278037913345	-3.4453066531047575e-05
2
294200
Ar	-4.034214792451925e-05	0.000285989339538168	0.0031936655300634216	0.02225217909191236	0.003287844192329825	1.8952843204633545e-05
Xe	-0.00010276840104948926	-4.158871834189188e-05	0.002779749918187711	-0.0031372379081161016	0.007966749646040315	-6.500702417981648e-05
2
294400
Ar	0.00017196023426244524	0.00023367524557091796	0.003193768268753926	0.018023637809330653	-0.013206253686359583	-1.708360819095671e-06
Xe	-0.00010141598216544524	4.221464538679139e-05	0.002779589707971362	0.0033733045987472217	0.007942019193186102	4.25865901031436e-05
2
294600
Ar	0.0002852889632319569	4.757165990996412e-05	0.003193739810305856	0.00349576249553966	-0.0221283979352223	-7.357334128214034e-06
Xe	-4.170554027175031e-05	0.00010176597698629368	0.0027802384437503372	0.007940140389939255	0.0033485349345098348	8.298779585585906e-05
2
294800
Ar	0.00023517075505749603	-0.00016551989301301077	0.003193669132018359	-0.013015392070661887	-0.018349977696917603	-5.299307342001262e-06
Xe	4.1957379051556654e-05	0.00010297505435566393	0.0027811063751422287	0.007945934546391132	-0.003132302306268964	9.036047683469624e-05
2
295000
Ar	5.0162973763975106e-05	-0.00028385393384234057	0.0031937137253933365	-0.022096799466336393	-0.004097440653751034	-5.696989790566014e-06
Xe	0.0001015455018174178	4.5078556613273143e-05	0.0027818271627319154	0.003349956084770115	-0.007838606028789925	2.886714760177296e-05
2
295200
Ar	-0.0001635565280338662	-0.0002395440706996277	0.0031936639127210066	-0.018493002071649656	0.012522102905730968	1.931472368530063e-06
Xe	0.00010280930458318471	-3.834385320458338e-05	0.0027819005875179543	-0.003121594854757623	-0.008023495274873631	-1.8384486455650534e-05
2
295400
Ar	-0.00028350697305399	-5.787479015081037e-05	0.0031933769069635524	-0.004276473843754398	0.02193316554068552	-5.340953277809338e-05
Xe	4.517200768222184e-05	-9.9818745010489e-05	0.0027812390490595603	-0.007816705725767781	-0.003643131609278238	-0.00010017576902524184
2
295600
Ar	-0.00024095391132051818	0.00015669581427975882	0.003193120118348721	0.01234455556996344	0.018831548630182042	-1.4265039938046692e-06
Xe	-3.846609892672217e-05	-0.00010394963647183093	0.002780160099818785	-0.008057238709094125	0.002853730361286838	-9.125121673439926e-05
2
295800
Ar	-6.043420381287281e-05	0.000281887468417475	0.0031935284782515427	0.021929050772583128	0.0049355912790356405	5.110006971609247e-05
Xe	-0.00010012258145324409	-4.848195721569262e-05	0.0027792796918716268	-0.0036376816118564165	0.007688509198484516	-8.317419482628397e-05
2
296000
Ar	0.00015476790802327096	0.00024523847082588235	0.0031939384425876713	0.018908519802899714	-0.01190038328381436	1.383834506446173e-05
Xe	-0.00010426505517137347	3.4877310889896826e-05	0.0027787199696393348	0.0028522565222901222	0.008136656513134765	2.331926042862258e-06
2
296200
Ar	0.0002806615303959987	6.740260145144498e-05	0.0031938306061217395	0.0050178947444013255	-0.021877284636606053	-4.6615258091362016e-05
Xe	-4.832356970228562e-05	9.819989688857427e-05	0.002778933508946478	0.007764387067559423	0.003895597880981097	4.798574149338125e-05
2
296400
Ar	0.0002454858043494565	-0.00014947321130334858	0.0031933803710262505	-0.011693412215772275	-0.0192864694932332	-3.7395766749480046e-05
Xe	3.5549503962546385e-05	0.00010517018583301228	0.0027794635217386443	0.008170417577868131	-0.002582147780750745	6.49431858424204e-05
2
296600
Ar	6.95997956732764e-05	-0.0002806044113541704	0.0031930347685344	-0.021705009216432373	-0.005600357956299844	-1.9396542096212207e-05
Xe	9.893819298098654e-05	5.173190172363967e-05	0.0027804199177535343	0.0038542325136634126	-0.007545531004607577	0.00010708615462941227
2
296800
Ar	-0.00014609034676627865	-0.00025052318270163144	0.003192852150937447	-0.019216237854512406	0.011299104571625035	4.564622212214586e-06
Xe	0.00010539316828194495	-3.128693383969981e-05	0.002781354584278599	-0.0026113649881493828	-0.008188421516335547	6.841610363928855e-05
2
297000
Ar	-0.00027778564294600596	-7.678057504682047e-05	0.0031930969320459607	-0.005803634355969793	0.021675133761813705	6.671814391444927e-05
Xe	5.159536909336067e-05	-9.615892768980994e-05	0.002781742786294029	-0.00760439674274708	-0.0041450267537276545	-6.900509584942462e-06
2
297200
Ar	-0.000250519008348636	0.0001408887755093184	0.0031940070077348163	0.010966927507906352	0.019651971379940274	0.0001104840740173398
Xe	-3.19114881262616e-05	-0.0001060051708051877	0.002781148919795259	-0.008232202489802337	0.002265792263109876	-9.199017081304194e-05
2
297400
Ar	-7.955894671685134e-05	0.00027780280159048323	0.0031949407984166365	0.02147766961631369	0.0063333876255962235	7.350241510464573e-05
Xe	-9.725278004744662e-05	-5.491344044268973e-05	0.0027801392724300677	-0.004164437090549021	0.007445217984420275	-8.89709501926058e-05
2
297600
Ar	0.00013714610283535768	0.00025477934223092454	0.0031947251489060848	0.019631293849780268	-0.010679181077530714	-0.00011026464652297157
Xe	-0.0001070095505909464	2.815008201772491e-05	0.002779732114452822	0.002316062601989511	0.008331002398116526	1.1260110971268404e-05
2
297800
Ar	0.0002749209781900238	8.540063734992337e-05	0.003193418932734743	0.0065177024191791985	-0.021447441393077048	-0.00014707906966337242
Xe	-5.5280361095274815e-05	9.530630415861157e-05	0.002779864422624553	0.007504938083065714	0.0044210131941905826	3.552970517147606e-05
2
298000
Ar	0.0002549155832262133	-0.00013280518054425554	0.0031924321306491484	-0.010318796902510525	-0.019970253840650577	-2.787282372727033e-05
Xe	2.8255973369083912e-05	0.00010778433527073394	0.0027803323521744393	0.008317370646711432	-0.0020445194556118927	5.1586546393467245e-05
2
298200
Ar	8.84915549604779e-05	-0.00027501727767886136	0.0031929275058417525	-0.021252198097361542	-0.007020001699807579	8.11602595082404e-05
Xe	9.528839469124505e-05	5.8355804056275716e-05	0.00278064211509052	0.004410794545139017	-0.007334541337866385	-4.795927933756051e-06
2
298400
Ar	-0.00012859227432912424	-0.0002593579538571639	0.003193895571016698	-0.01997037806560594	0.00999280224663826	9.748505275600767e-05
Xe	0.00010773494358526354	-2.4470230084260958e-05	0.0027805225206576512	-0.0020584523123800204	-0.008384702162409458	-2.2225565749248052e-05
2
298600
Ar	-0.00027196632719798155	-9.468207772900795e-05	0.0031946569008638875	-0.007231856157783809	0.02126212833496397	4.972951830848117e-05
Xe	5.796398112856571e-05	-9.321042605152869e-05	0.00278040557988935	-0.007374829329537748	-0.004669827520439016	-7.425101149298669e-06
2
298800
Ar	-0.00025931755613977113	0.00012440846822825682	0.0031948939726514354	0.009627143357736132	0.02034028669266043	-6.985027351762498e-07
Xe	-2.5154408009971685e-05	-0.00010867919884053369	0.002780225239148561	-0.00842275964963684	0.0017356308409378915	-1.8612159772681207e-05
2
299000
Ar	-9.76739411942778e-05	0.00027231002326215034	0.0031946089210028094	0.021035504388095292	0.007707271647790223	-8.463402550503903e-05
Xe	-9.370100151431109e-05	-6.165596461188755e-05	0.002780160283946717	-0.004594032603802799	0.007179645572758294	1.1536499045883103e-05
2
299200
Ar	0.00012044234423514847	0.00026343820228476257	0.0031934802682832097	0.02036320243428133	-0.009400898413297635	-0.00013967805078362455
Xe	-0.00010820680094168227	2.0740729993503645e-05	0.0027804720152546274	0.0018601787473642582	0.008465168095598545	5.628511405726895e-05
2
299400
Ar	0.0002696858289446456	0.00010278269811409991	0.0031923528624910793	0.007955942548502034	-0.021082507871991677	-6.19457734760586e-05
Xe	-6.042710590630461e-05	9.11195941995718e-05	0.002780963764532699	0.007210958581664772	0.004886431705734399	2.8204838864945982e-05
2
299600
Ar	0.0002643517274147528	-0.0001171421359909912	0.0031924425638793765	-0.008979819961702995	-0.02065307889570625	7.691938341838934e-05
Xe	2.182310676885172e-05	0.00010903847838057777	0.0027810682720160415	0.008414711988669516	-0.0014644147459808127	-1.0728296492265617e-05
2
299800
Ar	0.00010749180179683123	-0.00026987844441035686	0.0031934076268850826	-0.02080157953756076	-0.008356242308033677	8.486437688093979e-05
Xe	9.125476953882023e-05	6.471116127299455e-05	0.0027808948611503736	0.004778782002975568	-0.006961147139426843	-2.512054186249377e-05
