2
0
Ar	-0.0004261681226666201	0.00010342943471315081	0.003178257826235984	0.00601686030981403	0.024979935165855078	-5.446321505636176e-05
Xe	-7.08731593868538e-05	-0.00014849609312265246	0.0027971734730259175	-0.008775670478632116	0.0040747522860027745	-4.934943850658521e-06
2
200
Ar	-0.00030892897397336803	0.0003266851546022585	0.0031771900885189147	0.01689818862058431	0.018583329606706524	-0.00014115808064407487
Xe	-0.000144184777681077	-8.808922022348477e-05	0.0027975415678500887	-0.005514048231677139	0.007698811837531839	0.00010031370202430196
2
400
Ar	-0.00010382381156327956	0.00045693518609725035	0.003175111682224442	0.023121255183422354	0.006810591691140146	-0.0002623809022075034
Xe	-0.00017577344273979586	-1.9071240192907308e-06	0.0027995301513567272	-0.0006554842381545879	0.009110129690366297	0.00032761514772444245
2
600
Ar	0.00013142449857894936	0.0004562247358992918	0.003171907051359135	0.02278049555659424	-0.006954781372216869	-0.00033218790651977093
Xe	-0.000156661955761409	8.543889100724211e-05	0.002803082156505684	0.004390275434349034	0.007921579881563976	0.00036805335026708673
2
800
Ar	0.0003299083841754671	0.00032508955104123166	0.0031692357946372777	0.015981120708917496	-0.018611337094026768	-0.00014922208266951152
Xe	-9.232611450558218e-05	0.00014841607058214683	0.0028064810464223273	0.008123836480140152	0.004354766249382578	0.00027778486630434314
2
1000
Ar	0.0004362090637313603	0.00010189134590530417	0.0031696556872325087	0.004802942034794574	-0.024925793351144768	0.0002767460850780428
Xe	-2.4383821467942324e-06	0.00016840152310492268	0.002807523455407483	0.009404125906127811	-0.00045034528008966413	-7.563404207163379e-05
2
1200
Ar	0.0004213592771416878	-0.0001501096660083436	0.0031740410313878336	-0.007723679480992454	-0.024291708970379976	0.000548840321561063
Xe	8.687854665038761e-05	0.00013996235082445866	0.0028046655499189958	0.008008412336545555	-0.005077441189475702	-0.00046144019375309975
2
1400
Ar	0.00028804062396019513	-0.00036034148658672217	0.0031794424739512743	-0.018318857100060846	-0.016695626837973564	0.0004524006607074546
Xe	0.00015054998952578942	7.158212917668751e-05	0.0027994817552739427	0.004421557710702469	-0.008316826259343053	-0.0005095066043552348
2
1600
Ar	7.259475910593323e-05	-0.0004674392431874543	0.003181625258014279	-0.023714654740612406	-0.00417214589316268	-3.629294541978793e-05
Xe	0.00017105759444202703	-1.8588653579180877e-05	0.0027953334577483263	-0.00044099037486022765	-0.009287186325214934	-0.0002687033600329153
2
1800
Ar	-0.00016367011002754505	-0.0004399181942199401	0.00317892108361561	-0.022369968655457838	0.009525725419385286	-0.0004715317706344637
Xe	0.00014207860063392735	-0.00010497348119801839	0.0027945099524217354	-0.005220943935101146	-0.00755447775366807	0.00012146616478036324
2
2000
Ar	-0.00035354824982837985	-0.00028643372875753793	0.0031736315902756037	-0.014696618066325782	0.020385273630496054	-0.0005457923787854795
Xe	7.15087608399643e-05	-0.00016211692878248947	0.0027969342691606504	-0.008554103494124115	-0.0035772931000785046	0.0003561609161577139
2
2200
Ar	-0.00044399389316822135	-5.1546145711751615e-05	0.003169788683722783	-0.002961815880908787	0.02546534799737965	-0.00018282690228783118
Xe	-1.9898703346505998e-05	-0.0001728973004500314	0.002800819946595387	-0.009246378331348218	0.001455519075687181	0.00038425501419507406
2
2400
Ar	-0.00040996748164215277	0.00019831329983487704	0.0031700843448642696	0.009618126212651412	0.023297881426804334	0.00020179244017696195
Xe	-0.00010462053187942394	-0.00013457620255380567	0.0028041757015716674	-0.007305994032690225	0.006022930253358863	0.00027187273276895607
2
2600
Ar	-0.0002601079497193404	0.00039226558065107067	0.0031729648202991657	0.019617864880748438	0.014531709733022495	0.0003353028161166031
Xe	-0.000158974277623206	-5.818308630323801e-05	0.0028060189700549834	-0.003284558857686496	0.008883170849014304	7.324005052774045e-05
2
2800
Ar	-3.636693654128542e-05	0.0004745988168876477	0.003176183946243243	0.02404630882946408	0.0015297874266519385	0.00025733562044963387
Xe	-0.00016725874856746855	3.4728216341146986e-05	0.0028059398969755736	0.0016839250560299135	0.009238196975258567	-0.00011441888556823745
2
3000
Ar	0.00019779386668064645	0.000421574947163069	0.003177842955199499	0.021666457636379404	-0.011854511446822473	9.430941772873658e-05
Xe	-0.0001270403965899534	0.00011780777293991936	0.0028035862070984047	0.006130238732793253	0.006963537250187023	-0.00033891162467990894
2
3200
Ar	0.0003768718124182911	0.000249120186385646	0.0031780583244170237	0.013265325862856045	-0.02180147942255622	-2.772206768644216e-05
Xe	-5.045526791117761e-05	0.00016702443021198926	0.002799628015588376	0.008788700024885009	0.002654387533647631	-0.0004175140918504591
2
3400
Ar	0.00045009472009267207	5.844356831125275e-06	0.0031774036267329707	0.001010251253828479	-0.02566018838030632	-0.00011797940036728746
Xe	4.03337486439207e-05	0.00016809307046010974	0.0027956421624219757	0.00892418824955604	-0.0024132087090175582	-0.0003607750816243516
2
3600
Ar	0.0003955084186308595	-0.00023940068302404457	0.003175705208467067	-0.011669399720294177	-0.022173835267376436	-0.0002126725495462129
Xe	0.00011997443867757533	0.00012061727058453204	0.0027934444984078575	0.0065922645538569824	-0.006844966721751457	-4.346414975372331e-05
2
3800
Ar	0.0002276530676472926	-0.00041604494722740276	0.003173401553789389	-0.021076557721842186	-0.01229017816025225	-0.0002332900712597903
Xe	0.00016560723518843938	3.769821177192526e-05	0.002794903779423873	0.0022980089062314703	-0.009309898286952382	0.000344326456146283
2
4000
Ar	-5.453816160388357e-06	-0.00047350719253516296	0.003171485059465158	-0.024424372424507984	0.001032891777492543	-9.849240783765645e-05
Xe	0.000163987702623385	-5.631907395106807e-05	0.0027997460548961147	-0.0026126381328722015	-0.009014599643035684	0.0005658856253071715
2
4200
Ar	-0.00023745623627975491	-0.00039715319413438643	0.0031718952790641608	-0.02086232601082443	0.013872313209378352	0.00019661145460947004
Xe	0.00011565634365039744	-0.00013374724745335246	0.002805080457695828	-0.006806560698761864	-0.006083513231931579	0.00042334733096693195
2
4400
Ar	-0.0004032284617990149	-0.00020895809621769535	0.0031751802734021604	-0.011501952018652523	0.02284661971060237	0.0004037244658037385
Xe	3.484267672270983e-05	-0.00017198126267418322	0.0028076327521118056	-0.008963881304733301	-0.0013934272012010166	5.4379271697527834e-05
2
4600
Ar	-0.0004563038150061295	3.837009015739642e-05	0.0031790545041639686	0.0011815292672311623	0.02542164402501259	0.0003052010697885625
Xe	-5.512601774525685e-05	-0.00016051684000178575	0.002805935457614595	-0.008582478834572584	0.0036200078423469415	-0.00034443358481005075
2
4800
Ar	-0.00038013272411926925	0.000274996549640558	0.0031805896682434447	0.013679231618018194	0.020721848537944024	-3.499881216690359e-05
Xe	-0.0001290744362906532	-0.00010341320181452307	0.0028015580435169617	-0.005852778481827907	0.0075578293507547415	-0.0004951700239144875
2
5000
Ar	-0.00019587867028879625	0.0004326797457559044	0.0031785596263367213	0.022280323436520512	0.010029462597448347	-0.0003383565862272617
Xe	-0.00016656767261451154	-1.6187833825772523e-05	0.002796982868147278	-0.0014432493813011345	0.009443230359705596	-0.0004053446541902943
2
5200
Ar	4.4261787937925405e-05	0.0004663278000578793	0.0031744720229456487	0.02457220165791406	-0.0034407827427444105	-0.00041617283193419354
Xe	-0.00015654119828822832	7.625128337023719e-05	0.002793871593984101	0.0034249779694833903	0.008589542546682679	-0.00017682915969920396
2
5400
Ar	0.00027221314382134464	0.00036741374980197043	0.003171529236535649	0.01994292892966022	-0.015868012939407764	-0.00011281419337981946
Xe	-0.00010129636124864128	0.00014714688001942757	0.002793441201072791	0.0073443302210510365	0.005258543090777048	7.00454336423154e-05
2
5600
Ar	0.0004240891733651021	0.00016439134854433736	0.00317246646911466	0.009693179170818649	-0.02376569863618015	0.00026303527756558613
Xe	-1.700141285048404e-05	0.00017599916107285184	0.0027954814560198615	0.009091884204044241	0.0003542798391991978	0.0002971956865047745
2
5800
Ar	0.0004563270217058682	-8.549991986580739e-05	0.003175868289403408	-0.003419324433076279	-0.024964813405738903	0.00033862558564247034
Xe	7.195178153671599e-05	0.0001543983918913774	0.002799027361088529	0.008303649121793367	-0.0045763175931430875	0.00039322241698464634
2
6000
Ar	0.00035861787297521006	-0.0003105763708729329	0.0031783135363968357	-0.015643647170593612	-0.018931471930427348	0.00013770841937724577
Xe	0.00014086994023623924	8.877502698756693e-05	0.0028030874755022206	0.005137329772297745	-0.008218600869597609	0.00040426209354408487
2
6200
Ar	0.00015879463833722872	-0.00044638265895806774	0.0031785009339748505	-0.02333027239426059	-0.0075873187749044314	-5.7771385284165506e-05
Xe	0.00016946149462238464	-2.302624680056106e-06	0.0028061338881745735	0.00046920042367196526	-0.00952752782738728	0.00017176976175508387
2
6400
Ar	-8.593968009804794e-05	-0.00045575782268191407	0.0031774290816218185	-0.024454589465599953	0.005745900861305866	-0.00011639824231731517
Xe	0.00014963936364840877	-9.2454645762475e-05	0.002806150245504699	-0.004305379228669353	-0.008073629850189834	-0.00020203902236164703
2
6600
Ar	-0.0003072691261655737	-0.00033691717229103056	0.003176545461960396	-0.01875087877734867	0.017474943313598557	-4.422654068802732e-05
Xe	8.750056733085303e-05	-0.00015560741161078914	0.0028021990035572843	-0.00783622243677778	-0.004257053150756645	-0.0005593403848176067
2
6800
Ar	-0.00044274889558685985	-0.0001225272012292592	0.0031762684128343066	-0.00764565140486472	0.024349501094547737	-2.742539595940565e-05
Xe	1.1404085660374408e-07	-0.00017392752241556232	0.0027961711170206936	-0.009220449573402734	0.0007094803825223657	-0.0005471331675614369
2
7000
Ar	-0.00045238626587321704	0.00012672079655715932	0.003175801429382296	0.005796994896569091	0.024274082130483158	-6.238286379287208e-05
Xe	-8.810110052653678e-05	-0.00014231500194831665	0.0027923193484624105	-0.007992291903699138	0.005462440880545254	-0.00017069288492762744
2
7200
Ar	-0.0003321718065290864	0.000339084127247624	0.003174915442597362	0.01763625661885302	0.017174471240703943	-8.549516227286577e-05
Xe	-0.00015198470731525015	-6.97473118863994e-05	0.002792922619627584	-0.0044555368775552025	0.008697701719509973	0.00027330375359556537
2
7400
Ar	-0.00011715058931995528	0.00045453904011852147	0.003174468915475677	0.024338728999895386	0.005400466700673143	4.0234084225420076e-05
Xe	-0.00017237313014769687	2.3336036272375648e-05	0.0027968205479048554	0.00045789956404588395	0.009438336991181765	0.000456839890757138
2
7600
Ar	0.00013144009676775036	0.0004414053400950962	0.0031756775777426827	0.024175204565140496	-0.007949590686732757	0.0001762026173298413
Xe	-0.00014350716436438923	0.00010993170434328204	0.0028009207859903966	0.005183783542760663	0.0074381718748683665	0.00031811891351068565
2
7800
Ar	0.00034344367400844007	0.0003032302893166973	0.003177759784633118	0.01722787894485955	-0.01902002297883179	0.00019661716939159326
Xe	-7.385439646560926e-05	0.00016491068971846208	0.0028032877643102082	0.008409978635341162	0.003295232533818491	0.00014555638215827784
2
8000
Ar	0.0004588759599777255	7.897539129380581e-05	0.003178766146145636	0.00530755753912084	-0.024720780699562427	-1.65697016079262e-05
Xe	1.680186581971406e-05	0.00017268073514549334	0.002803574831612418	0.009281521524918106	-0.0017892145374865669	-5.603450952028334e-05
2
8200
Ar	0.0004439885107264768	-0.0001678032601117674	0.003177124359121871	-0.00821933326687614	-0.023418002855884842	-0.0002988136813640487
Xe	0.00010266801635342437	0.0001310194950483975	0.0028021593759779036	0.007479031074877893	-0.006343495453711765	-0.00019961018297928374
2
8400
Ar	0.00030246409605105373	-0.00036671172263316303	0.003173891739867243	-0.01939811590914098	-0.015409887234526097	-0.00029723441118933975
Xe	0.00015936056547209332	5.202394666234168e-05	0.002799841920560996	0.003576427607086574	-0.009061798400872626	-0.0002516131466324174
2
8600
Ar	7.48358564797004e-05	-0.00046155615265239014	0.0031722355031565514	-0.02504074200761954	-0.0030964067124211844	4.799448776908638e-06
Xe	0.00017045665583511545	-4.1495817338269956e-05	0.0027974237625970105	-0.0014066754093229488	-0.009143163183817858	-0.00020780287868164577
2
8800
Ar	-0.00017480488064078263	-0.00042610894973984283	0.003174110907803393	-0.023660529800743645	0.010048701804884761	0.00033621698508493465
Xe	0.0001326226183042346	-0.0001224922870133575	0.0027956963562133594	-0.005955903703876095	-0.006662745437500339	-0.0001333284646075777
2
9000
Ar	-0.0003753216522799617	-0.00026986434141405233	0.003177775100906736	-0.01545729714760296	0.020467025010622045	0.00035274466327320827
Xe	5.6781064312171085e-05	-0.00016890082707308207	0.002795192915394307	-0.00884025592805175	-0.0023534857990003314	5.174367166197051e-05
2
9200
Ar	-0.00046888373670651254	-3.6350843853886394e-05	0.0031802626814914185	-0.002799287946584378	0.025051128769454936	9.426999644597283e-05
Xe	-3.61151241818448e-05	-0.00016714374173402822	0.0027968641214253178	-0.009302821745759242	0.002683176560054669	0.0003012045305554026
2
9400
Ar	-0.0004282880416054312	0.000207305518949757	0.00317949474387763	0.010681012699374022	0.022467158901863953	-0.00022600464905241888
Xe	-0.00012021283177898761	-0.00011760497893117947	0.0028005075278293295	-0.007083683291568704	0.006973445533166988	0.000423105598094466
2
9600
Ar	-0.00026586270453249274	0.0003915436588427499	0.0031765035734819718	0.02098392554531584	0.013492017189030913	-0.00034039834860880963
Xe	-0.0001701471356205863	-3.4359821323785026e-05	0.0028040336006943463	-0.0026761788172516635	0.009224082919026126	0.00025367398889580004
2
9800
Ar	-2.825510432669244e-05	0.000464900191011019	0.00317389009934934	0.02541096800680095	0.000837587953266098	-0.00016806581280606284
Xe	-0.00017124801606738447	5.777483785691627e-05	0.0028052367545310583	0.0024675889598608793	0.008728348401519674	-1.90294429316588e-05
2
10000
Ar	0.00021854560962649845	0.00040737733884051126	0.0031735637613896487	0.022723838168578217	-0.01207783840032358	9.713104637938195e-05
Xe	-0.00012349869881990205	0.00013178345496203472	0.0028032497199150653	0.006852862371470236	0.005747168921788029	-0.0003436985614570372
2
10200
Ar	0.0004042316698955101	0.0002345357081786589	0.0031752954974481533	0.013465976670925854	-0.021642699948981145	0.00020038828446888418
Xe	-4.087732617863313e-05	0.00016733731329181113	0.0027993166180875066	0.009252555010057143	0.0012004426663502665	-0.00041874311974091576
2
10400
Ar	0.0004744190688294031	-4.839438134528958e-06	0.0031768949753290202	0.00021865346991703036	-0.02505135023132309	0.00011176886740439492
Xe	5.335099984606527e-05	0.00015515748799295923	0.0027958361459722867	0.00912454354920275	-0.00358178280673207	-0.00023998311287220402
2
10600
Ar	0.0004091167889873079	-0.00024225587961287375	0.003177548095018648	-0.012978088832737145	-0.021268087937768913	4.355421510560761e-05
Xe	0.00013308273447454195	9.85876874645595e-05	0.0027946074350285884	0.006409955031740708	-0.007462686928385702	9.517589050628828e-06
2
10800
Ar	0.0002275324903891252	-0.00041035022547330986	0.0031776623024522325	-0.022441758873509698	-0.011553603247641174	-1.3943274619200581e-05
Xe	0.0001751738064399981	1.3481319246346954e-05	0.002795876612167795	0.0018034764539229546	-0.009158075689013986	0.00017628162197011802
2
11000
Ar	-1.87958844791407e-05	-0.00046249519506370683	0.0031776927357637964	-0.025637202302968343	0.001389149068663697	1.4645654559566403e-05
Xe	0.0001671013466131761	-7.568674310725366e-05	0.002797619198332852	-0.003379993379438553	-0.00822024406449573	0.0001602163609584314
2
11200
Ar	-0.0002605648771304888	-0.00038373679581460196	0.003177662640608956	-0.021537370688776484	0.014019317234440153	-4.1949750650455146e-05
Xe	0.00011098016569260408	-0.00014329897235838018	0.002799238936482656	-0.007564054058639545	-0.004983374326813819	0.00014323140172476607
2
11400
Ar	-0.00042837442059652584	-0.00019531611467400292	0.00317667042707545	-0.01119231112533253	0.022706309988414518	-0.00015938863669246478
Xe	2.3048642035657085e-05	-0.0001707209054748104	0.002800357375296845	-0.00959492386916123	-0.00034737984325425373	9.578967517627447e-05
2
11600
Ar	-0.0004736214322610418	4.84412420645349e-05	0.0031745313980018827	0.002356295983584202	0.024822585925814065	-0.00023998374776393154
Xe	-7.166166009165827e-05	-0.00014968174190086337	0.0028011732975156255	-0.008881783497411951	0.004474752269659537	8.163188505740236e-05
2
11800
Ar	-0.00038396237657723197	0.00027770485728080866	0.003173101404099993	0.0151181554355261	0.01993359378925404	-1.2376715628896861e-06
Xe	-0.00014581225231193178	-8.596722898374853e-05	0.002801425958998877	-0.0055841985348382365	0.007935819891021127	-6.455846066531055e-05
2
12000
Ar	-0.00018559656604375414	0.0004283791066004152	0.003174614830512632	0.023587274763450895	0.009486900251418198	0.0002901280838058886
Xe	-0.0001777631548666771	1.5396450831517328e-06	0.002799865467358739	-0.000661272572408986	0.009146474849449523	-0.0002258626842220711
2
12200
Ar	6.570342837332629e-05	0.0004583376985280489	0.0031782870062224524	0.025435536389141714	-0.003668584067141685	0.00039267297953080147
Xe	-0.00015856393425900273	8.829858332090879e-05	0.002797174776644582	0.004414763417778643	0.007819649228620888	-0.00026261110206692777
2
12400
Ar	0.00029852674657382524	0.0003580088559946822	0.0031814084054762465	0.01997474681086993	-0.015916048778269312	0.00017335087798830723
Xe	-9.374210427919769e-05	0.00015066516486074669	0.0027953038220144394	0.008265765579068385	0.004322031004347427	-8.51142761060869e-05
2
12600
Ar	0.000445679362686755	0.00015512917209043925	0.003180920212217402	0.008722763982327655	-0.023634332471475485	-0.00027374281232208725
Xe	-1.0321966436973108e-06	0.00017049055772384606	0.0027955939139028643	0.009807943665280943	-0.00046145809806190456	0.0001559450850224343
2
12800
Ar	0.0004650415308947739	-9.214603505364375e-05	0.0031768957263757828	-0.004921838537389457	-0.02458658295094194	-0.00045587719829741206
Xe	9.278191938953704e-05	0.0001419979411841938	0.002798365786654283	0.008496632559797544	-0.005128213765362461	0.0003684641692058771
2
13000
Ar	0.0003521929395835597	-0.0003133203295979287	0.0031728335274554616	-0.017103253304652025	-0.01860183749125908	-0.00029168809723288284
Xe	0.00016026497025261758	7.316957836357095e-05	0.0028015771823320635	0.00464778344686969	-0.008294464872650764	0.00022379940970490407
2
13200
Ar	0.00013938273607737504	-0.00044662626162328964	0.0031719101170390594	-0.024445520628043522	-0.007401975829805575	0.00010499739006807719
Xe	0.00018152164664064964	-1.580246592734535e-05	0.0028027531430625608	-0.00048063475452672714	-0.009072886231594572	1.5421582989608825e-05
2
13400
Ar	-0.00011341412743183366	-0.00045421544664316364	0.0031745835987883144	-0.024887038747279735	0.005950549299340507	0.00038355109327135027
Xe	0.00015123990878835862	-9.969255648366618e-05	0.0028017130732215113	-0.005434543725899031	-0.0073073068293843	-0.00020816717307458246
2
13600
Ar	-0.0003343855516883374	-0.0003329889328469492	0.003178426068371645	-0.018207043483084925	0.017724941383571228	0.0003128270848351247
Xe	7.802857198283953e-05	-0.00015498901345492708	0.002799573470537291	-0.008888706972141985	-0.00350736618261492	-0.00018361968854654323
2
13800
Ar	-0.00045963228504067533	-0.00011672976285713393	0.003180124992977481	-0.006253768443960793	0.02444158294890737	1.3353567852389455e-05
Xe	-1.796271002280824e-05	-0.00016635090395011415	0.0027977953836045874	-0.00985430174869574	0.0012861991190448363	-0.00013629082020317812
2
14000
Ar	-0.0004535234519032164	0.00013232745275547144	0.003179175425323769	0.007446841660023391	0.02417197859595988	-0.00017234106553260181
Xe	-0.00010940383912709391	-0.0001306089891156734	0.002797047755651269	-0.007988590615245544	0.005704667662888497	-3.80834999561479e-05
2
14200
Ar	-0.0003179457787494837	0.00034369929410302323	0.0031771024652105413	0.01899152028109264	0.017081661982907562	-0.00020154044763029698
Xe	-0.00016945821691000403	-5.763174011614733e-05	0.002796868360962584	-0.0037518728122752252	0.00853294791407354	-8.052894625884612e-06
2
14400
Ar	-9.162761699740463e-05	0.000457750137887992	0.0031757541919882532	0.025175737112609627	0.005169467409368597	-6.733528914332718e-05
Xe	-0.00018089209778787916	3.181999315136084e-05	0.002796918958103447	0.0015090815177551803	0.008927593383361241	2.6707127871416418e-05
2
14600
Ar	0.0001614791159013688	0.000441841135210029	0.003175406883621085	0.024188001618540716	-0.008316146938477879	-3.5094188505823086e-05
Xe	-0.00014072263740981495	0.00011230059154124965	0.002797800895561246	0.006350466471907431	0.006792819635467011	0.0001483442305154338
2
14800
Ar	0.00036874362738434835	0.0002996239145503447	0.003174831661760935	0.016237525422772597	-0.0194067778143223	-7.068122600562542e-05
Xe	-5.9972806654009974e-05	0.00016075071500908086	0.002799677502471329	0.009399344684983843	0.0026720142092998447	0.0002277776083096278
2
15000
Ar	0.00047094844348182137	7.233113771837316e-05	0.0031744510872168813	0.003711669641075226	-0.024949704560452562	9.932211079872037e-06
Xe	3.794551871500028e-05	0.00016339225369940884	0.0028019444824634106	0.009684438996237174	-0.002160424880813727	0.00016960720521382868
2
15200
Ar	0.0004394201766271811	-0.00017545136026323743	0.0031751794672407146	-0.009859700500327272	-0.023431593099781614	0.00013787242986964654
Xe	0.00012431352929457011	0.00011999045235802542	0.002802451458723876	0.0071697282343156366	-0.006302121444535001	-6.849577077534119e-05
2
15400
Ar	0.0002831179454881989	-0.0003740921036688291	0.0031773989547172004	-0.020629671748270188	-0.015316592411030564	0.0002620714671095371
Xe	0.00017473302871394688	4.31841917074288e-05	0.002800834342043742	0.002656551483401033	-0.008696138651366704	-0.00024499701249842574
2
15600
Ar	4.632221399239706e-05	-0.00046694292179453423	0.003179904517978644	-0.02558767962260216	-0.0027768018617158907	0.0001939005008335127
Xe	0.00017519490205408856	-4.573206995628106e-05	0.002798070395335464	-0.0025847223349032746	-0.008658216077907874	-0.00025300735078761545
2
15800
Ar	-0.00020387534802563143	-0.0004263030254540455	0.003180309957108141	-0.023224698366332917	0.010694561075686096	-0.0001188234778032931
Xe	0.00012563620964456114	-0.00012245852300270772	0.002796295103551325	-0.007106584282603815	-0.006312528897870337	-8.738678171757338e-05
2
16000
Ar	-0.0003955432002283912	-0.0002636340765469692	0.003177700393026523	-0.014176014678224417	0.021030797984098716	-0.00035234556775754557
Xe	3.96457778553576e-05	-0.000165333114329801	0.0027965600994936442	-0.009654038767151311	-0.00204136630123748	0.00013844273266925704
2
16200
Ar	-0.0004740882069607244	-2.605657465036475e-05	0.0031741539352682403	-0.0011641326652856256	0.025315373389395553	-0.00030167687345040506
Xe	-5.7995110639170165e-05	-0.00016114129215431808	0.0027989604981945725	-0.009377554181852385	0.0028485849864894807	0.00029172636535661906
2
16400
Ar	-0.00041800229124883196	0.00021867947165323892	0.003172490847160145	0.0121123681804168	0.022471632638900063	-6.5073574301637235e-06
Xe	-0.00013893093210275105	-0.00011112669158336446	0.002801469275415527	-0.006411713333678969	0.00689242768699835	0.00015196209738012708
2
16600
Ar	-0.00024325194612011725	0.000402069193865847	0.003173762692505129	0.021975463858500594	0.013302861146375982	0.0002560402468756522
Xe	-0.00018005291471843011	-2.998710659064473e-05	0.0028018488123347516	-0.0016191124345422353	0.008944430179891192	-5.450363841620196e-05
2
16800
Ar	7.958079612788655e-07	0.0004717727727888339	0.003176851412393716	0.025645964069354942	0.0002752276440321853	0.0003106571888983367
Xe	-0.00016973405556699038	5.933243101362401e-05	0.0028007388411746973	0.0036437375934371013	0.008470676485113937	-0.000160157288228066
2
17000
Ar	0.0002446615614633981	0.0004070249894007767	0.00317925921900578	0.021941778766033086	-0.012922788258014826	0.00016133853639416725
Xe	-0.00011064934155563062	0.0001317044121358337	0.0027992395916926803	0.007878058323523151	0.005653451921602399	-0.00012521906658079175
2
17200
Ar	0.0004181854071078502	0.00022620328256201953	0.003179398345390635	0.011915539950708447	-0.02236721554162389	-0.000128031977151197
Xe	-1.9715299806039515e-05	0.00016718908899600242	0.002798734623305292	0.009897084664585967	0.0012417534386731386	-5.8436750218610085e-06
2
17400
Ar	0.00047203214654115627	-1.8797915047424927e-05	0.0031775829745783668	-0.0013742913559255253	-0.025426299896711416	-0.00020354700523962313
Xe	7.752865466672207e-05	0.00015519734348264994	0.0027987191256681537	0.009078194711346499	-0.0035645730607855412	-1.5222643651872094e-05
2
17600
Ar	0.0003917686006719283	-0.00025838142893972707	0.003176062527382775	-0.0142812066126815	-0.021341827658175428	-9.76349052316725e-05
Xe	0.00015287272223918753	9.886428060343946e-05	0.002798274029283886	0.005622620745505817	-0.007425992159258429	-6.441160825696279e-05
2
17800
Ar	0.00020022284271413435	-0.00042538912924945226	0.003175927468096907	-0.023146185467902175	-0.011193829400983391	5.0096769954195734e-05
Xe	0.00018463851335037012	1.4083821511527305e-05	0.0027974614353735135	0.0005859846966686812	-0.009114488252185297	-4.882410264595608e-05
2
18000
Ar	-4.901468162631481e-05	-0.00047111318899328587	0.003176462500863234	-0.025486947216389406	0.002272905555273032	2.8434265113850323e-06
Xe	0.00016408427306998285	-7.494653336521859e-05	0.0027978532056862297	-0.004615519577457939	-0.008258207794561911	0.00011555681201134581
2
18200
Ar	-0.0002845991453776922	-0.000382105446166925	0.003176206487779565	-0.020480107021424096	0.015097862091342002	-6.929228541027794e-05
Xe	9.64529375450852e-05	-0.00014296404475844877	0.0027995442446407	-0.008580462540309303	-0.005019821380959555	0.00020804677882264966
2
18400
Ar	-0.00043897987517164944	-0.0001839629985931806	0.003175408824800346	-0.009651522676139364	0.02356626459190804	-6.778631177578968e-05
Xe	9.92245266603308e-07	-0.00017014819200676873	0.002801600372152221	-0.01001660343530137	-0.00031222863716272233	0.0001547630242092289
2
18600
Ar	-0.0004686728200657126	6.651552086090341e-05	0.0031751707360446364	0.00385668072841514	0.025330032615110742	4.2974663166798174e-05
Xe	-9.423432473451262e-05	-0.00014880826158998064	0.0028022811197344582	-0.008546410802595227	0.004479172422941936	-4.54703481527771e-05
2
18800
Ar	-0.00036544617126613936	0.0002986411202909229	0.0031761884163505685	0.01630102068146942	0.019942265836236248	0.0001611370874235278
Xe	-0.00016199940470209363	-8.524616309188779e-05	0.002800681059949484	-0.004693791896294962	0.007938051033084688	-0.0002533349111942232
2
19000
Ar	-0.0001580773630134728	0.00044613025325255856	0.0031777107142393697	0.024153518245957822	0.008820813046361233	0.0001278460604017965
Xe	-0.00018337975067653675	2.8553081338847896e-06	0.002797842606830987	0.0005076016790859488	0.009242923779257816	-0.00025391143993281593
2
19200
Ar	9.449750315498947e-05	0.00046616420119186447	0.0031781465664698486	0.025117763072960177	-0.004932503599618206	-5.142067519836942e-05
Xe	-0.00015243536574476355	9.095430394000685e-05	0.002796247229171061	0.005520288120252297	0.007952041954097216	-7.179597048424623e-05
2
19400
Ar	0.0003195814925524015	0.00035270458271227645	0.0031767617450799246	0.018804647916384816	-0.0171884297580334	-0.0002074290366318807
Xe	-7.776679905359979e-05	0.00015411270445797625	0.0027967822556649075	0.009030568292584999	0.0043536149064296505	0.0001574218847307115
2
19600
Ar	0.00045305744661752257	0.00013892665929677615	0.0031749693037267214	0.007262908076590221	-0.024524258447797827	-0.00013558957901120246
Xe	1.9166529836063782e-05	0.00017360053014457358	0.0027987652481772395	0.009885455713538147	-0.0005584289037072275	0.00021891625583780191
2
19800
Ar	0.0004580973904385845	-0.0001146657482616306	0.0031746456820169367	-0.006295991055147748	-0.02496422000229654	0.00010671516339141566
Xe	0.00011029001018392723	0.000143541772009794	0.0028006153894348093	0.007898763556507088	-0.005300802418785007	0.00013685961845458507
2
20000
Ar	0.00033307865711618265	-0.0003364576693736379	0.003176432786293163	-0.018122740265967795	-0.018314525123773046	0.0001969725604951709
Xe	0.0001692809865490441	7.269199206108027e-05	0.002801434038639316	0.003627678283617694	-0.008515897067808312	1.0383060099724612e-05
2
20200
Ar	0.00011267911092538858	-0.00046283205226530915	0.003177960954318101	-0.024870244517158233	-0.006346065001351405	9.414569579995349e-05
Xe	0.0001797086771708887	-1.8894545601689746e-05	0.0028010588859060724	-0.001571184288831254	-0.009375269165878563	-7.122603607348339e-05
2
20400
Ar	-0.00014032245118875909	-0.00045684135812564	0.0031779945926380614	-0.024459442488738943	0.007500203447297984	-0.00012112168935043768
Xe	0.00013898702070544298	-0.00010554303779106208	0.0028002812521979747	-0.006366334138232557	-0.007558198245637114	-7.721702247376555e-05
2
20600
Ar	-0.0003530294399989165	-0.00032037631486876836	0.003176004994533728	-0.017047338783627183	0.01910809567141018	-0.00021599193381167738
Xe	5.8793302828010455e-05	-0.00016246291230560415	0.0027994571863478373	-0.009295767058050724	-0.0035342028969471907	-9.76069372890252e-05
2
20800
Ar	-0.0004649008286257349	-9.30618309039742e-05	0.0031743305605785956	-0.004790268448342447	0.025218259456290044	-8.580934125021955e-05
Xe	-3.8298976118508246e-05	-0.00017290731260640588	0.002798475863736909	-0.009639041541475303	0.0014858584878435375	-0.00011277494945342058
2
21000
Ar	-0.00044465113591093367	0.0001604266785475589	0.0031746792375447414	0.00874401718736137	0.02428011124669467	0.00016159653584357382
Xe	-0.0001245935365594635	-0.00013411795272704299	0.002797568170666437	-0.007202057373255318	0.006081849740679333	-6.721262441862647e-05
2
21200
Ar	-0.00029812838526561785	0.0003688924250534366	0.003176710540211096	0.019863683413167844	0.016380328190639844	0.00022499991874707747
Xe	-0.00017549060681854934	-5.721697759855884e-05	0.0027970730218721184	-0.0027509905527395417	0.008941241555799364	-6.516336280681005e-06
2
21400
Ar	-6.673501707893113e-05	0.00047207088723159516	0.0031782148005380364	0.025313887464463565	0.003726852872041692	7.070239970996217e-05
Xe	-0.00017687135581306843	3.645000321727699e-05	0.002797711589628259	0.002491381830054439	0.009328795541564735	0.00013075296589505414
2
21600
Ar	0.00018365745147534544	0.000440003563473222	0.0031779516160279223	0.02355947116225994	-0.009956553309679893	-0.00011528425916080985
Xe	-0.00012799846118658983	0.00012073569144581356	0.0027993999727859895	0.007035615032283818	0.007057502957730243	0.0001985402935673437
2
21800
Ar	0.0003818540096581882	0.00028243130638294775	0.003176696738075373	0.015130806261795549	-0.020770975821076003	-0.0001281377024257954
Xe	-4.259210399915785e-05	0.00017081429385211496	0.002801072579436227	0.0096113802406595	0.002710998340178643	8.415516960013038e-05
2
22000
Ar	0.0004718733579306729	4.466216931309778e-05	0.003175692291753852	0.0024229655806457698	-0.02563241104139441	-6.328760065757387e-05
Xe	5.4616587887665144e-05	0.00017233629703655061	0.002801184168486494	0.00936018725584662	-0.0023970637233081456	-6.804625230199634e-05
2
22200
Ar	0.00042797620591551136	-0.00020584363361554275	0.003175331692527728	-0.01102776958282797	-0.023256310254102342	-3.566334346313348e-06
Xe	0.00013572228780968192	0.00012483446702791628	0.0027998535093716388	0.006477077375243203	-0.006850231786802673	-0.00018119986746901627
2
22400
Ar	0.0002617866792043111	-0.00039789229935254303	0.0031755855894940567	-0.021414211945437054	-0.014210747015584732	1.930882496053576e-05
Xe	0.00017774899505951746	4.175838675940947e-05	0.002798105918179125	0.001725927536413965	-0.009350020833606792	-0.00012100107580203933
2
22600
Ar	2.0172862774676063e-05	-0.00047606284990172053	0.0031754890555513015	-0.025700353323590004	-0.0010437936553615696	-4.418821369959222e-05
Xe	0.0001690659881893674	-5.3346392429208975e-05	0.0027975995616961974	-0.0034173115488691625	-0.009198251850054266	1.34009664128819e-05
2
22800
Ar	-0.00022723888502858692	-0.00041792487424571095	0.0031752166831544013	-0.022554102080089754	0.01235208810948995	4.736764326228671e-06
Xe	0.00011242202715637531	-0.00013336436898474762	0.0027980033251970315	-0.007627163042277648	-0.006422501506075051	8.418413098414185e-05
2
23000
Ar	-0.0004095551897021147	-0.00024094678631611204	0.003175690807493962	-0.012997502536598957	0.022203036400682167	6.515082604841352e-05
Xe	2.402921273843287e-05	-0.0001754450652503581	0.0027990375830422736	-0.00962549818932256	-0.0017940526676953397	9.39963359250648e-05
2
23200
Ar	-0.00047512880652397625	4.798041889300716e-06	0.0031765831424290566	0.00020758099948640392	0.025740682002034204	7.905604040904157e-05
Xe	-7.090273553560992e-05	-0.00016771698681930603	0.0027999855895732644	-0.008882426507497383	0.003316556954808527	9.582921298113613e-05
2
23400
Ar	-0.0004054458681229322	0.0002492352881699795	0.0031774076387679905	0.013403512768946503	0.021962191813342496	4.900129433721238e-05
Xe	-0.00014553966127189	-0.0001122031411488443	0.0028007519980542293	-0.005669087915675201	0.007533749064532464	4.684522719137894e-05
2
23600
Ar	-0.0002197657233278707	0.00042265352542525896	0.003177287223717935	0.022816033559771652	0.011868790260677437	-9.049044133390492e-05
Xe	-0.00017874971002394466	-2.4292934582331552e-05	0.0028009835432683517	-0.0008230686878233947	0.00961693775960909	4.6291626687034255e-06
2
23800
Ar	2.89800970967975e-05	0.0004753173368495925	0.0031760730676102626	0.02572131101604133	-0.0015854897931134732	-0.00014022011738259348
Xe	-0.0001613344216409571	7.078177932551119e-05	0.0028009681420973205	0.004216969737955549	0.008925720367130824	-6.62389350629812e-06
2
24000
Ar	0.0002694393098650704	0.00039256030388045576	0.0031746809416661353	0.02122220328639349	-0.014567235611758569	-0.00012019392900050152
Xe	-9.83859078869445e-05	0.00014580948257756686	0.002800543121477826	0.008063000785258899	0.005683384870652069	-7.307532392488523e-05
2
24200
Ar	0.000433204393261162	0.00019791807034816582	0.00317409105636833	0.010714612253883572	-0.023386797903036813	1.3015724007029354e-05
Xe	-7.88926235070192e-06	0.0001790427385358781	0.002799912988043144	0.009603201298141382	0.0008085271779310126	-7.329533876467801e-05
2
24400
Ar	0.0004735648315893241	-5.308297662121609e-05	0.0031748049070197373	-0.002861529857423047	-0.025596268287774768	0.00012109193451000652
Xe	8.450564681145588e-05	0.00016120957639258074	0.002799091514801043	0.008425250837873172	-0.004303923591789842	-8.445043934550134e-05
2
24600
Ar	0.0003788747744803634	-0.0002893660025111686	0.0031762307217794617	-0.015627687606345614	-0.020487835493618406	0.00016754764200257316
Xe	0.00015264748131055064	9.714566954400205e-05	0.002798542594310034	0.004884477041520295	-0.008192472863675394	-2.5001252933900678e-05
2
24800
Ar	0.00017599170690419449	-0.00044288356332807997	0.00317742514173383	-0.023957781544374796	-0.0094667353971247	5.937932110812441e-05
Xe	0.00017735049409270103	5.007469654631318e-06	0.0027988153408316295	-6.992572333467752e-05	-0.009783674586811768	5.182250738338703e-05
2
25000
Ar	-7.712697012977066e-05	-0.0004698944280665903	0.003177480027236186	-0.025415730464466834	0.004207534666820397	-4.863177600616507e-05
Xe	0.0001514569892991758	-8.925444751779566e-05	0.0027996729830940042	-0.004981137846341811	-0.008588028891611291	0.0001197203316587549
2
25200
Ar	-0.0003081013643094575	-0.00036295850367060027	0.0031766096513561127	-0.019665374519732024	0.016664317341159942	-9.125084987351992e-05
Xe	8.231011088023733e-05	-0.00015844369018427743	0.0028007554694304128	-0.008486323020602921	-0.004878178059078732	8.346848144392854e-05
2
25400
Ar	-0.0004515133708526366	-0.00015239825045206055	0.003175940882122187	-0.008334407790656083	0.024395625384247582	-6.508135532585623e-05
Xe	-1.0153099435112148e-05	-0.0001823427769618549	0.0028011317319074037	-0.009561050420984572	0.00022820252335017165	-3.7147008053761805e-06
2
25600
Ar	-0.00046632581885054647	0.00010161008631796861	0.0031753205550094765	0.005421123600958321	0.02514592712648414	-6.148905697774493e-05
Xe	-9.97318283402949e-05	-0.0001542500963286915	0.002800680040425576	-0.007921386580351472	0.005244242356662409	-9.02236385923515e-05
2
25800
Ar	-0.0003480875308697787	0.0003266127612397242	0.0031746193354357227	0.01764605231632608	0.018736389298428146	-7.734008437085785e-05
Xe	-0.0001609828716685557	-8.242457697292089e-05	0.0027999188246288745	-0.004040217458224363	0.008795993706872571	-6.971507654322783e-05
2
26000
Ar	-0.00013027740868649235	0.00045824148450279934	0.0031739966903364353	0.024865408209823706	0.0069671565138329245	-6.267238869759009e-05
Xe	-0.00017663704032121303	1.3178072775155636e-05	0.002799651587707718	0.0009709850943818989	0.009847914882932638	6.565152973537483e-06
2
26200
Ar	0.0001249730153573586	0.0004593215691148271	0.0031737077417054002	0.0249379548616889	-0.0067294341624734395	2.6381378233281725e-05
Xe	-0.00014249628307159726	0.00010495065667206681	0.002799714885241232	0.005708995025206725	0.008034306937874843	3.8371419923987907e-08
2
26400
Ar	0.00034474562155738226	0.00033007388813393267	0.0031744306328690486	0.017949418847108864	-0.018523313085844196	9.539178303452334e-05
Xe	-6.803870637753039e-05	0.00016632787467341827	0.0027996052883139154	0.00884551188331054	0.003933899055531774	-8.687728985798831e-06
2
26600
Ar	0.00046669697897847837	0.00010661532401985262	0.003175524533480295	0.005803264734491531	-0.025078852924028984	0.00012686770585601482
Xe	2.5930944026155127e-05	0.00018007087281377148	0.0027997665593143127	0.009485158518382915	-0.0012468002596185538	1.9929397515332563e-05
2
26800
Ar	0.00045519150580114204	-0.0001475974393697368	0.003176599512496242	-0.008067400225203252	-0.02449764356748904	5.453099410820345e-05
Xe	0.0001126084821891061	0.00014253945493496002	0.0028001322362184093	0.007451211556953434	-0.0060824329855489094	5.381372679575151e-05
2
27000
Ar	0.00031327455560569545	-0.00035973523957676345	0.003176487757939898	-0.01960115747268706	-0.01689411407884724	-6.586304111160668e-05
Xe	0.00016752518807607153	6.39954823656928e-05	0.002800964796975724	0.0032793008057325737	-0.009212642228582061	9.594340742826325e-05
2
27200
Ar	8.210212988172657e-05	-0.0004692085522757872	0.0031753597908457227	-0.025513073119769254	-0.004456203092232939	-0.00014775475967000284
Xe	0.00017475081647618055	-3.2588702375588524e-05	0.002801517515309434	-0.001859672157298566	-0.009640181816360052	-3.075715220380439e-07
2
27400
Ar	-0.00017229326728387736	-0.00044494357836442845	0.00317412351238787	-0.02412024197815826	0.009200755246786329	-7.134242605232078e-05
Xe	0.00013211060443642597	-0.00011966452415077042	0.0028011721508885436	-0.006441066087271943	-0.007355126449011486	-5.1726675180494887e-05
2
27600
Ar	-0.0003773929412223901	-0.00029396079644037487	0.0031740717154122313	-0.01589412214640004	0.020259139038320887	4.835437376202295e-05
Xe	5.20505430977275e-05	-0.0001725371317298662	0.002800358084765121	-0.00919909935146331	-0.0029569855078272734	-9.724653704755675e-05
2
27800
Ar	-0.0004748782568649507	-5.907083894693213e-05	0.0031747599499338725	-0.003121885655440614	0.025583764574888788	7.838279794563379e-05
Xe	-4.28062362532502e-05	-0.00017604131488137945	0.002799328860729398	-0.009309226343732787	0.0022664811231512903	-0.00010312451071922774
2
28000
Ar	-0.0004366272002653364	0.00019293706250628933	0.003175527292057612	0.01056803528108215	0.02357448306045684	6.340851969114265e-05
Xe	-0.0001252978729295859	-0.00012930124927361476	0.002798751015548231	-0.006784782301739787	0.006857502228080234	-2.5208497656824167e-05
2
28200
Ar	-0.00027357947862516915	0.000389962368608988	0.003176261450092229	0.021234198644108696	0.014857513594875107	8.3002302188074e-05
Xe	-0.00017217999033862752	-4.5471100721702767e-05	0.0027991199382126322	-0.00235826550663808	0.009488317316081199	9.162931021880929e-05
2
28400
Ar	-3.253462995900924e-05	0.0004757651924395562	0.0031768607265374098	0.025811903270383716	0.0018847376447057565	2.8811131763132573e-05
Xe	-0.0001701272037644268	5.135666844888846e-05	0.002800266441351085	0.0027751272164385733	0.00941076977655484	0.00010888438689210788
2
28600
Ar	0.00021798604073039875	0.00042575000681847246	0.00317687536018528	0.02305492129731358	-0.011651759836428266	-3.38022728489686e-05
Xe	-0.00011940440476049992	0.00013352775266556592	0.0028012448630049458	0.0071199414028278755	0.006622363726577529	8.68229294478705e-05
2
28800
Ar	0.00040630664339583053	0.0002540675042484521	0.003176166579344274	0.013683510751774826	-0.021841142330019016	-9.933364541073018e-05
Xe	-3.4506698953938575e-05	0.0001774959301865785	0.0028016490688901967	0.00944226850394545	0.0019415146236147626	-1.240295222894763e-05
2
29000
Ar	0.0004783039149032569	9.916514018994415e-06	0.0031745775458428415	0.0003698522142375731	-0.025794962968018743	-0.00016087953665887156
Xe	6.025971733348171e-05	0.0001707897720576764	0.0028012670068760397	0.009024356421454058	-0.0032601866189000887	-5.199241943799772e-05
2
29200
Ar	0.0004134880863369621	-0.00023734274522651372	0.0031734420747766188	-0.013007814345798297	-0.022456526065039954	-5.988366781944522e-05
Xe	0.00013754202523788876	0.00011526119127215227	0.002800405913513585	0.00604914171644804	-0.007565245110883659	-0.00011325682116669774
2
29400
Ar	0.0002306514490658495	-0.0004174556733561535	0.003173496253175806	-0.022651918000044312	-0.012668555509920632	5.663554481198583e-05
Xe	0.00017532961301144431	2.7035288274277392e-05	0.0027994110590882277	0.0013227893315381455	-0.009661171274241287	-8.260458050042096e-05
2
29600
Ar	-1.801866362819258e-05	-0.0004785437549702816	0.003174200861667457	-0.025865452279628023	0.0007688550825067637	8.13462538386995e-05
Xe	0.0001627654084944078	-6.87486138210754e-05	0.0027986635638784806	-0.003747095680569722	-0.009000149474898786	-3.2091882808756444e-05
2
29800
Ar	-0.00026174818088458044	-0.0004027618915338545	0.003175428724725239	-0.021678847745191663	0.014012962550330781	0.00015538179641467415
Xe	0.0001038346538193813	-0.00014457745250959813	0.0027989369500933193	-0.007713972039184053	-0.005806540376983453	5.862985140078193e-05
2
30000
Ar	-0.00043075923746461873	-0.00021169791110519444	0.003176546762568348	-0.011275967979419377	0.02322952505617114	7.740198407442458e-05
Xe	1.5528723008285787e-05	-0.00017910642876059306	0.002799857197781671	-0.009504973567387255	-0.0009346701739518467	0.00012704388505814585
2
30200
Ar	-0.00047659797209094863	3.978021552237222e-05	0.003177034200211173	0.0023471892666191083	0.02584889920176062	8.983362542780834e-06
Xe	-7.737486895953637e-05	-0.00016263198902128836	0.002800975310195061	-0.008619760913141223	0.004171331337499606	7.838991782528345e-05
2
30400
Ar	-0.000386505081997747	0.0002802502832630835	0.003176858690111406	0.015244902685646848	0.021060792374403413	-6.427158251636434e-05
Xe	-0.0001483734569013031	-9.966578810482968e-05	0.002801380969997765	-0.0052500682575573115	0.008101541613660094	1.8232062200580492e-05
2
30600
Ar	-0.0001862036693380194	0.00044102506112915897	0.0031758170651886215	0.023811424441847542	0.010289009563879735	-0.00012508768138819144
Xe	-0.0001773494552819999	-8.451734326796807e-06	0.002801384670571669	-0.00041483072290303044	0.009694204609381965	-1.291570404937373e-05
2
30800
Ar	6.685481431415753e-05	0.0004756980164458936	0.0031747729382409964	0.025561258223743003	-0.0035189490324331546	-9.72087047545719e-05
Xe	-0.0001560159132218136	8.474333691145914e-05	0.002800940488998113	0.00456217764662889	0.008492984651343169	-4.914801398859314e-05
2
31000
Ar	0.000300541169431821	0.0003742787723131647	0.0031737350443988167	0.020029044727528183	-0.01629701599655824	-7.891791542807865e-05
Xe	-9.036048055845242e-05	0.00015353273492109407	0.002800346508895399	0.008245871185107658	0.004908503252338685	-6.212305752694146e-05
2
31200
Ar	0.0004485293409016788	0.00016567183059383332	0.0031733800477302455	0.008817303412023669	-0.02438473226666406	1.3756820948578352e-05
Xe	7.916205681860586e-07	0.00017850072089452867	0.002799914909400117	0.009543149714319731	-6.52235019417e-05	-6.586376799665557e-06
2
31400
Ar	0.00046862336183913194	-8.989333911872543e-05	0.0031737926693270672	-0.004912520273960472	-0.025486346357873398	8.176173646461253e-05
Xe	9.144314912269406e-05	0.00015246041350341452	0.0027998361590592523	0.008143196037481993	-0.005027268022044116	1.7443512442256565e-06
2
31600
Ar	0.00035479711566296067	-0.00031983708450132055	0.0031750833689723154	-0.01729187445522988	-0.019365744564508066	0.00016385978971226385
Xe	0.00015615527597727724	8.29391920917806e-05	0.002799977412984588	0.00448471594091045	-0.0085431524417756	1.1563717277460884e-05
2
31800
Ar	0.00013953119354760546	-0.0004583223447576751	0.00317647864173647	-0.024685353924817112	-0.007644905499460212	8.314753538253111e-05
Xe	0.00017658524643799955	-1.0312023843432061e-05	0.0028000375309196967	-0.0005057820315077673	-0.009640562606667454	2.8149322903801026e-05
2
32000
Ar	-0.00011521370144091875	-0.000465697817131913	0.0031768874617859417	-0.025015941443392375	0.006191631041907667	-4.66834479233806e-06
Xe	0.00014650621216003005	-0.00010062806861514215	0.0028005668302530664	-0.005357379434366662	-0.007983462131518541	7.888147593918935e-05
2
32200
Ar	-0.00033703407854423584	-0.00034017361756792257	0.0031762419257382775	-0.018258476322084466	0.018298073355017694	-0.00013050961673454538
Xe	7.455138299161212e-05	-0.00016257057726281194	0.0028012263329973966	-0.008680901300700634	-0.004101695656644767	6.638205337859944e-05
2
32400
Ar	-0.0004627453760174979	-0.00011729555891325882	0.0031748956358133035	-0.006276804186105938	0.025188001259056944	-0.00011393860691267807
Xe	-1.870200058422128e-05	-0.00017851387868200098	0.002801570063744573	-0.009499087888125653	0.001016315307647716	1.7439713933051173e-05
2
32600
Ar	-0.00045622346917408257	0.00013951189902467912	0.0031739114634251244	0.007520720990036043	0.024908105564011865	-5.780685134795367e-05
Xe	-0.00010638600581924548	-0.00014341569777635512	0.0028012814048857413	-0.007625400263069293	0.005817153231191898	-7.323783765255564e-05
2
32800
Ar	-0.0003193887500491595	0.0003565608241479995	0.0031737286487490304	0.01917564389574073	0.017450932565482913	3.09093865111846e-05
Xe	-0.00016376294914002815	-6.810026385107307e-05	0.0028005531366097854	-0.003571889966418971	0.00888531490411383	-4.3668072926794516e-05
2
33000
Ar	-9.10598608153683e-05	0.0004714414369834907	0.0031743674915419963	0.025351137192260786	0.004968772686769428	7.70685835948128e-05
Xe	-0.00017439402834202282	2.6288820440802196e-05	0.0028004579740522678	0.001509039684540729	0.009550469071488304	1.6285989758563615e-05
2
33200
Ar	0.00016329201722203697	0.0004514934251784134	0.0031752178898249847	0.024268401591124724	-0.008850892917730927	7.963400653144657e-05
Xe	-0.00013514996805999283	0.00011348955868681477	0.0028008242026464902	0.006136379288459027	0.007476958029285048	3.5367141575677365e-05
2
33400
Ar	0.00037074223350454835	0.00030277113715291117	0.0031759798377287056	0.016212153369368102	-0.020154210149050385	7.500561374206499e-05
Xe	-5.7619631164002836e-05	0.00016836994795587363	0.0028012009501526304	0.009018815801712361	0.0032367875420933967	2.402177720770281e-05
2
33600
Ar	0.00047197186017665474	6.798679118525994e-05	0.0031764011359522123	0.0035495595989835137	-0.025650556665840585	3.0209960553145523e-05
Xe	3.6349673973631055e-05	0.00017530683532848956	0.002801257662202796	0.009315762543911565	-0.001908703806472127	-3.306696405553647e-05
2
33800
Ar	0.00043870677482871386	-0.00018557177509175143	0.0031763730660078282	-0.01006620191235275	-0.02384789822552783	-3.4922448411055204e-05
Xe	0.00011990410421511176	0.00013206724326276514	0.0028008193962927265	0.0069628363691411725	-0.00651266925539594	-3.723143483862733e-05
2
34000
Ar	0.0002802955751185643	-0.000386166292016409	0.003175568986361943	-0.020846204698701225	-0.015272822791717735	-0.0001060005650451487
Xe	0.0001690625526194666	5.119422769542817e-05	0.002800377223980351	0.0026324827724728125	-0.009264703123513074	-4.6039878976803666e-05
2
34200
Ar	4.175012450874948e-05	-0.0004761760053037719	0.0031745847211126586	-0.025683912800116365	-0.0023200457826013615	-9.325786603675006e-05
Xe	0.00016993495213466744	-4.4473044477520326e-05	0.0028003466478524483	-0.002433682779024711	-0.009388936128870989	2.172064576015371e-05
2
34400
Ar	-0.0002085528857925908	-0.0004302888981130465	0.003173883034592127	-0.023146791350708174	0.011261791986265713	-1.5001936866073697e-05
Xe	0.00012233583224749987	-0.00012742661210135675	0.002800444488852775	-0.006834949880685575	-0.006798916694326636	1.98048484704714e-05
2
34600
Ar	-0.000398758860453419	-0.0002618742254537563	0.0031743553642009136	-0.013983857234123535	0.02159799862785052	0.00011985636260768433
Xe	4.002178027375118e-05	-0.00017374975554627006	0.002800577887897478	-0.009236866597247281	-0.002255054053519115	1.4796372501911571e-05
2
34800
Ar	-0.000474631384782823	-1.90378863604433e-05	0.0031756641505628898	-0.0008482077669864068	0.025792657145980082	0.000147836118700836
Xe	-5.3794639852423893e-05	-0.0001705621593507903	0.0028006054980755433	-0.009046792754429971	0.002870259939835975	-1.1233508069203924e-05
2
35000
Ar	-0.0004151478082457025	0.00022922022644690764	0.0031768253963525223	0.012444172291192199	0.022642812957289413	7.850712263220733e-05
Xe	-0.00013247888077272513	-0.00011898433400575976	0.0028005021199178836	-0.0063220030386072915	0.0072011963225005705	-3.173207787123093e-05
2
35200
Ar	-0.00023746691201100877	0.000412143572363555	0.003177151458060801	0.02220558941057575	0.013037358759003023	-2.6746003045593686e-05
Xe	-0.00017405699253658402	-3.331881292183243e-05	0.0028002465009017603	-0.0017634961380927176	0.009494479987007122	-9.560021695215113e-06
2
35400
Ar	7.714154386378969e-06	0.0004773303762694926	0.003176288459145595	0.025635358540657002	-0.0003359193969986983	-0.00014892104144271628
Xe	-0.00016591198716834913	6.200118791058075e-05	0.0028003362858042865	0.0033575553236750836	0.009113850888721882	1.5079712673868534e-05
2
35600
Ar	0.00025075681036737936	0.0004060058665664818	0.003174729939013369	0.02176498119253558	-0.013542334690100293	-0.0001373160976588273
Xe	-0.00011025240024760244	0.0001400152346297382	0.002800384616636988	0.007491005735833436	0.006082580364207306	3.256898017593582e-06
2
35800
Ar	0.00042239158461401365	0.00021920048903332465	0.00317341278019504	0.011727430889453827	-0.022909550433958523	-7.698294860848632e-05
Xe	-2.3166608001659105e-05	0.0001779966483796376	0.002800406259964213	0.009514158307682185	0.001312106435507692	-2.688294748765646e-05
2
36000
Ar	0.00047398351630725507	-3.0052826164330578e-05	0.0031735248818318823	-0.0016753590755510556	-0.02573600847546249	7.0307274443128e-05
Xe	7.059755216797455e-05	0.00016479382480371837	0.002799949719826362	0.008766446902535682	-0.003852967176087025	-6.63217512597647e-05
2
36200
Ar	0.0003904792424353847	-0.00027092407409467985	0.0031746367708772186	-0.014612888518386073	-0.021242489626780953	0.00013451914202486845
Xe	0.00014400269077612405	0.00010479698020100098	0.0027994259485079197	0.005548594739220896	-0.007875151047336512	-2.183472748041169e-05
2
36400
Ar	0.00019562751255194677	-0.0004342305687368625	0.003175816032353464	-0.023391621724043195	-0.01062949999119866	8.236918948204485e-05
Xe	0.00017632920100278172	1.4968458018964232e-05	0.002799471187872799	0.0007495041451573271	-0.009658500553007262	3.9078195630319243e-05
2
36600
Ar	-5.483761723516784e-05	-0.0004733695826072433	0.003176375174443176	-0.025487513590365544	0.0030091177385715303	1.8222622092189966e-05
Xe	0.00015847632163795727	-7.920736898639878e-05	0.0028000802466452953	-0.004217702626544948	-0.008705174034101402	6.812719492432662e-05
2
36800
Ar	-0.0002898640953196289	-0.00037723877463312447	0.0031765758448253985	-0.020369617579591676	0.015751876817647524	-1.2354767393765114e-05
Xe	9.575498881912538e-05	-0.00015053284755302295	0.002800708656584989	-0.008059249222805707	-0.005238702367599683	3.924088336303617e-05
2
37000
Ar	-0.0004423417950190541	-0.00017333937555097536	0.003175986334816857	-0.009369956750230553	0.02403755268799846	-9.18921232940609e-05
Xe	5.310300356368882e-06	-0.00017886698536714307	0.0028010156001892746	-0.009587282176682818	-0.0002750249359247459	1.3901853791615628e-05
2
37200
Ar	-0.0004685846354750209	8.017935549620785e-05	0.003174919646292451	0.0042786029554039194	0.025430231931994562	-0.00011578407901513111
Xe	-8.663836890648726e-05	-0.00015598148174199547	0.0028009678831851298	-0.00835081509754458	0.004741462958087361	-3.763170117562062e-05
2
37400
Ar	-0.0003609938298821194	0.000311020319388801	0.0031739407897905915	0.01671041008494074	0.019592872039948125	-5.899671114975534e-05
Xe	-0.00015382453416761205	-8.885425037877636e-05	0.0028005901012484046	-0.004744570215733104	0.008371420525694584	-3.8447327840347636e-05
2
37600
Ar	-0.00015044122276705618	0.00045326431116998256	0.003173839402033091	0.024376104041701555	0.008144600679287229	3.249905837815637e-05
Xe	-0.00017689926996783073	3.3717114571384045e-06	0.0028003803188116055	0.00025141022736601895	0.00961642564567888	5.55987810169995e-06
2
37800
Ar	0.00010304757514402615	0.00046620322562080095	0.0031744090134448425	0.025084349871125376	-0.00562959459801583	7.561383545332795e-05
Xe	-0.0001492953915960805	9.44620165329824e-05	0.0028003310870888527	0.005115223657972201	0.008165332410047167	7.5525280092393245e-06
2
38000
Ar	0.00032697617290094316	0.00034635412921485805	0.003175364547479737	0.018619152242600866	-0.01776909991296755	9.759846833647733e-05
Xe	-7.928280393068562e-05	0.0001588787931719987	0.0028004498399728617	0.00856265274094567	0.004395342972609094	-4.585681907883694e-07
2
38200
Ar	0.00045764527397065314	0.0001281578389347041	0.003176179879678023	0.006865548084059028	-0.024840982693705403	6.685248389904828e-05
Xe	1.3732484325455136e-05	0.0001780240144606331	0.002800521568462186	0.009573197285303576	-0.0006664549093570847	-1.2627524596103236e-05
2
38400
Ar	0.00045766530944629346	-0.0001267412914436968	0.0031764592345077513	-0.006854742209645579	-0.024869580149881252	3.1492086995402813e-07
Xe	0.00010301621416485003	0.00014626866904260917	0.002800257351338265	0.007850556455072604	-0.00555103400528971	-6.01837716332604e-05
2
38600
Ar	0.000326940034725108	-0.00034556602545917893	0.003176282100360474	-0.018636482227628346	-0.017806289930688755	-4.863188957578877e-05
Xe	0.00016306808301181692	7.247646212866562e-05	0.002799611755773373	0.0038644037571277583	-0.008849582602061739	-5.258512904032705e-05
2
38800
Ar	0.00010287944280435971	-0.00046555646012584476	0.003175210007704254	-0.025076779076523018	-0.005609640108487149	-0.00012645958905146807
Xe	0.00017660371868377517	-2.211826569638929e-05	0.002799154282546987	-0.0012191156219815388	-0.00961092458701454	-7.851031852441413e-06
2
39000
Ar	-0.00015038576274336823	-0.0004525345561424026	0.003174121708868093	-0.024330894831221882	0.00814305603686346	-6.665254434856018e-05
Xe	0.00013978456659353387	-0.00011023074704355857	0.002799455551354525	-0.005963402528036435	-0.0075965417377539925	3.90713356298046e-05
2
39200
Ar	-0.00036064766090164403	-0.00031042123317445356	0.003173925982627303	-0.016717434032634426	0.01957141428536669	2.2657298684658312e-05
Xe	6.300961763314139e-05	-0.00016677725810683002	0.002800061934755589	-0.009023201437056583	-0.003427765242237596	7.023747331485275e-05
2
39400
Ar	-0.0004683933489517223	-7.961564758702136e-05	0.003174519790035746	-0.00431944365094437	0.02545781605377237	9.642753765818648e-05
Xe	-3.1969348879477416e-05	-0.00017553777787444034	0.002800687526078477	-0.00949889884417266	0.001712296110201311	4.0330415152530675e-05
2
39600
Ar	-0.00044259611892228946	0.000174036610507639	0.0031755721130247434	0.009330741186608149	0.024066440669194344	0.00010644400030041761
Xe	-0.00011778481041704639	-0.00013416988969315726	0.0028007443204170136	-0.0072747338210318035	0.006357452985459979	-2.0660976679812967e-06
2
39800
Ar	-0.0002905154636546943	0.0003784861459436	0.0031766236410873928	0.020342684974171188	0.015818974398618204	7.981091751521391e-05
Xe	-0.0001703719512366002	-5.422546522239626e-05	0.002800537350194375	-0.0029505144236436505	0.009246043367584864	-3.795622460309086e-05
2
40000
Ar	-5.566230631368255e-05	0.00047509169874143843	0.0031768042512466954	0.02548868772716602	0.00302529727020856	-1.4562855522028524e-05
Xe	-0.00017406945677209156	4.1463716322155515e-05	0.0028001698675542423	0.0022379278874529646	0.009421245222812564	-4.2108846093505666e-05
2
40200
Ar	0.00019499528183533225	0.0004362628392029157	0.003176368939052838	0.02340522525889111	-0.010620195506502193	-5.357662345587306e-05
Xe	-0.00012804028169428902	0.000125550899018664	0.002799904958739995	0.006738903928882116	0.006985756196786457	-2.3255519573513564e-05
2
40400
Ar	0.0003899798228580039	0.00027267657482799793	0.0031755386134667803	0.014649557150410306	-0.021267534017590514	-0.00010871087805686869
Xe	-4.571660473568003e-05	0.00017444088232690868	0.00279989728792976	0.009322054885675403	0.002541622100410436	4.759741085526286e-06
2
40600
Ar	0.0004741210857299619	3.1507873356023e-05	0.00317443171711079	0.0017625308113721509	-0.02576731877259418	-8.762449049019376e-05
Xe	4.933608988954509e-05	0.00017367653621599117	0.002799928530789211	0.009236679623381929	-0.002668375838172134	4.733141808782986e-06
2
40800
Ar	0.00042329823847571103	-0.0002182791116312639	0.00317415819915024	-0.01167407660535457	-0.02296658348542136	1.8318038941279942e-06
Xe	0.00013010898711012086	0.00012376851446985846	0.002800035837814014	0.006533625497226476	-0.007076755601402173	2.712443736883541e-05
2
41000
Ar	0.00025162548922072687	-0.00040591962703785434	0.0031743579539711265	-0.0218155419316569	-0.013638020736697981	5.746020407452985e-05
Xe	0.00017373593883238662	3.884220393875206e-05	0.002800537307273217	0.0019962379901652273	-0.009507275358821114	8.633957204815075e-05
2
41200
Ar	8.256137487869976e-06	-0.00047793586168520726	0.003175130394484722	-0.02565759586520164	-0.00041104776462118646	0.00010368272075629867
Xe	0.0001680065193925868	-5.697443815955565e-05	0.002801432898432149	-0.003094333113256908	-0.009182472842759387	8.469300408735786e-05
2
41400
Ar	-0.0002372214375884296	-0.0004136168708069777	0.003175954767307784	-0.02224511002520561	0.012950752628581691	6.631149238471722e-05
Xe	0.00011482267421119513	-0.00013613530265416013	0.0028019832856574904	-0.007300591384910928	-0.006269799112431476	-8.488526165100158e-07
2
41600
Ar	-0.00041505338366654707	-0.00023138751287907723	0.003176413155677107	-0.012451321138608811	0.022602351938551958	3.018500103897451e-05
Xe	2.920410180184169e-05	-0.00017622368571561613	0.002801596002753194	-0.009422679530024453	-0.0015356120787978556	-7.724442857728272e-05
2
41800
Ar	-0.000474408218065568	1.669370985841612e-05	0.003176123484434017	0.0008631514161338795	0.02581478209001337	-6.465234066484093e-05
Xe	-6.456606024002884e-05	-0.00016560297257724911	0.0028009002943171803	-0.00889990927957353	0.003623071507956098	-7.701605308103722e-05
2
42000
Ar	-0.00039875382261169665	0.0002600649531355016	0.0031754691095842377	0.013901668709221531	0.021677649056932414	-6.596797312888105e-05
Xe	-0.00014010572730299971	-0.00010757462480995663	0.0028000580541993757	-0.00584500617964946	0.007698968304832983	-8.227245602667858e-05
2
42200
Ar	-0.00020949054525414026	0.00042928586038080047	0.0031746585712742917	0.02304021853743016	0.011332842898350159	-5.8267459928101493e-05
Xe	-0.00017585972390171534	-1.8866776635317836e-05	0.0027993741429374083	-0.0011361162324213443	0.009610493843537368	-6.5637052203558e-05
2
42400
Ar	3.9721263679582185e-05	0.0004757778151506754	0.0031741919990579044	0.025585164842725005	-0.002235929134947331	-1.5535715043431345e-05
Xe	-0.0001615596189872284	7.529069154932759e-05	0.002799121899713343	0.003924245287076926	0.008784885309140207	7.75532469419012e-06
2
42600
Ar	0.00027781604499664233	0.0003865918727511843	0.003174620086971909	0.020860145923011938	-0.015161422869415101	6.2705258912916e-05
Xe	-0.00010108470138166254	0.00014823846550640951	0.0027995026409265147	0.007882523898738968	0.005433394649250666	4.109167885455513e-05
2
42800
Ar	0.00043689731681165845	0.00018711282738097243	0.003175488300786209	0.010179783524804545	-0.023771754634342824	0.00010485372644647404
Xe	-1.1287845474232897e-05	0.00017894118052733481	0.002799887107377977	0.009607113926180265	0.0005664625361678811	4.4126991393526366e-05
2
43000
Ar	0.0004713447448705195	-6.598667419162831e-05	0.003176497755580939	-0.003451440282217155	-0.025601299090275816	6.611585960105119e-05
Xe	8.161200627304794e-05	0.00015876318573158094	0.00280046555389343	0.008546171322117827	-0.0044951786084378165	7.054775441851343e-05
2
43200
Ar	0.00037122738365122897	-0.00030016109241909366	0.0031766962574403474	-0.016088546527913007	-0.0201097790308258	-4.940315001316697e-05
Xe	0.00015118678516810283	9.316962407557431e-05	0.0028011266472373567	0.0050285115446429135	-0.008310727679173593	5.751379067128323e-05
2
43400
Ar	0.0001651310001206275	-0.0004484632839891128	0.0031758920627894555	-0.024094237062133456	-0.008831076929917515	-0.00011279695570532924
Xe	0.00017760688014787553	6.195958662957604e-07	0.0028016691661372144	0.00012327777165805628	-0.009735853131134719	4.3681202632389774e-05
2
43600
Ar	-8.763595762760162e-05	-0.0004686664575481986	0.003174666204404282	-0.02522198755120637	0.00489712861447745	-0.00011376769677272033
Xe	0.00015350503304294285	-9.21703334808379e-05	0.002801739032229951	-0.004812180890958881	-0.008330066002248778	-4.1585258240188615e-05
2
43800
Ar	-0.000315311780013398	-0.0003554251827135739	0.0031739270691269845	-0.01920196695957746	0.01721906562666375	-4.2186387404232506e-05
Xe	8.599241251699043e-05	-0.00015835602288292243	0.002801132900330915	-0.00838101480634162	-0.00457417915679406	-7.798174698967767e-05
2
44000
Ar	-0.0004532986456363949	-0.0001409455847795579	0.0031739449980624506	-0.007734054000023266	0.02464983692353783	6.493319417572858e-05
Xe	-5.968918526936578e-06	-0.00017904844439437033	0.0028003429178653067	-0.00956543236290216	0.0005282172726757966	-9.577064596307777e-05
2
44200
Ar	-0.0004623619739710953	0.0001137912258540846	0.003174967945084	0.005976285755968327	0.025061476858462644	0.00011912862704241655
Xe	-9.626614351185738e-05	-0.00014842543126500148	0.0027994654412050427	-0.008046901484714567	0.005445181177488774	-6.545459548973052e-05
2
44400
Ar	-0.0003393585568461951	0.00033627804397891	0.0031761412952121424	0.018014948625797406	0.01834040355111083	0.00011830109468305421
Xe	-0.0001593489791254127	-7.55322526156713e-05	0.0027992306769348435	-0.004261433534973785	0.008795082997383312	1.8914181430901694e-05
2
44600
Ar	-0.00011957222266109503	0.000462959023600034	0.0031768753596821183	0.024875593294798583	0.006372351300098426	3.9684246061591175e-05
Xe	-0.00017711276718729782	1.908406193356042e-05	0.00279993774205991	0.0007954177333469996	0.009660113233654736	0.00010008736786782959
2
44800
Ar	0.00013436684844468617	0.0004575087175266841	0.003176679265282659	0.02465960434459869	-0.007428751527068504	-6.604138545705267e-05
Xe	-0.000144345499180282	0.00010841448365484264	0.002801021327497207	0.005579968406501011	0.007770031572455703	8.956549468958063e-05
2
45000
Ar	0.0003501483717194846	0.0003213435714170396	0.0031756245590462005	0.017429326035451102	-0.0191503172326705	-0.00012803491852221024
Xe	-7.042984195073126e-05	0.00016705596489387654	0.002801636563049752	0.00880499552416345	0.0036605374729373153	1.9452466657490058e-05
2
45200
Ar	0.00046606345702859413	9.312347930262574e-05	0.003174322335939879	0.005190305229447108	-0.025368913933761342	-9.576183295182564e-05
Xe	2.337663196677266e-05	0.00017813936449669846	0.0028012772053197677	0.00951845821557093	-0.001489448341295707	-5.196386952983023e-05
2
45400
Ar	0.00044876017382068135	-0.00016182510521163543	0.003173650384559333	-0.008558974949856989	-0.02435337852477981	-3.9665414720189296e-05
Xe	0.00011053015559402814	0.00013838084945729944	0.002800641336449124	0.00749522121695899	-0.00625011008283005	-7.28236785077058e-05
2
45600
Ar	0.00030312576858924505	-0.0003703742950874868	0.0031733649430212285	-0.019852385556542996	-0.016339502764305888	3.501639884579214e-05
Xe	0.00016632708659863605	5.906758349739633e-05	0.0028000929916071546	0.003369927093830951	-0.009219924901181483	-4.271207610220817e-05
2
45800
Ar	7.097480504425645e-05	-0.00047307636246812833	0.003174315110942855	-0.02546085234694693	-0.003684286294663549	0.00013641750853572357
Xe	0.0001745066375835768	-3.707086258331586e-05	0.0027998097936861245	-0.0017660997209598445	-0.009536964185210606	-1.973848603307712e-05
2
46000
Ar	-0.00018117873261903447	-0.00044072536476137366	0.0031759504757698192	-0.023772121942156197	0.010003093593629097	0.00016750382080301721
Xe	0.00013280170815806002	-0.0001225078728918954	0.002799827023172583	-0.006356923708149446	-0.0071427712090922	3.109947223781982e-05
2
46200
Ar	-0.00038168916854961914	-0.0002826041917937378	0.0031772826118332573	-0.015377780164396046	0.02085303355724042	6.711727673073654e-05
Xe	5.3316264210550454e-05	-0.00017281389567405035	0.0028004844035182364	-0.009178956567557444	-0.002682235821112292	7.515785229032145e-05
2
46400
Ar	-0.00047332520263005935	-4.37509168966672e-05	0.003177092904045583	-0.0025061701783973094	0.02575579016148399	-0.00010508511770050555
Xe	-4.177555095887677e-05	-0.00017377657073817775	0.0028011607185228107	-0.00936789256637753	0.002506302786681074	5.920119488178254e-05
2
46600
Ar	-0.0004294420609942435	0.00020759659288117815	0.0031754673306770742	0.011049240505401962	0.023296459560184186	-0.00018603557467042274
Xe	-0.0001249042779600367	-0.00012542063677528807	0.002801448270957192	-0.006864712272449642	0.006937141915943276	-1.4170439055701695e-05
2
46800
Ar	-0.0002630715345458066	0.000399590280160483	0.003173738954543195	0.021407010156390117	0.014176037615124017	-0.0001453796729367117
Xe	-0.00017248003894370202	-4.187392999139611e-05	0.0028010155521935006	-0.002424650406511202	0.009374635619315775	-6.283375236461801e-05
2
47000
Ar	-2.1588998529646314e-05	0.00047739886748268364	0.003172672963577285	0.02571467941510108	0.0010330467073985114	-5.6542432898036044e-05
Xe	-0.0001709698646755064	5.321611547146619e-05	0.0028005183589469808	0.00273190735422071	0.009184349300840697	-2.0979897062659754e-05
2
47200
Ar	0.00022632483236047836	0.0004192807921208336	0.003172909489551148	0.022673645255681836	-0.012392876032149346	7.29942354508854e-05
Xe	-0.00012071236246959368	0.00013295954346509515	0.002800015486182734	0.0070802678499277474	0.006374530422849687	-6.32857235052325e-05
2
47400
Ar	0.00040974607214897744	0.0002414463045950823	0.003174163766577607	0.013096117613551863	-0.022292036080925677	0.00016238403607322677
Xe	-3.604603812240485e-05	0.00017435805132602904	0.0027994419441423027	0.009457345018616281	0.001724448234739589	-1.7610245049959537e-05
2
47600
Ar	0.00047604360787469204	-5.190339805644977e-06	0.0031755595435430826	-0.00018520646693211912	-0.02583421198172611	0.00010521710567428332
Xe	5.916107267356225e-05	0.0001658696754331558	0.0027997464911206278	0.009113770207566412	-0.0033770601789652644	5.862091806966681e-05
2
47800
Ar	0.00040613420643665244	-0.0002499874517079445	0.003176211028040778	-0.013452981234531631	-0.02193986188715127	1.7204391516091753e-05
Xe	0.00013753490594206	0.00010980372737870518	0.002800758153997003	0.006152405114351135	-0.007541250478329565	0.00012070213978960055
2
48000
Ar	0.00022039770368768738	-0.00042301254290944245	0.0031758112381753295	-0.02279508551924323	-0.011836619042485787	-6.580832201946619e-05
Xe	0.00017627904518827556	2.2412720619466932e-05	0.0028016022142629297	0.001390629683069106	-0.009514143397849797	5.110597344575259e-05
2
48200
Ar	-2.8305924688885576e-05	-0.00047530193651216515	0.003175034812266765	-0.02573671623380085	0.00163204972933631	-6.750124523252323e-05
Xe	0.0001643610461734268	-7.14386507581979e-05	0.0028016070235266912	-0.003708932182237021	-0.008770407764595168	-6.350059697654904e-05
2
48400
Ar	-0.0002695102059186003	-0.00039206995052728713	0.003174600564892956	-0.021303821204528457	0.014608718367756917	-3.4174805555277745e-05
Xe	0.000105816241544511	-0.00014474088303616594	0.0028006890310565903	-0.007707081125773445	-0.005540188600143889	-9.518842661441503e-05
2
48600
Ar	-0.0004338840661749445	-0.00019708643724385139	0.0031744117596465347	-0.010749037342165564	0.023433634024945887	1.0658095904018137e-06
Xe	1.705188185695732e-05	-0.00017673568328152	0.0027997747166780946	-0.009589966816539995	-0.0006917585790719737	-5.551835772506206e-05
2
48800
Ar	-0.0004744269188640354	5.3982640864162505e-05	0.003174635802291218	0.0028515712074123544	0.025552373254282442	5.258397914976803e-05
Xe	-7.683005336534121e-05	-0.00015828378395840807	0.00279985830667205	-0.008690559781112986	0.004297687625867338	7.136270470358697e-05
2
49000
Ar	-0.00037966404351148927	0.0002895053461658725	0.003175101748677222	0.015630372041119407	0.020414685099822354	3.5654986858925004e-05
Xe	-0.00014871151862015308	-9.450511625875699e-05	0.002800706297026689	-0.005335248454500276	0.00813102574268334	0.0001028012891290521
2
49200
Ar	-0.0001767523106058715	0.0004427761544564598	0.0031755568972872527	0.02395719548528355	0.009478052587737365	3.1448536989875405e-05
Xe	-0.00017833470677925637	-3.720247368164445e-06	0.0028014709287431383	-0.00043314324498802497	0.009608712429897998	3.811126522616637e-05
2
49400
Ar	7.650127024447363e-05	0.0004699029336469458	0.003175554765881273	0.025464663031228484	-0.004192278885570438	-3.7018275317597457e-06
Xe	-0.0001568855784706269	8.830321590754495e-05	0.0028013046005730914	0.0045997890803501675	0.008338716391590905	-6.513864205852626e-05
2
49600
Ar	0.0003080129101860374	0.0003629764209970001	0.0031755822217634133	0.019727247399082427	-0.016674786715180738	6.3685684896288905e-06
Xe	-9.095174930748693e-05	0.0001550969408712181	0.0028003692655543637	0.0082693963535339	0.004707788402781614	-0.00010531626786779119
2
49800
Ar	0.0004518429599556088	0.00015243227343644862	0.003175473889983518	0.00831136455230129	-0.024403512573942895	-3.59352009211787e-05
Xe	8.598500132724e-07	0.00017778603865095934	0.0027995304851802997	0.009635298635689888	-0.0002819765217668652	-5.1604078279204356e-05
2
50000
Ar	0.0004663773957636847	-0.00010160948246885048	0.0031747941932578905	-0.005479593224313676	-0.025157953847516425	-9.495883758544385e-05
Xe	9.26217543781947e-05	0.00014999377906461811	0.002799308580689137	0.008227157962979627	-0.005143633785634146	2.841155835384215e-05
2
50200
Ar	0.0003478772780988069	-0.0003262417629006437	0.003173849502304095	-0.017659591640978436	-0.018699630429619737	-7.368177573227016e-05
Xe	0.00015781277645544084	7.932139618063734e-05	0.002799610588755311	0.004466457871275434	-0.008595246926548042	4.865912736513786e-05
2
50400
Ar	0.00013023814267925792	-0.0004578285742093122	0.003173468606751174	-0.024787508783634365	-0.006978814797237374	2.871254746722418e-05
Xe	0.00017781592969128997	-1.3558017767589003e-05	0.0028003473245109727	-0.0005683559706448528	-0.009561149226636673	6.0969488901328755e-05
2
50600
Ar	-0.00012428286529894196	-0.00045909121588793477	0.0031742746362929015	-0.024896799057259066	0.006759194732159747	0.00013755681694311873
Xe	0.00014703912604772918	-0.0001027087754855791	0.002800845645980556	-0.005430974394656841	-0.007836220040907775	4.892096298126716e-05
2
50800
Ar	-0.00034372082506275027	-0.00032935119775006163	0.0031758911617142515	-0.01791978946038848	0.018557986401047392	0.00016067874777200505
Xe	7.418230751832226e-05	-0.00016251192864349506	0.002801331121584783	-0.008778652759695051	-0.0038679594329316972	3.757847640179335e-05
2
51000
Ar	-0.00046510082348856627	-0.00010592085709193012	0.0031770679948935655	-0.005791778378056293	0.025040377394869508	5.5084655075829955e-05
Xe	-1.9867431837607626e-05	-0.00017622490121607727	0.0028013859358517862	-0.00957917934200688	0.001198498430515926	-4.143646854265824e-05
2
51200
Ar	-0.0004537760620252365	0.00014761551536157297	0.00317693317361874	0.007988392522073867	0.024398404834117825	-6.897910892386482e-05
Xe	-0.00010825730369332937	-0.00013963404151788887	0.0028006943050825875	-0.007688753294965651	0.005950098229562399	-9.948421886431282e-05
2
51400
Ar	-0.00031305449509187586	0.00035854837679997255	0.0031755399485213364	0.019479068840014158	0.016762735927568946	-0.00017789570002524777
Xe	-0.00016600480013742982	-6.285424372578399e-05	0.002799721921203382	-0.003589024052324067	0.009016552595396191	-9.659128390998922e-05
2
51600
Ar	-8.2919753419297e-05	0.0004668790154180555	0.0031741536414044377	0.025383412497062104	0.004387222322490625	-9.47906489435326e-05
Xe	-0.00017653068959365385	3.2126520113778554e-05	0.0027985979350277604	0.0015486720050495756	0.009525442042498106	-0.00010654657432902644
2
51800
Ar	0.00017083496040907898	0.0004420810977630852	0.003173817543848749	0.024132822441231903	-0.00922551660580607	4.228625686207328e-05
Xe	-0.00013657955356751668	0.00011813766662975812	0.0027979507356424606	0.006265354394183926	0.007257553674359839	-2.0012562573028466e-05
2
52000
Ar	0.0003762740374650856	0.000291055748487646	0.0031747765693196763	0.015926374727925515	-0.0202292196484655	0.00012209201879778605
Xe	-5.746690371348115e-05	0.00017025917384044743	0.0027987184366576115	0.009171882536688734	0.002917114197900816	0.00016890459640471708
2
52200
Ar	0.0004737375825361521	5.6856649607588796e-05	0.0031759504717320847	0.003105236001792042	-0.025456997601699456	0.00010715541868795823
Xe	3.8091367957050915e-05	0.0001736128247463566	0.0028006866862461278	0.00947407764250879	-0.0022484905102188456	0.00019876806821302043
2
52400
Ar	0.00043550973932119833	-0.00019363114082041982	0.0031766407546327357	-0.01056609591034592	-0.023407839930906567	2.8420707761892458e-05
Xe	0.0001229899244128857	0.00012741979588604414	0.0028025262176451468	0.007097553114396239	-0.00677998533806297	0.00013272368335731681
2
52600
Ar	0.00027295555257863895	-0.00038879667947206754	0.003176322555267706	-0.02116535944926787	-0.014686736446736265	-6.937914535172694e-05
Xe	0.0001728440878472962	4.4825519725466994e-05	0.002803108206794586	0.002658698778444415	-0.00931244992707028	-2.8056698148172513e-05
2
52800
Ar	3.254874524040372e-05	-0.00047317651613743104	0.0031756300061289845	-0.025750368932983412	-0.0017770872923479923	-7.863885150165863e-05
Xe	0.00017343676719164914	-5.0223717525610884e-05	0.0028020425625314444	-0.0025372848053524864	-0.009231652962593845	-0.00018366615261815086
2
53000
Ar	-0.0002174594123660704	-0.00042271755480981324	0.003174824753585846	-0.023014944988796693	0.011616203173596197	-7.65823468077522e-05
Xe	0.00012460496075293712	-0.00013103812958812578	0.0027997219967513163	-0.006996631174490176	-0.006539226387379789	-0.0002596362456496749
2
53200
Ar	-0.00040536193529853076	-0.0002516726542072209	0.0031742783787289436	-0.01364398193546518	0.021742040141091316	-4.496296823843756e-05
Xe	4.02983869759949e-05	-0.00017448291014191103	0.0027978886671173255	-0.009459357532847662	-0.0019382403022325057	-9.918293570430854e-05
2
53400
Ar	-0.0004773128788371303	-8.892662439800731e-06	0.003173806616435136	-0.0003927243311718557	0.02563187576222213	-2.8009627343295522e-05
Xe	-5.5453710132390844e-05	-0.00016789902847359295	0.0027980065075888963	-0.009232081210323742	0.003222492722047044	0.0001190966359459173
2
53600
Ar	-0.0004130393546432837	0.00023625577510496266	0.0031739646444471793	0.012916485502298132	0.022212102127843258	7.22070040802065e-05
Xe	-0.00013544889293135086	-0.00011315466065480926	0.002799817206270463	-0.0063759857617801	0.007452526863969292	0.00020212469972593215
2
53800
Ar	-0.00023113814520730046	0.0004138356054209004	0.0031753183034830437	0.022579859157359456	0.012467621930666544	0.00016547420215185817
Xe	-0.00017666824015969245	-2.5842803424047947e-05	0.0028014499155506463	-0.0016781426288202627	0.009559695027940157	0.00010411395429671418
2
54000
Ar	1.6757619682164522e-05	0.0004739325279858956	0.003177106851992217	0.02580026003712205	-0.0007400818531455104	0.00015671481038906864
Xe	-0.00016757138891824457	6.890713286066577e-05	0.002801964052441649	0.0034739908483436303	0.008931413429857808	-6.818561936468601e-06
2
54200
Ar	0.00026006967761529724	0.00039899664801352054	0.0031780093893571276	0.021670737558021343	-0.013864246658820396	4.284696426623462e-06
Xe	-0.00011020417478327145	0.00014410316045910875	0.002801657313466112	0.007691637571133095	0.005743027021331784	-8.849487899320885e-05
2
54400
Ar	0.00042910192147565455	0.00021001808754296918	0.0031771129773634967	0.011315333545075915	-0.022998359909289053	-0.00018421124413758495
Xe	-2.1311692299403893e-05	0.00017802276695996712	0.002800602924248413	0.009675997172389563	0.0009005409399667727	-9.41607331896951e-05
2
54600
Ar	0.0004753844339720707	-3.889177943646602e-05	0.003174665880851331	-0.0022742719296023834	-0.025572997736751254	-0.0002627762952033172
Xe	7.406380854909707e-05	0.00016115692613409655	0.0027996812698696514	0.008893441926963399	-0.004188522616036584	-0.00010348661842139423
2
54800
Ar	0.00038596766649583083	-0.0002768326290918784	0.0031725921057700834	-0.015173371776505098	-0.020841762896138222	-0.00010771701211612731
Xe	0.0001482554780033871	9.876792404302859e-05	0.002798959921641517	0.005554538156069207	-0.008015755218264158	-3.658486857671599e-05
2
55000
Ar	0.00018637332322975303	-0.0004359025103453559	0.003172846562155485	-0.023767872095967413	-0.010190244395669738	0.00015726554976276932
Xe	0.00017975897714312308	8.457752215065661e-06	0.0027988492682893716	0.0005939316160758741	-0.00960591562642442	2.1877813053860316e-05
2
55200
Ar	-6.638675318265074e-05	-0.00047065594084091315	0.0031753262770221084	-0.025544093745513592	0.003411772301473923	0.00029701029715612686
Xe	0.00015963306998018686	-8.40941943028287e-05	0.0027993444439849973	-0.004523367678325177	-0.008442448141430166	6.724258637918096e-05
2
55400
Ar	-0.00029997482785723106	-0.00037101447027189025	0.0031777134742819128	-0.020028987181589564	0.016046657183605626	0.00018804782093089867
Xe	9.370976906236371e-05	-0.00015229741885589747	0.0028003548823202955	-0.008323081842374225	-0.004869040199491851	0.0001333960668474795
2
55600
Ar	-0.00044760553608255986	-0.0001652350899978037	0.003178754599235935	-0.008798663573278328	0.024087811895663076	-1.981693338093489e-06
Xe	8.942817414192815e-07	-0.00017717250795666384	0.0028016277950627185	-0.009790701272592564	3.809319236817803e-05	0.00012562922980589565
2
55800
Ar	-0.0004674793737724444	8.736954058116156e-05	0.0031777536819012535	0.004917908871178335	0.025226655739668258	-0.00017282638834055134
Xe	-9.25908715968066e-05	-0.0001516922171659765	0.0028020106682404267	-0.008420703875534175	0.004966072565893953	-4.42208818811361e-05
2
56000
Ar	-0.0003542288238862967	0.0003151040652167755	0.003175752462120609	0.017176346413073675	0.01921907678972873	-0.00017928155364947983
Xe	-0.00015945126836310703	-8.312980106052866e-05	0.002801197153241065	-0.004631292217803499	0.008442364540047579	-0.00011496160868097861
2
56200
Ar	-0.00013995710820597938	0.0004532342329026167	0.003174436138314805	0.02462348771972393	0.007726624919975034	-9.336656148490188e-05
Xe	-0.0001805178345806944	9.019924792953689e-06	0.002799671277003669	0.0005195652625645884	0.009544630642995865	-0.00015669169334896918
2
56400
Ar	0.00011436501473123165	0.00046228617287076773	0.003173938434976842	0.024994428264027174	-0.005965982604128222	-2.3075543275285873e-06
Xe	-0.00014976373217722553	9.844591343097899e-05	0.002798300538668523	0.005459156943133177	0.007913327812576925	-8.505073613115346e-05
2
56600
Ar	0.0003359463691667356	0.00033939371555536123	0.0031741805716915543	0.01822643588477455	-0.017998530169536772	5.3687429586709077e-05
Xe	-7.654854347182013e-05	0.00015976481129613068	0.0027980308342273404	0.008851022152625636	0.004031038518093401	2.1632048696960942e-05
2
56800
Ar	0.0004614007071140641	0.00011966434428872844	0.0031748586913791614	0.006258413958554245	-0.024872889190575363	9.745356052166733e-05
Xe	1.8490572186938337e-05	0.0001754475684087271	0.0027988230921673772	0.00969904265837409	-0.0009702784895067567	0.00012431555005176426
2
57000
Ar	0.0004552345023411536	-0.00013439554376866065	0.0031757188872595086	-0.007453048531813526	-0.02470132285970967	7.219458685671792e-05
Xe	0.00010800509939830834	0.00014136085187119358	0.002800215506939488	0.00776892206967459	-0.005678276781285465	0.00013007040535353593
2
57200
Ar	0.000319414048590918	-0.0003505522165146486	0.0031762667542265107	-0.019047126391876605	-0.017478539484200774	1.8204134917510687e-05
Xe	0.0001663965604986825	6.725326680722059e-05	0.002801243096833963	0.0036490579186765227	-0.00877373840768931	5.829140781921972e-05
2
57400
Ar	9.235303981834104e-05	-0.0004673837450355237	0.0031762829996310423	-0.025242074542503393	-0.005265300874404419	-1.6327503293293273e-05
Xe	0.00017707728257680726	-2.60710131262683e-05	0.002801464748773072	-0.0015465646084819621	-0.009431373085046223	-8.33903001286058e-06
2
57600
Ar	-0.00016083018330228184	-0.0004508528176362258	0.0031757485771260552	-0.024166534474097695	0.0085029915035692	-7.001150763457074e-05
Xe	0.000137352483611471	-0.00011216347286856205	0.002801388821528721	-0.0061973497080752196	-0.007369803261650083	9.06490223353702e-06
2
57800
Ar	-0.0003678026945616665	-0.00030556489661593127	0.003175001101004739	-0.016208954312140603	0.019856535724173896	-6.0088128520786994e-05
Xe	5.877584729154789e-05	-0.00016627363957159548	0.0028014025111679046	-0.009148828641759511	-0.0031987602095530513	-7.08888891692319e-06
2
58000
Ar	-0.00046984150427516414	-7.304802939507468e-05	0.003174505741412586	-0.003706870980877938	0.02554528198300946	-2.957077381157962e-05
Xe	-3.676188833629511e-05	-0.00017333715579265926	0.002800792233038626	-0.009471757208686505	0.0018339157420955935	-0.00011019999826067334
2
58200
Ar	-0.0004385349208690334	0.00018077727755186002	0.00317445436393494	0.009838930709166211	0.02399346200279192	1.272793266182743e-05
Xe	-0.0001217627044887287	-0.00013099649667518942	0.0027994684517591733	-0.007085066451281346	0.006412601112617182	-0.00011121660138568339
2
58400
Ar	-0.0002826937680398741	0.0003834699942239295	0.003174932881355053	0.02057867721301157	0.015559078489757542	6.0037501809960685e-05
Xe	-0.00017202989458938093	-5.121530573203333e-05	0.0027986552886642654	-0.002716493336869351	0.009180751076599965	-4.194070563590642e-05
2
58600
Ar	-4.6154354409274496e-05	0.0004767671420740105	0.0031754789076612767	0.025573502131791926	0.0026442240017901485	6.539140287898981e-05
Xe	-0.00017301970640509369	4.347734145208775e-05	0.002799127356672114	0.002476331628807654	0.009300672279662928	0.00014308992921617807
2
58800
Ar	0.0002040223943433402	0.00043349375888446977	0.0031759755342642263	0.02321333074822112	-0.011057580322189935	3.884698966568075e-05
Xe	-0.00012459281869440478	0.0001259755180727842	0.002800987809695909	0.006944541432495324	0.006778346680451954	0.00019662022678246615
2
59000
Ar	0.00039593685217172874	0.0002661975888238525	0.0031761278741736176	0.014240722792372892	-0.02154767327783114	-7.667086081975137e-06
Xe	-4.066341555278867e-05	0.00017250811087927623	0.0028023701461602404	0.009441718549264611	0.002318353581019687	6.720290847959915e-05
2
59200
Ar	0.0004752300200237685	2.2930530290964988e-05	0.003176267443522412	0.0012342984796900446	-0.025884705650158088	2.786985344085764e-06
Xe	5.494307390719331e-05	0.00016988820326447818	0.002802535234865475	0.009224318703786184	-0.0028182913445541414	-3.6407267213376926e-05
2
59400
Ar	0.00041907204459537794	-0.00022669616904391163	0.0031760792126326837	-0.012203526705423835	-0.022819225517058974	-3.895017438565378e-05
Xe	0.00013468435184512873	0.00011882482191814345	0.0028015252202710137	0.006381862595353999	-0.007143335904075137	-0.0001599653366385294
2
59600
Ar	0.0002430949417784974	-0.00041166903192315106	0.0031753035907605507	-0.022140584873536456	-0.013251428847874386	-8.815737588003207e-05
Xe	0.00017609744466918166	3.386531666997287e-05	0.0027998639719507704	0.0017134603419975815	-0.009449441005116854	-0.00015396936523614585
2
59800
Ar	-2.5219865540272684e-06	-0.0004790605224968862	0.0031745181000543987	-0.02577342498995641	0.00012264311591703386	-5.714557472753917e-05
Xe	0.00016735060671132395	-6.106046479595749e-05	0.002798757916226479	-0.0034336811104800965	-0.009062923052129539	-6.0869353225218995e-05
2
60000
Ar	-0.0002474588779467703	-0.00040983537908986236	0.0031742331205186105	-0.02198361968240514	0.013384073880635734	-5.8352271857808546e-06
Xe	0.0001106913779864655	-0.00013873505605168626	0.0027987787627043	-0.007592254112294454	-0.006076322925521796	4.218210457389652e-05
2
60200
Ar	-0.0004214032630726134	-0.0002239094744268676	0.0031745669480612027	-0.011951125166798532	0.022882371501077678	6.17980096183242e-05
Xe	2.2482103210431124e-05	-0.0001765355844212013	0.0027994894650594094	-0.009596484198753953	-0.001312033854237281	8.39869956534484e-05
2
60400
Ar	-0.00047502250325532713	2.561977500944682e-05	0.0031753384752536934	0.0014956869905528747	0.02580036734012583	9.050938851323756e-05
Xe	-7.199911829931472e-05	-0.00016391087407740312	0.002800778692245629	-0.008842745638332605	0.0037962290925125184	0.00011894821666492381
2
60600
Ar	-0.00039335787155015707	0.00026759003936397275	0.003176184377043844	0.014461200985441564	0.021412609754384856	8.438209885221342e-05
Xe	-0.00014599996902506633	-0.00010439430220777004	0.0028015073300004345	-0.0056030314166037815	0.007831575783782135	3.2952675379603235e-05
2
60800
Ar	-0.00019954766600203074	0.0004334604139751255	0.0031766460264689824	0.023358416844713903	0.010932004029500108	9.517458489395029e-06
Xe	-0.00017853503695455016	-1.483044532544978e-05	0.002801349276039713	-0.0007309255741448399	0.00964178498929029	-4.0235153629499235e-05
2
61000
Ar	5.121079004662066e-05	0.0004756577757188511	0.0031764770741361846	0.02558700448140759	-0.0027134616837254755	-5.5149841794519544e-05
Xe	-0.000159723713285337	7.903743748807784e-05	0.0028005883602404587	0.004402504315358352	0.008666616574907547	-7.98258599130012e-05
2
61200
Ar	0.0002873456274458741	0.0003815965701070565	0.003175497776737337	0.020482479108003323	-0.015610075102158531	-0.00011318392199848757
Xe	-9.502676035670289e-05	0.00015035789179505861	0.002799800561330344	0.008218564746224356	0.005257762443237688	-7.771797525998048e-05
2
61400
Ar	0.00044115741271404525	0.0001787976882545369	0.003174703115129276	0.009549247344319235	-0.023966147167271284	-6.0773243611324644e-05
Xe	-3.2704695824947433e-06	0.00017869586040702976	0.0027993217496362485	0.009682727390888731	0.00027308659164315176	-1.93471856216225e-05
2
61600
Ar	0.0004692782280302887	-7.497047574768171e-05	0.0031747015595926125	-0.004098433033445904	-0.02553452305860345	4.074370361165284e-05
Xe	8.9363992963753e-05	0.00015571555972588392	0.002799200754693575	0.008394205816807838	-0.004760341865531481	3.3237514169609864e-05
2
61800
Ar	0.00036336058246010116	-0.00030755919785622484	0.0031753124008630624	-0.016572552759769245	-0.019828859441906706	9.034124437994043e-05
Xe	0.0001565535177328638	8.823083933879274e-05	0.002799604568955263	0.0046939272824128705	-0.008396216091580588	4.327807039046633e-05
2
62000
Ar	0.0001537070961691605	-0.0004522604004115209	0.003176129746743235	-0.024307191475969332	-0.008395429916563368	5.741179649360304e-05
Xe	0.00017888500607340512	-4.339519104421364e-06	0.0027999767791908547	-0.0003337387723722535	-0.009660122539465849	4.819760717123911e-05
2
62200
Ar	-9.954002924171227e-05	-0.0004676597831013329	0.0031762656173780052	-0.025079984564424423	0.005399677186835035	-5.924434641276468e-06
Xe	0.000150153682850429	-9.559434586196368e-05	0.0028004741765163548	-0.0052775876325423	-0.008162570569782117	3.838196145652516e-05
2
62400
Ar	-0.00032387684859072087	-0.0003496451029417571	0.003175687776475113	-0.01869831196982982	0.017632618948670086	-8.305097351438992e-05
Xe	7.831410348199547e-05	-0.00015987420283018514	0.002800674304643504	-0.008715473540115983	-0.004375250294736833	2.068662657833719e-05
2
62600
Ar	-0.0004560226373890152	-0.00013193675121567913	0.0031749846716210826	-0.007075456760255305	0.02483811921880148	-4.749027757965217e-05
Xe	-1.5606523527940935e-05	-0.0001785428088166661	0.0028004794544131423	-0.00960459275206159	0.0007261291705237522	-2.4848951362399324e-05
2
62800
Ar	-0.000458547108202628	0.00012329883980321946	0.0031749421917486634	0.006614125975197487	0.0249570109740648	2.7022997646584227e-05
Xe	-0.00010460474894126917	-0.00014618589458792634	0.002800029850956677	-0.007773441942617448	0.005592336289985821	-6.508175802706237e-05
2
63000
Ar	-0.00033031896110759544	0.0003430294753887939	0.0031753231697575785	0.01843109257582868	0.017925714221601087	4.5379901405103677e-05
Xe	-0.00016342216613664652	-7.212141174873673e-05	0.002799374397606761	-0.0037242161961091097	0.008840645852354508	-3.256677920171542e-05
2
63200
Ar	-0.00010761351530112732	0.00046453019035719084	0.003175725285685852	0.025037439904394353	0.005770049118079801	4.7585250107345485e-05
Xe	-0.0001755957246143709	2.2336030506834683e-05	0.0027991398375772254	0.0013553351335719025	0.009598071002348333	1.6220796615672506e-05
2
63400
Ar	0.0001460826404630681	0.00045301156742327093	0.0031759007698587394	0.024442520817614756	-0.007980328859926153	3.0850694375261628e-06
Xe	-0.00013738422586102145	0.00011051559573713755	0.0027992465860846674	0.006071410494488028	0.0075941900811865685	3.714091206705201e-05
2
63600
Ar	0.0003580909262934015	0.00031236550818175427	0.0031758464062505197	0.01691197871675437	-0.01946271112409373	1.2935492928990463e-05
Xe	-6.011716882206933e-05	0.00016721542033916258	0.0027997970795306877	0.008992464553115203	0.003454753914737877	4.7688143591174935e-05
2
63800
Ar	0.0004679988622300904	8.246390445483476e-05	0.0031763779044325447	0.004549850288691582	-0.025378257497382428	8.325015617725366e-05
Xe	3.3863676439446744e-05	0.00017648485507099906	0.0028000913303087988	0.009374650538120678	-0.0016816765243629166	3.545465193623826e-05
2
64000
Ar	0.00044433330937331374	-0.00017113663070389163	0.0031769201716920713	-0.009169872590688327	-0.024089004900966826	-4.2607723262715805e-06
Xe	0.00011849991940096562	0.00013522982991021065	0.002800059057579019	0.007120805047255599	-0.006349039438411792	-2.6698732080393123e-05
2
64200
Ar	0.0002935443258958338	-0.000376111951862835	0.0031766722718419784	-0.020252099859368503	-0.015893934131150884	-7.735395452936369e-05
Xe	0.00016945803515471835	5.56919367607826e-05	0.002799795903607266	0.002821852722930132	-0.009193830336884925	-2.2480628559974e-05
2
64400
Ar	5.882794518848492e-05	-0.00047378749669626304	0.0031753196719433285	-0.02554563449785834	-0.0031287898574038804	-0.00014551512815313356
Xe	0.00017234284318078292	-4.0024164807700664e-05	0.002799736283779339	-0.002259239419982772	-0.009475496239104635	1.666980024099923e-05
2
64600
Ar	-0.00019254212811742533	-0.00043612423382066105	0.003174131019644728	-0.023501551239315282	0.010464115923362072	-7.53167064166633e-05
Xe	0.00012629578668011787	-0.00012435283877472995	0.002799949675088477	-0.00673233453893471	-0.006969991801004172	3.7031618892804584e-05
2
64800
Ar	-0.0003889116563601689	-0.00027455798634694236	0.003174009622929633	-0.014774384936209587	0.02107687368175385	5.117773675678708e-05
Xe	4.421617471490304e-05	-0.00017321105626819458	0.002800044261106706	-0.00929180726496124	-0.002545184156193004	6.007029741760423e-06
2
65000
Ar	-0.00047413681959792273	-3.4704572700821755e-05	0.00317503949569891	-0.0018486982092288987	0.025719619528271214	0.00014116691653627518
Xe	-5.057809469391476e-05	-0.00017267311992215207	0.0028001105884393547	-0.009203879228948185	0.0026373711914783717	-2.0477768750944904e-05
2
65200
Ar	-0.00042399782713135425	0.00021519813638817682	0.0031764044051706265	0.011624270462225783	0.02304192830000099	0.00011801767306536655
Xe	-0.00013097661298055516	-0.0001226906839322987	0.0028002198892612884	-0.006499192322255541	0.007099531510723427	4.6789780791541273e-05
2
65400
Ar	-0.00025287093362119103	0.00040386180945874313	0.0031771671191964394	0.021773808975577198	0.01375072977479515	1.5959869183591103e-05
Xe	-0.00017414307559010642	-3.759454435253337e-05	0.002800632680689013	-0.0018943697285712317	0.009516903234845869	1.8331449926921577e-05
2
65600
Ar	-9.695475479748345e-06	0.0004770709203668033	0.0031770263497753865	0.025677745258385523	0.0005497678416058151	-5.1833034632183504e-05
Xe	-0.0001670383264211242	5.844552344087856e-05	0.0028007644899676813	0.0032648848310869237	0.009219405073193462	-1.1285149237887848e-05
2
65800
Ar	0.00023607694437853747	0.0004141782419968203	0.003176164678572163	0.022269842263866305	-0.012799218505992848	-0.00011972930441907016
Xe	-0.00011199386021785034	0.00013832167378946165	0.0028005441127253055	0.007470002789095556	0.006339850661521812	-1.9690559264618546e-05
2
66000
Ar	0.00041435291050466986	0.00023332558548539302	0.003175331519603333	0.01254514264783383	-0.022503511513707015	-4.909075066702742e-05
Xe	-2.499464191162785e-05	0.0001788524401653653	0.002800339817685413	0.00952269471552602	0.0016096122467448243	-2.3052242069282746e-05
2
66200
Ar	0.0004747957412067087	-1.4304507506796432e-05	0.0031753210224361476	-0.0007454334393876926	-0.025832797534302353	1.7387358499840197e-05
Xe	6.938398580875752e-05	0.00016868421525196355	0.002799911525121214	0.008889496652945195	-0.003573356049461216	-4.8299779182221104e-05
2
66400
Ar	0.0003998668884463888	-0.00025839455932226375	0.003175704997044205	-0.013878718742021812	-0.0217756542794405	3.974879379505355e-05
Xe	0.00014398559181377592	0.00011085085438122673	0.002799349697854173	0.005669318782883462	-0.0077282603757434275	-5.416947467437598e-05
2
66600
Ar	0.00021030659300786935	-0.0004285258661326045	0.003175838474220321	-0.023087734004409836	-0.011435641868822585	-2.1871072112288134e-05
Xe	0.00017746191362438176	2.1411839755852785e-05	0.0027990551584263393	0.0008595981125119347	-0.00973104827352001	-4.449509318096012e-06
2
66800
Ar	-3.95842259087218e-05	-0.0004758285503438531	0.0031753657674451767	-0.02566832819000595	0.0021807508223542693	-6.652039009908404e-05
Xe	0.00016053282175399473	-7.441512631354835e-05	0.0027993354846472637	-0.004169048717229742	-0.008980746934642653	4.800246293174752e-05
2
67000
Ar	-0.00027827729557202774	-0.00038716762765205284	0.003174707878496874	-0.020907100305679393	0.015121674069405263	-5.526318298326773e-05
Xe	9.779246436328516e-05	-0.00014949392046089736	0.002799898721219366	-0.008083041523675052	-0.005664081342786646	6.20165663491402e-05
2
67200
Ar	-0.00043762969727259446	-0.00018782421999286606	0.003174627549798773	-0.010198994159457395	0.02377542918013811	3.994818908905911e-05
Xe	6.937703597421695e-06	-0.00018179160452730584	0.002800262862938475	-0.009654380422132177	-0.0006758263541540134	1.8351515761566845e-05
2
67400
Ar	-0.000472466516606723	6.541350972582614e-05	0.003175247030626192	0.0034180249587205634	0.025627379135269964	7.324691386145207e-05
Xe	-8.58898854520611e-05	-0.0001622294503356503	0.002800239853444459	-0.00844711456881761	0.004492364236626305	-2.3047770120043245e-05
2
67600
Ar	-0.00037238853966173443	0.00029985002130574894	0.003175820502284836	0.016107615914016212	0.020096312060505984	2.668100662444787e-05
Xe	-0.00015417500794710567	-9.637026761048564e-05	0.0027999758160561746	-0.004873522334414049	0.008370193224622841	-3.239957058882166e-05
2
67800
Ar	-0.00016606654335896373	0.0004481510277261391	0.0031759591703965084	0.02413906981449215	0.008842639441863961	-1.8299234317672066e-05
Xe	-0.0001784650798066223	-2.6067757430746663e-06	0.0027996038371999243	0.00013531756911407163	0.009897814287092828	-2.5042587803715643e-05
2
68000
Ar	8.753101626216384e-05	0.0004683066915099727	0.003175607307425157	0.0253197404728467	-0.004879174788644863	-2.8598559573787744e-05
Xe	-0.00015172803983511522	9.219687314087416e-05	0.002799613680996613	0.005072380418423822	0.008571538453580746	5.371217859820343e-06
2
68200
Ar	0.0003159005416900053	0.0003553382485618633	0.0031753111270401073	0.019242415463710794	-0.017169058618543065	-2.882356441385918e-05
Xe	-8.176496911819937e-05	0.00016043757823594842	0.0027995083133992324	0.00857921077687286	0.0047587565949163005	-1.482695196436141e-05
2
68400
Ar	0.0004541405260866089	0.00014111823215551053	0.0031752784673350046	0.007723627531004928	-0.02463372115807337	2.9296389541537257e-05
Xe	1.1465560788640406e-05	0.00018279969197391055	0.0027992824685064916	0.009635161915044262	-0.00042155245688400904	-1.117000074862261e-05
2
68600
Ar	0.0004625714874624625	-0.00011363689255858656	0.003175756069150554	-0.006062613472995941	-0.025091347290677697	5.312316359445471e-05
Xe	0.00010175987379743815	0.00015286393646170486	0.002799220356065771	0.00797976425974982	-0.005438558860333458	3.632280866792044e-05
2
68800
Ar	0.00033842074239444006	-0.00033614761385134467	0.0031760460187839354	-0.018151382817413606	-0.018317207094668952	1.0309841235245049e-05
Xe	0.00016355898303074313	7.902691220101657e-05	0.00279985468679968	0.004055707662619756	-0.008958650468839114	9.536199284483374e-05
2
69000
Ar	0.00011736881803962811	-0.0004623307648333258	0.0031757512252399535	-0.02494897118013358	-0.006316700348071172	-4.616953191462697e-05
Xe	0.00017880447969384906	-1.7546087418274833e-05	0.0028007119254410662	-0.0010688487285124976	-0.00988401812927239	9.136297396188728e-05
2
69200
Ar	-0.0001368707321400797	-0.00045654005016984	0.0031752060784517883	-0.024664609709532388	0.007415297466576196	-3.942318084761568e-05
Xe	0.00014317494254137314	-0.00010900801744919886	0.0028014524023415566	-0.005853268585097952	-0.007932916726472936	5.196773953953452e-05
2
69400
Ar	-0.0003521426451826834	-0.0003208564526968557	0.00317491301787319	-0.017346878825000887	0.0190587080111548	-6.653275208524391e-06
Xe	6.703879886612422e-05	-0.00016891577529872098	0.0028016279014426667	-0.008982102902774102	-0.003752762078816656	-2.388344774508371e-05
2
69600
Ar	-0.0004672922499060055	-9.377809529700418e-05	0.0031752338667963144	-0.005108498897021605	0.025251990936385388	6.82810986086215e-05
Xe	-2.8023736782656352e-05	-0.00018052361943698335	0.0028011300745548642	-0.009571235755973382	0.0014975751945478753	-6.522214829636582e-05
2
69800
Ar	-0.00044933321346274184	0.00016010071437039066	0.0031756267620711345	0.008629261543877782	0.024271495251098788	8.298086924637094e-06
Xe	-0.00011506863534517845	-0.00014059751331030632	0.0028002161690731543	-0.00743394259526224	0.0062908226178827655	-0.0001031426812179936
2
70000
Ar	-0.0003028498449957187	0.00036803293079279187	0.003175674409465193	0.019933030939682152	0.01631329502932848	-3.872885298804139e-06
Xe	-0.00016964517511563963	-6.0610505456459515e-05	0.0027993457693632996	-0.0032268861544980008	0.00932628426528008	-0.00010492595833178073
2
70200
Ar	-6.982702860976547e-05	0.000470791848688052	0.003175400063727877	0.025535811317664265	0.0037236352936828357	-5.104837776910517e-05
Xe	-0.00017649285602017178	3.690594570172272e-05	0.00279855861361261	0.0019171587920112664	0.009702811884051631	-4.3697942347847655e-05
2
70400
Ar	0.00018320740354024406	0.0004388933220922664	0.0031749187048441692	0.023876716544717257	-0.009927688035994994	-2.577548076359981e-05
Xe	-0.0001330747907055759	0.00012392932572323788	0.0027987468579857224	0.006572057002433981	0.0073006856699521635	7.638538149424774e-05
2
70600
Ar	0.0003848189510942247	0.0002816457653996391	0.0031748675934177403	0.015415258360792695	-0.020762754776655828	2.5443851367904744e-05
Xe	-5.135530493085857e-05	0.00017583286637901674	0.0027997652668121085	0.009362752979913506	0.002832457348518078	0.00012904619817758877
2
70800
Ar	0.0004767868576740811	4.3447031724466715e-05	0.003175018141046733	0.002518473709957529	-0.025679789424254112	2.3937119084884584e-05
Xe	4.5085864613923195e-05	0.00017772937120867307	0.0028011130857434757	0.00946279588061375	-0.0024758111081011527	0.00015505462279835665
2
71000
Ar	0.00043267109173104787	-0.0002072320213640602	0.003175324677031202	-0.011146504156506677	-0.023239031394572496	1.304926814174831e-05
Xe	0.0001285155724351851	0.0001289539865678944	0.002802562146952767	0.0068186683539296815	-0.007062100726063158	0.0001181214237416763
2
71200
Ar	0.00026470218198403024	-0.00039893950134084157	0.003175245589845689	-0.021652055019512454	-0.014169442141541875	-2.111885843551197e-05
Xe	0.00017493118680656435	4.3279381753640774e-05	0.002803240030781246	0.0022402614808098766	-0.00963907863193633	-5.910822726527148e-06
2
71400
Ar	2.0600328121350023e-05	-0.0004767442394150436	0.0031753095407416497	-0.02595730758726092	-0.0010345230609061667	1.3536977060249104e-05
Xe	0.00017109041561734847	-5.432479020957005e-05	0.002802680166123176	-0.0029660589982136343	-0.009412116224959681	-0.00011100682845597795
2
71600
Ar	-0.00022947644950516638	-0.0004184879800977637	0.0031756180630697533	-0.022843405771556097	0.012391460522858971	1.019775273194419e-05
Xe	0.00011856231074241395	-0.00013575476427722796	0.002801142325238795	-0.007308422083170905	-0.006499495077217257	-0.00015207957481907497
2
71800
Ar	-0.0004139618758731194	-0.00024083112251054717	0.0031755406883984937	-0.013151319744668936	0.022274791633148765	-1.9476620208976995e-05
Xe	3.2231044308779265e-05	-0.000178312922403348	0.002799726536181465	-0.009524037801515593	-0.001795643411802091	-0.00013474971197978937
2
72000
Ar	-0.00047983144265961123	5.655609135240086e-06	0.003175221569213259	0.0002850938218438642	0.025826224924574467	-2.6455323393897558e-05
Xe	-6.30630499718424e-05	-0.00017008766856870607	0.002798632489009743	-0.009067699206884567	0.003421374406116619	-8.917519952464964e-05
2
72200
Ar	-0.00040812747098947777	0.0002506986194492038	0.0031747137988541382	0.013687780686080913	0.02195029202745109	-7.758045458847563e-05
Xe	-0.00014074549482574826	-0.00011312065164908402	0.002798450006059104	-0.006076788480501972	0.007681522439592734	6.94464384411751e-05
2
72400
Ar	-0.00021922274937012648	0.00042366394658021846	0.0031741780196465944	0.023162370875762943	0.011800216467251842	-3.915523558877216e-05
Xe	-0.0001786833299641713	-2.3624966914460777e-05	0.0027995747636286807	-0.0013236603116432428	0.009759119682967367	0.00012015504391755776
2
72600
Ar	3.2252902165407e-05	0.0004754694250863824	0.0031742072142769335	0.025891381459959097	-0.0016973917685949478	6.737993211407502e-05
Xe	-0.00016579290326449838	7.276636059176791e-05	0.0028009304910902623	0.003825691731546893	0.009034583734738458	0.00011789221198120169
2
72800
Ar	0.00027441302524386965	0.0003914323387243405	0.0031751187428741812	0.021339546548843118	-0.014688216433678892	0.00010056334833276787
Xe	-0.00010590228511043598	0.00014827622762096169	0.0028019124285470266	0.007844417490653288	0.005722167176721793	4.800705221012516e-05
2
73000
Ar	0.00043815814451207306	0.00019558862830908479	0.0031761029697782673	0.010595527199070465	-0.023510372757784923	6.51580823514025e-05
Xe	-1.5924135825790026e-05	0.0001814962333395133	0.0028022803801152573	0.009685629512159167	0.0007651583412246835	2.7586747751833617e-05
2
73200
Ar	0.0004764180140258192	-5.6253477842256044e-05	0.0031762120820086944	-0.0031248725110607748	-0.025633038475953617	-4.74637550455341e-05
Xe	7.843213867466553e-05	0.00016277433741886222	0.0028023478403657047	0.008751351829450511	-0.004419433806193161	1.1507436594128785e-07
2
73400
Ar	0.0003787025584407592	-0.000292311153379164	0.003175317670598242	-0.015945936082800198	-0.020441435447644467	-0.00010403644414960089
Xe	0.00015046663659863425	9.730786754726078e-05	0.0028021319756079497	0.005305093855356054	-0.008350733452713666	-4.300065651750711e-05
2
73600
Ar	0.0001729072853517592	-0.000445260009187122	0.0031742616089734748	-0.024199607291017968	-0.009390913121237647	-0.00010006052828283909
Xe	0.00017961392378718758	4.227249406347192e-06	0.002801290935718993	0.00036748645200496393	-0.0098152031223659	-0.00010499886471528661
2
73800
Ar	-8.197740407979068e-05	-0.0004710556090442198	0.0031736484860732514	-0.025546685639777057	0.004352817117829895	-2.2966172218685483e-05
Xe	0.00015752554295841265	-8.95563346036203e-05	0.0028000047105802388	-0.00467025437915305	-0.00848489518634464	-0.000135763664952216
2
74000
Ar	-0.00031336065938177693	-0.00036230964582952333	0.003173782852052176	-0.019593940570238187	0.016859383885178724	3.899259259431014e-05
Xe	9.038939786982113e-05	-0.00015769660484365251	0.0027988750055651253	-0.008427120900102872	-0.004799680007611129	-8.935541116404086e-05
2
74200
Ar	-0.00045485728940820294	-0.00014992116329562354	0.00317430325961148	-0.008004722760496902	0.024559497736909217	6.698570351275137e-05
Xe	-3.054078112235996e-06	-0.0001809060330434457	0.002798620751324043	-0.009789334816254566	0.0002919791550097034	2.887747424595836e-05
2
74400
Ar	-0.0004660782501541298	0.00010540766506079233	0.003174987283335011	0.005783760505085383	0.025235477859176236	8.796131144563291e-05
Xe	-9.601220062508838e-05	-0.00015228463117061058	0.002799456445029113	-0.00832914469662143	0.005298033835270633	0.00011172883414453342
2
74600
Ar	-0.00034458744383804806	0.00033060331661713556	0.0031755785044677606	0.017914969143107	0.018709809489617146	2.6475312162664522e-05
Xe	-0.00016152785827963417	-8.002245755338224e-05	0.0028005592640982613	-0.004447228321890512	0.008790329289459031	9.113786344647454e-05
2
74800
Ar	-0.0001244854967231093	0.00046153723670338225	0.0031756859733998526	0.02502747506445333	0.006816101113943644	-2.580360136782088e-05
Xe	-0.00018085480145129017	1.5238059018603141e-05	0.0028013256962062857	0.0006855060459218944	0.009804510996603679	7.286977493630132e-05
2
75000
Ar	0.00013183533077826528	0.00046049693926047345	0.0031751714494165995	0.024940617062553405	-0.0070151902266839105	-7.852074107525636e-05
Xe	-0.00014842980295299391	0.00010648818313397263	0.0028016809755494875	0.00565073820919881	0.007997748238726976	1.8707664399501824e-05
2
75200
Ar	0.00034998450129920756	0.0003277753609725633	0.003174180859847568	0.01765034817320859	-0.018880015254417862	-9.957102117302258e-05
Xe	-7.353306014080117e-05	0.00016733994692602074	0.0028017986298576507	0.00894907412313797	0.003868711614342343	2.3180549632984073e-06
2
75400
Ar	0.00046796587697810237	0.00010125373395053697	0.0031733780681011546	0.005362534450833705	-0.025309784874739626	-5.681646548313165e-05
Xe	2.214995747503794e-05	0.0001802644769435435	0.0028015325750841607	0.009708438821354038	-0.0013432894335982401	-4.151438570081567e-05
2
75600
Ar	0.00045232222325483997	-0.00015406372264143196	0.003173158682949935	-0.00843787816596483	-0.024513697492462422	6.592587613160825e-06
Xe	0.00011109602738983162	0.00014194087522747796	0.0028010627016471328	0.007673515570005975	-0.006139929632692157	-5.529906057778302e-05
2
75800
Ar	0.0003075717443605408	-0.0003656772462101785	0.003173835065283412	-0.019794147492296053	-0.016765464995004725	0.00010224329329804143
Xe	0.00016830652546674353	6.32046602611398e-05	0.0028005237703882502	0.0034790561620087145	-0.009223129215556063	-4.084997800743391e-05
2
76000
Ar	7.514874486645594e-05	-0.0004731404636327963	0.0031750335760631658	-0.025540756963606345	-0.004199190884648945	0.0001409595889161694
Xe	0.00017737946777818828	-3.342345452267811e-05	0.0028004046623932894	-0.001694530688092318	-0.00964343351113124	-8.827199050470238e-06
2
76200
Ar	-0.00017862644303801823	-0.00044535177378557747	0.0031762346867491827	-0.023984352184472073	0.00960436178046679	8.65460103276497e-05
Xe	0.00013592385365608428	-0.00012041501322593412	0.002800284372509864	-0.006432393922984668	-0.007349184346370037	-1.1422644191140928e-05
2
76400
Ar	-0.000381357863819347	-0.00029006629295392074	0.003176444339440603	-0.015586963539862787	0.02068665263416542	-2.8289097486705414e-05
Xe	5.526280130715249e-05	-0.00017317292075425626	0.0028002630339882344	-0.009326004585617246	-0.002944751941683118	6.446556628401121e-08
2
76600
Ar	-0.0004750761168544604	-5.162800125584036e-05	0.003175732613099799	-0.0027130429620951823	0.025814712937839133	-0.00012361937505290998
Xe	-4.16321432913186e-05	-0.00017642423981350784	0.0028005426583567355	-0.009560271761237391	0.002286601427511472	5.590539658575664e-05
2
76800
Ar	-0.00043295301236930336	0.00020151297542579837	0.0031742682099078334	0.010943497860047353	0.0235464130967031	-0.00013777957518528128
Xe	-0.00012666993647508657	-0.00012943981455675976	0.0028011422839402515	-0.0070292920936915505	0.006876854019878916	6.054479173501493e-05
2
77000
Ar	-0.00026719083584866637	0.00039686779371329156	0.003173260880049486	0.021432646288124614	0.014577673096380805	-6.346183327797807e-05
Xe	-0.0001753793083834418	-4.543464432624211e-05	0.002801849449061901	-0.0024706465187596264	0.009476184764862755	6.759845448051736e-05
2
77200
Ar	-2.4798342248834164e-05	0.00047881921272433404	0.003173303670659964	0.025846622663024586	0.0014484356105558603	4.313637726176328e-05
Xe	-0.000173802314294727	5.1109432715651716e-05	0.0028022531034930993	0.0027660248482241205	0.009377372613285178	1.4899078646450293e-05
2
77400
Ar	0.00022494100481799432	0.0004242799825085618	0.003174010674235667	0.022880913199885996	-0.01209173388252261	8.224950286342964e-05
Xe	-0.00012274914589912984	0.00013308929306306681	0.0028020192963450576	0.007180576942060717	0.006631624604602006	-5.121419323907219e-05
2
77600
Ar	0.00041072480299961565	0.00024853093114408524	0.0031748211484423253	0.013355994597825674	-0.02219418066006183	6.0576567724874806e-05
Xe	-3.668321475977522e-05	0.00017735761853236912	0.002801322147418763	0.009607186570767345	0.002002308192247483	-8.229238343429216e-05
2
77800
Ar	0.0004792781208947007	1.8332726986575787e-06	0.003175275876086266	1.131673903136216e-05	-0.02595734831857136	3.8852398161249786e-05
Xe	5.9937155522936616e-05	0.00017112659587731807	0.0028007672501920173	0.0092593743631341	-0.0032089535559925455	-5.9221172358127487e-05
2
78000
Ar	0.0004110405945698438	-0.0002457370278487118	0.0031755022714338435	-0.01332225654277285	-0.02233804159441643	3.1657153547255676e-06
Xe	0.00013956941955719875	0.00011632096586720922	0.002800023807085474	0.006255265943858909	-0.00749304612757293	-7.321727691267037e-05
2
78200
Ar	0.0002251814888692967	-0.000422983803778012	0.00317522211631799	-0.02293146548891314	-0.01226411217824671	-5.336968513779536e-05
Xe	0.00017907345999167772	2.8150842483160085e-05	0.002799436894561331	0.0014641296727448527	-0.009711978469234366	-1.441796717588183e-05
2
78400
Ar	-2.5282823395382614e-05	-0.00047917164874403074	0.003174516013309149	-0.025949125930574104	0.00130077053452311	-8.11885841932912e-05
Xe	0.00016748293941996697	-6.82675300299457e-05	0.0027997666264466224	-0.003733872345820012	-0.00910051653234124	7.173347552866462e-05
2
78600
Ar	-0.0002686550600800675	-0.00039808588078393744	0.003173964191193833	-0.02154578677383946	0.014537671788547632	-4.0169035224161534e-05
Xe	0.00010822593127996736	-0.00014500704142242032	0.002800513063146617	-0.007841247185437744	-0.005890500574881678	3.919174867941193e-05
2
78800
Ar	-0.00043535483310097454	-0.00020292583202363303	0.003173673203474436	-0.01099329357600008	0.0235247948305277	-1.1586724968391418e-05
Xe	1.8247700490426518e-05	-0.0001805066483992035	0.002801224531899155	-0.009717999268205242	-0.0010108921088318227	9.066119079124663e-05
2
79000
Ar	-0.00047787429277390694	4.999661085861427e-05	0.0031737679049173373	0.0027111687204363177	0.02582820864630409	2.7231399505050583e-05
Xe	-7.65715941165633e-05	-0.00016431113048977994	0.0028020729248846303	-0.00880111984233059	0.004162635013255769	7.537372360925253e-05
2
79200
Ar	-0.00038359469286004057	0.00028875568316442886	0.0031744267562807	0.015645568109718004	0.02075843326950338	5.2860260840686106e-05
Xe	-0.00014923014683562494	-0.00010139741477546292	0.0028024703960012934	-0.005358590991641406	0.008108828156194155	1.30511318287637e-06
2
79400
Ar	-0.00017997346491525833	0.00044463205363987854	0.003174873179804859	0.0240825595196874	0.009688405633100769	4.858506390258403e-05
Xe	-0.00017893784358286144	-9.597427003165487e-06	0.0028019217231073177	-0.00043497041402064174	0.009769425128794869	-0.00010005686365946112
2
79600
Ar	7.495444639655934e-05	0.00047344913206089545	0.0031751067289416154	0.025659431411404327	-0.004069686549842807	-1.1187289428098367e-05
Xe	-0.00015744145744908648	8.481257772083181e-05	0.002800695521817261	0.004632960843711204	0.008624096827966114	-0.0001253663534329459
2
79800
Ar	0.00030837895867774477	0.0003668450835951426	0.0031749097769508718	0.019871241643734164	-0.01673972963995535	-1.8831618307219338e-05
Xe	-9.068998104022074e-05	0.00015467789886436435	0.002799677434918854	0.008374378080680544	0.005016805140364326	-5.552133409968423e-05
2
80000
Ar	0.0004534165008984123	0.00015500146709763427	0.003174536871651906	0.008412753625069666	-0.024580430176990544	-4.866458524629297e-05
Xe	1.7994636101409431e-06	0.0001803651283721247	0.002799246268438029	0.00967737283544933	-1.8230364495058102e-05	-4.5819467774279844e-06
2
80200
Ar	0.000468557805380401	-0.00010122359614936244	0.003174179550155392	-0.0054660597809452	-0.025410203380396706	-3.590009412314969e-05
Xe	9.34101509008048e-05	0.00015417638237846178	0.002799594838721255	0.008191961408310596	-0.005080058004529187	8.727996788802906e-05
2
80400
Ar	0.00034951646278289997	-0.00032872824595664863	0.00317382398371856	-0.01773740988118073	-0.01895304752949717	-1.4447977886133037e-05
Xe	0.0001581566592732912	8.363072001638694e-05	0.0028007552895580874	0.0044482435744520946	-0.008669518397842994	0.00014272474522836225
2
80600
Ar	0.00013076821581289966	-0.0004621119842468352	0.003173960476397629	-0.0249398768355992	-0.007081238206423445	2.397035058253296e-05
Xe	0.00017780590077959844	-1.0825124118624987e-05	0.002802328028697821	-0.000603122693222669	-0.009735384996610991	0.00015246755840015507
2
80800
Ar	-0.000125595129283265	-0.00046365155282067485	0.003174238789638402	-0.025059777164803655	0.006796327338967878	4.080282233815395e-05
Xe	0.00014646329988193775	-0.00010173956561916837	0.0028033760512856266	-0.00548013486628497	-0.008031853843526246	3.378153334101994e-05
2
81000
Ar	-0.0003461551655353315	-0.00033305578752456126	0.0031748816644254878	-0.017976669429509817	0.018687721934363844	7.266774167848024e-05
Xe	7.335671458946965e-05	-0.0001633987944087275	0.0028029559235970255	-0.008773640710030853	-0.004007271332158101	-9.558697141166513e-05
2
81200
Ar	-0.000467801681098854	-0.00010752868267439537	0.0031755464229616228	-0.005771676936738994	0.025318432042442152	4.0122055666069396e-05
Xe	-2.061719558240389e-05	-0.00017827551971136583	0.0028013906642081355	-0.009565696725406391	0.0011154398964920782	-0.00017866745241781057
2
81400
Ar	-0.00045587319047968484	0.0001486170969019004	0.0031758227116930127	0.008114832539596975	0.024666458066422408	3.592197141079675e-06
Xe	-0.00010878261996245623	-0.00014211630988074007	0.002799859120601427	-0.007625393034807044	0.005956196104414998	-0.00014771120735112569
2
81600
Ar	-0.0003136763080925659	0.0003619832497611419	0.0031756588687278224	0.01964998741112365	0.016984292904894532	-3.1742783588650646e-05
Xe	-0.00016584302166215123	-6.515130412776167e-05	0.0027989056842606334	-0.003514946005146662	0.009081990194603254	-6.66677968252379e-05
2
81800
Ar	-8.19267474822528e-05	0.00047158692471855896	0.0031750230886329147	0.025569006056595282	0.00442285119831551	-0.00010337075959748357
Xe	-0.00017577290203586574	3.051428833372006e-05	0.002798565006559279	0.0016067205439204938	0.009559725242315215	1.1980016758945682e-05
2
82000
Ar	0.00017281146472382123	0.00044609777094289097	0.00317386292507028	0.02414581835927607	-0.009369381852612243	-9.048771784356496e-05
Xe	-0.000135392736834905	0.00011727028618457516	0.0027992605702162085	0.0062643766761135405	0.007349964124253587	0.00013852347564138526
2
82200
Ar	0.0003778610129207564	0.0002931966168923637	0.003173362827327559	0.01587074032332718	-0.020434398742799554	-1.136508006941229e-06
Xe	-5.658860337389219e-05	0.00017044775500940846	0.002800768104216317	0.009118809283337349	0.003029301107989437	0.00015081975537151247
2
82400
Ar	0.00047485108418284194	5.683411129401947e-05	0.0031739395722171436	0.003053246718544861	-0.025695167288402685	0.00010614898995645211
Xe	3.814750357112718e-05	0.00017505919520186604	0.002802178787178162	0.009374598261603261	-0.002104925911515036	0.00010568721842652333
2
82600
Ar	0.00043604954300189766	-0.00019578349610514995	0.003175342691374702	-0.010625231579488668	-0.02359618889324088	0.00015045792134674748
Xe	0.00012186113700622409	0.0001300102684133905	0.0028027571158371328	0.006949984996756925	-0.006673788587119588	3.5290519222118303e-06
2
82800
Ar	0.00027268944229415936	-0.0003923282011066529	0.0031763209629389294	-0.021251585316802334	-0.014759073745578654	4.725106943805778e-05
Xe	0.0001704566416650853	4.780695949752861e-05	0.0028023494517195407	0.002548511938619002	-0.009383972259847105	-8.440086426182204e-05
2
83000
Ar	3.1605370761725385e-05	-0.0004767159575525085	0.003176297226549333	-0.025808769918216273	-0.0017081787458934948	-4.669052446683781e-05
Xe	0.00017058592986602623	-4.835657909494348e-05	0.002801400981932571	-0.0025296555679009333	-0.009382554278644551	-0.00010191742897583328
2
83200
Ar	-0.00021851671726029977	-0.0004248689903924634	0.003175421517338171	-0.022995493798753756	0.01180960495006537	-0.00011098404662818237
Xe	0.00012223843704271703	-0.0001307369365488463	0.0028001553136580777	-0.006926501841141028	-0.006681621732052372	-0.000140275246843249
2
83400
Ar	-0.00040611992281173044	-0.00025199413572873116	0.0031741602514321066	-0.013611709571478649	0.021909455888093624	-0.0001248665281819047
Xe	3.862065349451695e-05	-0.00017573669331968417	0.0027989229455968297	-0.009372878483546628	-0.0021076266870746633	-0.00010071357821914697
2
83600
Ar	-0.00047754202757100507	-7.443781537306391e-06	0.003173166773280778	-0.0003352027750321503	0.02582139997270518	-5.7518812709237074e-05
Xe	-5.6221858122428275e-05	-0.00017065729934476323	0.002798696077348007	-0.009131886332368052	0.0030855722309134303	7.502171486637746e-05
2
83800
Ar	-0.0004124899913730699	0.00023940305913692624	0.003173174860838065	0.013028701862976359	0.022339884824330827	4.92329231002687e-05
Xe	-0.0001352003779699153	-0.00011695098630117772	0.0027997016908470553	-0.006278954504571386	0.007364612353465357	0.0001429481379924533
2
84000
Ar	-0.00022976573335210947	0.00041788102841579125	0.0031742233128055214	0.0226117729718922	0.012487031802056231	0.00012149455571028314
Xe	-0.0001757378868302719	-3.0152626174889994e-05	0.002801166527898239	-0.001602976462214507	0.00957015607410136	0.0001552768986969342
2
84200
Ar	1.8454826004951388e-05	0.00047717502600257985	0.0031753752040455684	0.025812721432249212	-0.000911989301665058	0.000105575300099131
Xe	-0.00016597179243854163	6.52854039386283e-05	0.002802488236843463	0.003519193924161009	0.009045815490065369	8.663240446277296e-05
2
84400
Ar	0.00026153307865023746	0.00040045110149003867	0.003176242292924148	0.02160763551868515	-0.014080063815699614	6.87653186888562e-05
Xe	-0.00010879663023934633	0.00014212285780428762	0.00280279062238547	0.007631577095432305	0.0059528733717387535	-4.825770852952801e-05
2
84600
Ar	0.00042979718597631604	0.00020904469638750457	0.003176331908704209	0.01122134881011667	-0.02324046833527147	-2.78529516073333e-05
Xe	-2.0627710125709776e-05	0.0001786523888560801	0.002801848823603662	0.009563311811929372	0.001178631159280292	-0.00011248776828255507
2
84800
Ar	0.000475384929997894	-4.205261680539988e-05	0.0031757807665158113	-0.0023256950177422586	-0.02574467335849248	-9.756484834401316e-05
Xe	7.335445033459617e-05	0.0001644537654705715	0.002800496585583941	0.008780221523930301	-0.003967444142262881	-0.00014196467969756325
2
85000
Ar	0.00038518349798367485	-0.0002810149280844452	0.0031744231839549385	-0.015266899143227406	-0.02086466105318014	-0.0001573487953734469
Xe	0.00014660448129182483	0.00010318868841239144	0.0027994449802631475	0.005491221658322767	-0.007989187066268982	-6.33619852736822e-05
2
85200
Ar	0.00018466336068876486	-0.0004396417960778098	0.003173177735031297	-0.023865866475599913	-0.010045799028803419	-8.549871286193257e-05
Xe	0.0001779455554342517	1.2272611984210772e-05	0.0027992152566643233	0.0006167872392652706	-0.009747985495827588	2.638370575223088e-05
2
85400
Ar	-6.8695299907064e-05	-0.0004723730055016854	0.003172965578414448	-0.025585492709301955	0.0036267040281289	5.07210926638683e-05
Xe	0.00015836205567781633	-8.242448027094328e-05	0.002800043218855203	-0.004427497624446413	-0.008727150915774633	0.00011272230858402621
2
85600
Ar	-0.00030246198953439937	-0.0003701877059616693	0.0031735780394567354	-0.020005207345836988	0.01629850060083899	0.00010799516510366914
Xe	9.372804735150482e-05	-0.00015356761576299605	0.0028015155079965685	-0.008182284130309893	-0.005171083368217184	0.0001757401097910408
2
85800
Ar	-0.00044981330973749046	-0.00016210191535010867	0.0031748756943357145	-0.008746047980965201	0.024304102199602648	0.0001290947402415912
Xe	2.5655674426401688e-06	-0.00018084983908300646	0.002803094836352164	-0.009599446759991104	-0.00016676389294882648	0.00010540938745600351
2
86000
Ar	-0.0004689799020508747	9.223587389201013e-05	0.0031760761282460252	0.0049940386641925075	0.02533163430493061	8.888051875078894e-05
Xe	-8.917401020074068e-05	-0.00015673139633687943	0.002803751827135282	-0.008303121019304874	0.0048677116102784045	1.0745615456181617e-05
2
86200
Ar	-0.00035448662577631525	0.0003202388343598569	0.0031765781841205927	0.01733327921830548	0.019121769215366877	5.425078982226248e-06
Xe	-0.00015529780058746274	-8.806270319004532e-05	0.0028030545624627462	-0.004642079974431224	0.008546349029621272	-0.0001409580761877985
2
86400
Ar	-0.00013849680519700285	0.0004563424354998037	0.003176017061503986	0.02479381414653755	0.007450345636665795	-0.00010906828780366978
Xe	-0.00017728254967972772	5.495691140211336e-06	0.0028013291112340103	0.00037179449631397494	0.00974003395536509	-0.00020006675711394355
2
86600
Ar	0.00011720492521541748	0.0004618869326943617	0.003174618353937176	0.025092438896727937	-0.006360895347504731	-0.00014537295372916818
Xe	-0.00014846601558360581	9.74161319291748e-05	0.0027997177361337566	0.005240818075309096	0.008190125788870045	-0.0001320286550778461
2
86800
Ar	0.0003393653444321153	0.0003354161648343987	0.0031733622913841966	0.018250791158166076	-0.01832203795717343	-0.00011114508403570505
Xe	-7.73950723316267e-05	0.00016135689817231905	0.0027985313090801408	0.008653348185817452	0.00429486244527852	-8.092939451053856e-05
2
87000
Ar	0.00046462203600919144	0.00011336083292809379	0.0031725574612926715	0.006225795142601942	-0.025006255852163557	-3.960706654573957e-05
Xe	1.601817222073866e-05	0.00017890794325931282	0.002798374735337825	0.009568026279548923	-0.0008482653887373351	4.9068748102543785e-05
2
87200
Ar	0.0004574483713198604	-0.00014097479333998416	0.0031728669899554656	-0.007638364685920433	-0.024612958234093155	8.44242895840729e-05
Xe	0.00010490725779764622	0.0001457030849466807	0.002799640983843642	0.007785660250536314	-0.005653848469566015	0.00018405010419142713
2
87400
Ar	0.00031929951753652865	-0.0003553161733328332	0.0031741853215077067	-0.019296108246612237	-0.017187536411258954	0.00014923237549732194
Xe	0.0001640220779328873	7.081255764783527e-05	0.002801786596558281	0.003740374269454514	-0.008949356808533353	0.00022820124253496198
2
87600
Ar	9.007405874214386e-05	-0.00046810126034497557	0.003175536059222371	-0.025437078922773852	-0.004849473707973635	0.00010086256895080869
Xe	0.00017633225302785926	-2.424676656119777e-05	0.0028038283737840237	-0.0013451819070676538	-0.009622009182760198	0.0001767040438466504
2
87800
Ar	-0.00016480900836625094	-0.0004476924671975317	0.003176195520908843	-0.024271463708910472	0.008851328048987889	3.323800503609357e-05
Xe	0.0001380673476677985	-0.00011225783164352217	0.0028045565145804873	-0.0060983304836290395	-0.007535393351772445	-2.497868204011104e-05
2
88000
Ar	-0.0003722971787737014	-0.0002992066816211181	0.00317613168129661	-0.016187557900847728	0.020103481058483166	-4.241813657085962e-05
Xe	6.035206759024458e-05	-0.000167888250985395	0.002803438964262524	-0.00907359882415063	-0.0033324072608547054	-0.00016097189911769852
2
88200
Ar	-0.0004730817912837441	-6.50421318491295e-05	0.0031751294410138783	-0.003479467434205543	0.02557603994829425	-0.00014562338109310274
Xe	-3.4625461669335764e-05	-0.00017544438756127346	0.0028013197668762175	-0.009458045661845318	0.0018494425557003358	-0.00023428109770817117
2
88400
Ar	-0.0004386227590204037	0.000187841062288192	0.00317365229629745	0.010192212471836586	0.023757886375208526	-0.00013246796019300564
Xe	-0.00011975879849288675	-0.0001326729882661283	0.0027989253531621582	-0.0071599231862995456	0.006500159716392596	-0.00021060572120835475
2
88600
Ar	-0.0002790075865596383	0.00038712259626242816	0.0031728395473821207	0.020966293417916042	0.01509133312220201	-3.8593973501863236e-05
Xe	-0.00017079498223563126	-5.184075908151447e-05	0.0027977194085862826	-0.0027936563953842907	0.009283050528696235	-5.314312189900939e-05
2
88800
Ar	-3.952715457279521e-05	0.00047547493783775465	0.0031731270413717424	0.025746259771321233	0.0021272426941828467	0.00012341200655066934
Xe	-0.0001727972820537949	4.397580374700158e-05	0.0027982102375814512	0.0023934668838443774	0.009396418575367676	0.00013073581373560097
2
89000
Ar	0.0002112215833408756	0.0004275825896561909	0.0031748752839839897	0.023182428068481805	-0.011459143560895193	0.0002087547038997647
Xe	-0.0001252578412376931	0.0001271079450950992	0.0027999389120593188	0.006882188095690295	0.006815564516753835	0.00020436935373234914
2
89200
Ar	0.00040173443225101005	0.00025747360760312	0.0031767179056357083	0.013983386684553421	-0.02170455444603662	0.00014004328168894212
Xe	-4.192841381301202e-05	0.0001738068874005801	0.0028020143893141814	0.009393104301647512	0.0022819126518276063	0.00017997405739527124
2
89400
Ar	0.00047740489761417717	1.4278070181926713e-05	0.003177223456076669	0.0007753146486000985	-0.025756043598438545	-1.7506387314317172e-05
Xe	5.341282808812901e-05	0.0001706002031804093	0.0028031469508380228	0.009204557774252142	-0.0029061069175474233	4.241257136846953e-05
2
89600
Ar	0.0004168113162750618	-0.0002328733659274396	0.003176461873968331	-0.012595115141606918	-0.0224755822939873	-0.00011987315523421107
Xe	0.0001333996342950305	0.00011857670494449331	0.002802915170753052	0.006427556092808674	-0.007249709273698771	-9.453051837302787e-05
2
89800
Ar	0.0002374884411298877	-0.0004136623162589796	0.0031749538400383573	-0.022427299154871728	-0.012798855850807528	-0.0001618408509865329
Xe	0.00017566552981687132	3.2802086936591425e-05	0.0028016320850565808	0.0018172493853628134	-0.009489384420377564	-0.00015605103267967647
2
90000
Ar	-1.0041367622666816e-05	-0.0004765814237168274	0.003173585050422703	-0.0258753892967001	0.0005153635805874468	-0.00010862198214756572
Xe	0.00016770863168170065	-6.219255988085757e-05	0.0027999776220474382	-0.0033876160318102627	-0.009036643757877227	-0.00018056411755130647
2
90200
Ar	-0.00025515066258691653	-0.0004036805715933456	0.0031730839638916806	-0.021933118663772004	0.01369346349406526	8.929303247814833e-06
Xe	0.00011154563113788164	-0.00013957968767796736	0.0027986309112558476	-0.007589664504742065	-0.006037690541734602	-8.483110910073867e-05
2
90400
Ar	-0.0004273356737316448	-0.00021588688281114668	0.0031738347103879285	-0.011662930895473336	0.022963015481395593	0.0001014065003944188
Xe	2.3282804996372836e-05	-0.00017726878244572864	0.002798422506463074	-0.009606259807881445	-0.0013078572479857714	2.0681813330542805e-05
2
90600
Ar	-0.00047731905440730004	3.338922044977259e-05	0.003175106963000179	0.0019158543887041217	0.025663064009931517	0.00015842033379069424
Xe	-7.151075093388898e-05	-0.0001643714287917216	0.0027990729552839658	-0.008892271873882208	0.003820599191862681	9.99392233444189e-05
2
90800
Ar	-0.0003907762077104462	0.0002728362757568871	0.0031763227282680688	0.01495293690491688	0.021060718974247005	8.786575330122244e-05
Xe	-0.0001460619524623763	-0.00010463111242272911	0.0028002336145350336	-0.005617955442669724	0.007848153933846757	0.00012247420269580233
2
91000
Ar	-0.00019271883261604721	0.0004342930860500264	0.003176483074525445	0.023698971831957634	0.010422685939495389	-4.997670052529847e-05
Xe	-0.0001784449776486034	-1.5055249567551621e-05	0.002801333333650688	-0.0007157073494575013	0.009633491662921791	9.660512611192918e-05
2
91200
Ar	6.016062296708643e-05	0.0004715400631245455	0.003175787369557866	0.025651237370180855	-0.003156775962772773	-9.120357446563587e-05
Xe	-0.00015984100361163584	7.868299287890305e-05	0.0028020509968803005	0.0043482385326732605	0.008657200839618798	3.1751262832088086e-05
2
91400
Ar	0.0002956650499080548	0.00037430629962560984	0.0031749322742966055	0.02027887008758025	-0.015805805303465335	-9.287868370465669e-05
Xe	-9.563412119165143e-05	0.00014981365495096634	0.0028018630449067696	0.00816165234532852	0.005233283618607762	-7.1961268536077e-05
2
91600
Ar	0.000446628365858435	0.00017024846835444893	0.00317417317489755	0.009157982276156848	-0.02399471695380565	-5.345546882332325e-05
Xe	-4.319616909349023e-06	0.00017822310879396166	0.0028010062877911377	0.009660498611450847	0.00029428838627242894	-5.4962079179654214e-05
2
91800
Ar	0.0004701363897320044	-8.254497012631316e-05	0.00317392640951278	-0.004564448362808704	-0.025319984425248278	2.0225785263896213e-05
Xe	8.834260365944993e-05	0.0001554044645041179	0.002800425450075983	0.008399048972595765	-0.004717887315177105	-5.2555190503516574e-05
2
92000
Ar	0.000359708588202178	-0.000311948180803274	0.0031744998912390607	-0.016987563017067435	-0.01942453629637228	7.442887996647368e-05
Xe	0.0001553286518155577	8.833961388300288e-05	0.002800211071218002	0.0046857307979649735	-0.008389034774696342	-1.8452089369732052e-05
2
92200
Ar	0.00014685295565152113	-0.00045245235347909517	0.003175497152430567	-0.024545419785742355	-0.007968936413242738	0.00010890588988917369
Xe	0.0001778268327097086	-4.107995242162605e-06	0.002800223974291539	-0.00031611883722824636	-0.009658672438622843	1.7835449344021323e-05
2
92400
Ar	-0.00010761835246474568	-0.0004637426330737522	0.003176298128659904	-0.025124342117129838	0.005745211273329282	6.473468457629248e-05
Xe	0.00014942309714962852	-9.538762309174598e-05	0.002800475481695474	-0.005230227714683436	-0.008155156251029564	2.2089814725954146e-05
2
92600
Ar	-0.00033125877296568844	-0.0003426032722024901	0.003176369033736474	-0.018525083757960942	0.01788903596370765	-5.207306633197322e-05
Xe	7.828635416239305e-05	-0.00015935741891859027	0.002800829795141758	-0.008647508643382916	-0.0043118934236410665	4.951798651370545e-05
2
92800
Ar	-0.0004605680946780718	-0.00012347853914349894	0.0031755616515349765	-0.006675079331555256	0.024854597325939923	-9.982054688375557e-05
Xe	-1.535496478265647e-05	-0.0001774661393340167	0.0028010974613505314	-0.009612816740867627	0.0007845156966143465	-2.7539547068862718e-06
2
93000
Ar	-0.00045843224531569776	0.0001307524084949244	0.00317437699005576	0.00708358578446159	0.02474071713550378	-0.00012278149989707244
Xe	-0.00010454071448860115	-0.00014465602018919226	0.0028008685879801266	-0.0077767721777619115	0.005617823314555933	-1.900786079964456e-05
2
93200
Ar	-0.0003257890182737508	0.00034780739786706617	0.0031734820760383133	0.018802385104620147	0.01758865759878839	-4.4612596249840814e-05
Xe	-0.00016340675819405024	-7.058188934507914e-05	0.002800459405028029	-0.0037188576353514723	0.008819538746812666	-4.6767951524515194e-05
2
93400
Ar	-0.00010057728999938476	0.0004655640313915377	0.0031737641812889343	0.02515449265670885	0.005394067443876894	8.299685939991403e-05
Xe	-0.0001752689403350535	2.3329929888249714e-05	0.0028000483958956395	0.0013956857447889341	0.009499627841310532	-3.5587251189897655e-05
2
93600
Ar	0.00015315240893227144	0.0004503315459068415	0.003175015351172283	0.02434687124420194	-0.008332305363931708	0.00014676290319138015
Xe	-0.00013727269070661164	0.00011045593469509842	0.002799931883179701	0.006032589301140011	0.007496302889641045	-1.1347708763543122e-05
2
93800
Ar	0.0003632311253674691	0.0003066321529920067	0.0031766660060317696	0.016637352680104016	-0.019694972809054585	0.00012087067520639839
Xe	-6.0152861284292404e-05	0.00016615104247672227	0.0027997402805821424	0.008984722821501196	0.0033681207921128858	-2.799796455005384e-05
2
94000
Ar	0.00046982011287555566	7.516997533661244e-05	0.0031772581100355155	0.004167800306213436	-0.02546492882895363	-4.156460798936398e-06
Xe	3.4092628802121115e-05	0.00017423389164749318	0.0027995109443736013	0.009406136294230398	-0.0017754008713120556	-1.3284021642098404e-05
2
94200
Ar	0.0004424581444274708	-0.00017799268562412838	0.0031767361021435747	-0.009511737627905735	-0.023915490578089282	-0.0001181470098181673
Xe	0.00011876370880252877	0.00013236533863590088	0.002799449973280247	0.007105026729031316	-0.0064019948239418464	-2.3507426399980585e-05
2
94400
Ar	0.0002887724874130518	-0.0003801907389965621	0.003175385110384806	-0.020457414665313065	-0.01554721198192989	-0.00014450627662709794
Xe	0.00016991669520285757	5.2328586305427064e-05	0.0027991652066283843	0.0028679665528905736	-0.009209691531857057	-2.825216093862367e-05
2
94600
Ar	5.2649739137379927e-05	-0.0004740469395729483	0.0031739183155572183	-0.025601642985905334	-0.002729513954728575	-0.00011974827297820869
Xe	0.00017303054866791998	-4.254448678221936e-05	0.0027991141058804044	-0.002271873545625592	-0.009301883323663504	1.871894017342991e-05
2
94800
Ar	-0.0001987372980287076	-0.0004324720833993048	0.003173442941137647	-0.023416404095480087	0.010851569308863563	5.4076270452464794e-05
Xe	0.00012662251219971966	-0.00012499844765958732	0.0027992884595312967	-0.006782835998420601	-0.006799798291080631	3.3809179107089844e-05
2
95000
Ar	-0.0003934581652285099	-0.00026736048489707623	0.003174550700513668	-0.014572388050847549	0.02137702999503624	0.00017225346365629387
Xe	4.405799640148253e-05	-0.0001718382086004028	0.002799861271684967	-0.009303876726911861	-0.0023569568887677056	6.294668365499515e-05
2
95200
Ar	-0.0004760416853261634	-2.5822003401846785e-05	0.0031763635592673687	-0.0015417685289173342	0.025760278471055317	0.00014401928263448757
Xe	-5.053498891948095e-05	-0.00016980171089976825	0.002800500613231676	-0.009166742067719088	0.0027771503559976805	6.12556120676185e-05
2
95400
Ar	-0.0004228276979352311	0.00022292004076322362	0.003176896457072371	0.011911724728992585	0.022792496091307013	-2.8500651437776808e-06
Xe	-0.00013035676346563718	-0.00011886901096096925	0.00280101251619884	-0.006412136838313921	0.007156663213954458	4.223195965649686e-05
2
95600
Ar	-0.0002489564604481279	0.0004080286599868703	0.0031762986164875933	0.021982685641512633	0.01332660330864824	-0.00010144264301499555
Xe	-0.00017300583818571477	-3.392710751518115e-05	0.002801270084548721	-0.0018900888372645555	0.00942400536697718	2.8734206413659683e-05
2
95800
Ar	-4.068537610959205e-06	0.00047653281223319335	0.0031751373534002016	0.0257994278017226	5.288748166906425e-05	-0.00010365499784293448
Xe	-0.00016616815167339028	6.035928409658524e-05	0.0028015401230325723	0.003203734282302126	0.008957973756543353	-2.55622743281376e-05
2
96000
Ar	0.00024202716575386557	0.0004092721679452713	0.0031743890918284577	0.02223288274616383	-0.013164005698108336	-4.185601332442217e-05
Xe	-0.00011186461119661148	0.00013710652595120475	0.002801028452569114	0.007397053847121995	0.006011475729843875	-5.404426391287172e-05
2
96200
Ar	0.0004193169291317291	0.00022557126934800138	0.0031746722829996046	0.012333857004729554	-0.02267120112552006	8.41692342790479e-05
Xe	-2.5243149112303487e-05	0.0001746301558578208	0.0028004644884998646	0.009488475775770564	0.0013308660044488308	-9.433979196491188e-05
2
96400
Ar	0.0004767817553514143	-2.2368102952670155e-05	0.003175766997685161	-0.0011231291008003202	-0.025725451875862403	9.972060623811456e-05
Xe	6.880606938286514e-05	0.00016241241904104686	0.002799518435574089	0.00887588807623176	-0.0037262693836715433	-7.425548934823037e-05
2
96600
Ar	0.00039822340971473096	-0.0002640083298621588	0.0031766227824755145	-0.014215758384595021	-0.021422537700053777	5.663451326587614e-05
Xe	0.00014360196488765739	0.00010365945851153026	0.002798789151781691	0.005722987098740319	-0.007748213415651884	-6.0741622845734976e-05
2
96800
Ar	0.00020597944514345886	-0.0004302388913152152	0.003176806577564086	-0.023277762205200937	-0.011005913558319909	-2.3837395058784188e-05
Xe	0.00017747036939130115	1.4935884558582176e-05	0.00279855315159198	0.0008843684515474745	-0.009556392433306063	1.6480455705299554e-05
2
97000
Ar	-4.523810260511317e-05	-0.00047367777520695954	0.0031763957944548676	-0.025734500891969058	0.0025147722168955386	-6.009090777936607e-05
Xe	0.0001608277722023379	-7.807669470800515e-05	0.0027989662188619875	-0.004147512684987319	-0.008593927581327683	6.680241029118868e-05
2
97200
Ar	-0.0002836753813801513	-0.00038223754583216674	0.0031755791155084435	-0.02078483909812811	0.01532201156259411	-0.00010911173180320918
Xe	9.846933365418605e-05	-0.00014873213991440146	0.0027998505680554998	-0.008000956459741521	-0.005217425280337065	9.002521243243306e-05
2
97400
Ar	-0.0004410490740606101	-0.00018213600369636332	0.003174346145099745	-0.009916493962036262	0.023734171726543265	-0.00011368546366134117
Xe	8.662499637712296e-06	-0.0001773321275579611	0.0028007669149986143	-0.009533561106453804	-0.000332918747850426	7.860864938550069e-05
2
97600
Ar	-0.00047252279390414464	6.954585793071616e-05	0.0031737388504283082	0.0037610875574092583	0.025382892884689045	-2.4196685303623182e-05
Xe	-8.341850973314733e-05	-0.00015551800342514395	0.0028015322712505435	-0.008455625517304666	0.00461307655758942	6.926472152752952e-05
2
97800
Ar	-0.00036939218029983394	0.0003012752410133082	0.0031741365980173537	0.016341211344522627	0.019831786626698107	7.57937680563079e-05
Xe	-0.00015189687026191952	-8.974656451934207e-05	0.002801874780185104	-0.004909348983657495	0.008228680682695395	-1.6541380709814192e-05
2
98000
Ar	-0.00016116199135054768	0.0004469209359088209	0.0031752097978380214	0.024290137502769135	0.008611065842197299	0.00014219633069197067
Xe	-0.00017691170823013987	1.4633304482955522e-06	0.002801490328553787	2.258256625261457e-05	0.009557095542716932	-8.731047841485823e-05
2
98200
Ar	9.306673926308695e-05	0.0004654380283095977	0.0031765257707894925	0.025322716141592216	-0.004998353391322118	0.00010017682654959904
Xe	-0.00015139953317845566	9.217244751400803e-05	0.002800271897996183	0.004961997426383414	0.008138140244326075	-0.00016660143137679493
2
98400
Ar	0.0003208769847506951	0.0003513935784525869	0.003177056289306323	0.019116425878439237	-0.017258223292337078	1.7008350461483954e-05
Xe	-8.259611442576757e-05	0.0001566282844294164	0.002798637151640439	0.008473423711178011	0.0044236143669552554	-0.00014141116643922477
2
98600
Ar	0.0004569075989283146	0.00013683218134668976	0.003176514774995801	0.007422767135337055	-0.024603859600533302	-0.0001114156651984051
Xe	9.710423030462788e-06	0.00017649708841430245	0.0027975828539306934	0.009549599961902243	-0.0005500286410936679	-3.901818928561199e-05
2
98800
Ar	0.0004621068873180701	-0.00011668494722928893	0.0031752183922808346	-0.006392718173518257	-0.024858738129264507	-0.00012587117830279405
Xe	9.938841814508849e-05	0.00014587185246598788	0.0027979111382852467	0.007951999641645405	-0.005403717329876219	0.00010738644615241688
2
99000
Ar	0.0003355824031342144	-0.00033673615817366863	0.0031741475004735563	-0.018290427429000597	-0.018070449909574085	-6.0753603540854134e-05
Xe	0.00016115782491921843	7.352367883680793e-05	0.0027993781287060375	0.004102390182997369	-0.00872083309623111	0.000176694630011935
2
99200
Ar	0.00011363734426888114	-0.00046098907193181443	0.0031741760446640055	-0.025011878407635305	-0.006163753559729602	7.07318696141233e-05
Xe	0.0001773370432552735	-1.9854810565845472e-05	0.002801059200136793	-0.0009532836690305113	-0.009492365550347291	0.000139059104595291
2
99400
Ar	-0.00014081982364782985	-0.00045409555507933797	0.0031750497734998433	-0.02463150566709136	0.007514027669080453	9.010875667057782e-05
Xe	0.00014304085966732302	-0.0001073771234572953	0.002802110835179934	-0.005739521983841731	-0.007586542412556349	5.3485513615499104e-05
2
99600
Ar	-0.00035535381407820587	-0.00031783032569917803	0.003176010832494119	-0.017216670045683065	0.019076735202167596	8.200996932520526e-05
Xe	6.777305641339411e-05	-0.00016429101961955512	0.002802213254644631	-0.008927922802800635	-0.00350324363252843	-1.735512885688806e-05
2
99800
Ar	-0.00046833652351755946	-9.084250231348675e-05	0.003176688012357616	-0.004842376798510776	0.025176622041494776	5.430453732524958e-05
Xe	-2.6821414401632702e-05	-0.0001739753203294548	0.002801538628378777	-0.009536526354504282	0.0016064281224954225	-0.0001155997928815027
2
100000
Ar	-0.00044789400284253546	0.00016164716385986272	0.003176773976459241	0.008856662841474034	0.024107436485750748	-4.714737530681957e-05
Xe	-0.00011366631788699032	-0.00013411404762273153	0.0028003120834834906	-0.007418706469219236	0.0061884852681112195	-0.0001289605309466632
2
100200
Ar	-0.00029957880413578004	0.0003682432110487479	0.003176032975187277	0.020074980124840366	0.01619311036307412	-9.732439285775748e-05
Xe	-0.00016814027248035173	-5.580611760094867e-05	0.0027989353987825	-0.0032098559897689952	0.009087143726510864	-0.00012202318606163014
2
100400
Ar	-6.575535487332845e-05	0.0004701388168884925	0.0031751345468313875	0.02557067700815301	0.0036761280911171983	-8.980656403506997e-05
Xe	-0.00017490656781175273	3.8683889983118955e-05	0.002797896415689223	0.0019128225017537059	0.009352808964630057	-7.576488231205987e-05
2
100600
Ar	0.00018709056998145637	0.00043790365519956736	0.00317457389341	0.023761626060451485	-0.00996760133288917	-4.498994039908064e-05
Xe	-0.00013171798940485094	0.00012234722355214338	0.0027976832626239803	0.00652167411992019	0.006964791985113186	5.74868245741109e-05
2
100800
Ar	0.0003866574768712782	0.00028038804849570074	0.0031744089544320725	0.015171757802390672	-0.020772964650716746	1.255351522289923e-05
Xe	-5.066624964670314e-05	0.0001710676132591344	0.0027987505682322365	0.009287889700525017	0.002547596747318131	0.00014702896283259518
2
101000
Ar	0.0004758539131666944	4.258819836448178e-05	0.003174707640900999	0.0022305391009076404	-0.02563012093044992	4.2416745465185493e-05
Xe	4.50023556617299e-05	0.00017112522437365933	0.00280047946020494	0.009369152524566216	-0.002528946213674381	0.0001857301495192041
2
101200
Ar	0.0004291041282703667	-0.00020741046244981338	0.003175260950863281	-0.011344614493451862	-0.023160645425941224	7.042313986900859e-05
Xe	0.00012760881120847857	0.00012252964789368894	0.002801968481063745	0.006747458113909362	-0.006952879395047384	0.00011434885685246486
2
101400
Ar	0.0002598382836624902	-0.00039848169874834175	0.0031756908871181867	-0.021670769179631733	-0.014134740411194993	2.97053154784958e-05
Xe	0.00017338094764083814	3.890131473668608e-05	0.002802609623949829	0.0021983413355257616	-0.009345468739423862	-1.5891977628866296e-05
2
101600
Ar	1.6539470653449935e-05	-0.00047623853281696153	0.003176001333836542	-0.025810372734311998	-0.0010352582364256578	2.8120696431948103e-05
Xe	0.00016958186164131914	-5.546239749632549e-05	0.002801774072222503	-0.002926579638383409	-0.009068791796168305	-0.00012857177226023963
2
101800
Ar	-0.00023135032809890502	-0.00041832360072558973	0.003176225725758241	-0.022562023436404472	0.012344940644504273	-1.979476686846753e-05
Xe	0.00011764560919942076	-0.0001339653199974909	0.002800390527556723	-0.007225116763907655	-0.006256542418398408	-0.00015032716123239317
2
102000
Ar	-0.00041316066241313263	-0.00024079445215667043	0.003175672500649524	-0.012902800822481787	0.022280034392963926	-5.7902644526398285e-05
Xe	3.2101985737124924e-05	-0.00017445481830231918	0.0027991493584546005	-0.009462666614140173	-0.001638338848277727	-8.092173048716663e-05
2
102200
Ar	-0.0004770090615122314	5.302034084165266e-06	0.0031749227540928435	0.0004551694930717453	0.025753252423086733	-9.043715670062389e-05
Xe	-6.261250378575876e-05	-0.00016510856120220314	0.0027989429202817245	-0.009018244626833727	0.0034550951144947384	3.654607630585282e-05
2
102400
Ar	-0.00040458305536395997	0.000249861396988753	0.0031742114258355857	0.013658670752227313	0.021977217626125426	-4.071665691880835e-05
Xe	-0.00013974485752491273	-0.00010866537195537247	0.0027996394624800872	-0.005990574407844979	0.007546729578627754	8.959926095693599e-05
2
102600
Ar	-0.00021685432738009197	0.0004237082679238943	0.0031745280635983976	0.022962831266875684	0.011919716069872568	8.797088589178387e-05
Xe	-0.00017684578717212871	-2.142022378917619e-05	0.0028007022765646887	-0.0012441838565435861	0.009463899487524251	0.00012667034395166734
2
102800
Ar	3.262244332531479e-05	0.00047689438346386413	0.0031754461237660974	0.025729141292373373	-0.001551051054752668	8.172889796620306e-05
Xe	-0.00016345128270358353	7.149501817559076e-05	0.002801765363695747	0.0038565115765123413	0.00866537676113585	9.382926721981915e-05
2
103000
Ar	0.0002729524602034949	0.00039376166937212296	0.0031761069357826837	0.02114399839043647	-0.014665269222030344	5.363205747222458e-05
Xe	-0.00010361912741263604	0.00014400756572697536	0.0028024120274412105	0.007829309547710503	0.00547615669558746	2.1891555988721535e-05
2
103200
Ar	0.0004354040128732463	0.0001978647316888202	0.0031761925802411203	0.010552829560276467	-0.023524870870465724	-4.3060208862246784e-05
Xe	-1.4282058402044666e-05	0.0001753638022023888	0.002802243129447281	0.009594563185009666	0.0006693448009222495	-4.5498607770729235e-05
2
103400
Ar	0.00047366746819354236	-5.4197236492362256e-05	0.003175519261285822	-0.0030730862009250184	-0.02565441978662647	-8.818558742603644e-05
Xe	7.922815816346557e-05	0.00015680591702760147	0.0028014904028338997	0.00864025444597912	-0.004288190329246347	-0.00010541945978336392
2
103600
Ar	0.00037699729596149707	-0.0002908315254572771	0.00317473561529581	-0.015803313479420475	-0.02050881482963332	-7.196607015737359e-05
Xe	0.00015010631605026184	9.379906982320935e-05	0.0028003017584340723	0.005205550152080159	-0.008018607795661442	-0.000126328947268983
2
103800
Ar	0.00017278331024159517	-0.00044448468012542856	0.0031744203201300703	-0.024043388665015878	-0.009483397238473738	-2.027272614231487e-06
Xe	0.00017842313288975216	4.060278181232413e-06	0.0027992723646832153	0.00030471453371864365	-0.009480222684844417	-7.493700939285023e-05
2
104000
Ar	-8.066876809566805e-05	-0.0004713321359744639	0.003174522734613663	-0.02540114219267818	0.004280032257223244	3.192765941959549e-05
Xe	0.00015589969067425542	-8.67029882802607e-05	0.0027987093537509516	-0.004687857488309695	-0.008229503032675348	-4.293249573695534e-05
2
104200
Ar	-0.0003107578280808384	-0.00036334729608169744	0.003174649055944154	-0.019490715808567295	0.016797020527543723	2.0329355461770632e-05
Xe	8.881406504635054e-05	-0.00015270948162586	0.0027990262263847925	-0.008402594545611253	-0.004656748457824763	8.381727521448735e-05
2
104400
Ar	-0.0004517092987882841	-0.00015154452761490355	0.0031749643245938455	-0.008032051437327627	0.02451428255383489	2.810505502765549e-05
Xe	-4.137875446392081e-06	-0.00017531279683198522	0.002800265497006032	-0.00970986255984819	0.00023354611027032543	0.0001315817780258192
2
104600
Ar	-0.0004640023871645942	0.00010343544549939329	0.0031754224990579462	0.005649309897916597	0.02524716692934096	5.831998602796883e-05
Xe	-9.603245553111732e-05	-0.00014784316144314614	0.002801601087134871	-0.00819701877867641	0.005120760856284965	0.00010752912955823332
2
104800
Ar	-0.0003441876081340874	0.00032914251812845885	0.003176069993996663	0.017740238441282422	0.018805982934993866	6.777943465618725e-05
Xe	-0.00016023053729452344	-7.806773157444314e-05	0.0028022534149620168	-0.004337248843271176	0.0084841399354449	1.0704803321080637e-05
2
105000
Ar	-0.0001260429328593121	0.00046103118972032976	0.003176577239015896	0.02481619735784051	0.006937135729736428	2.570107213170376e-05
Xe	-0.00017872749081456106	1.3805421703040291e-05	0.00280208454006388	0.0007224259382734812	0.009449616642206641	-4.529594243974729e-05
2
105200
Ar	0.00012790307228915975	0.0004613443305955061	0.0031762318453685866	0.024726859688829598	-0.006876706805766716	-0.00010099488512858585
Xe	-0.00014629307226157897	0.00010180709505856452	0.0028013852815541637	0.005614326981508183	0.007746965007650499	-9.550075592304224e-05
2
105400
Ar	0.00034506928814210196	0.0003300676867490494	0.0031747320320071855	0.01765458762198161	-0.018768884419521053	-0.00018861944160537724
Xe	-7.181631730433003e-05	0.00016122589752307472	0.0028001700933338665	0.00890496735059776	0.0038289319738121926	-0.00011563161940060796
2
105600
Ar	0.0004639396914376945	0.0001044793198915768	0.0031733880799775936	0.005537039859557225	-0.025236176341335067	-8.136312141917688e-05
Xe	2.353402566647137e-05	0.00017455417834865726	0.00279898607739745	0.009675794146134453	-0.0012353583260988653	-7.956329473173276e-05
2
105800
Ar	0.00045037936593985415	-0.00015058479635975664	0.0031736062568762926	-0.008162079000284306	-0.02454296567458149	9.844350066412496e-05
Xe	0.0001124468024729124	0.0001379079321607181	0.002798319214062474	0.0076362900774585366	-0.005919050098366248	-3.3121262000847995e-05
2
106000
Ar	0.00030850800361074374	-0.00036274381000265594	0.0031751475431476264	-0.019526937020992213	-0.01684170085776755	0.00017951521853357583
Xe	0.0001691810919437813	6.207151175701222e-05	0.0027984498242795753	0.0034047180774709625	-0.008880752676901433	5.653542042687933e-05
2
106200
Ar	7.854931678793511e-05	-0.000471040983586512	0.0031765424803434123	-0.025331401063058593	-0.004268191030829728	8.075473239416121e-05
Xe	0.00017744084256578064	-3.135476702575256e-05	0.0027993903447168025	-0.0017956483779974991	-0.009358139980352844	0.00012638262434003328
2
106400
Ar	-0.00017379721790602393	-0.00044433044631617434	0.0031765639206648142	-0.023897984669350586	0.009470092035886436	-7.004555417305589e-05
Xe	0.00013500034648546348	-0.00011630738207200999	0.0028008684743742415	-0.00649293247421048	-0.007184652945016494	0.00013592968658421498
2
106600
Ar	-0.0003765402446038769	-0.00029074096003077303	0.0031752572429417703	-0.015654028589333686	0.020490037177336152	-0.00016200052619088804
Xe	5.3999438720547497e-05	-0.00016795213063820739	0.002802017462658888	-0.009303831184540175	-0.0029031698251796682	7.922089715457434e-05
2
106800
Ar	-0.00047206305594113025	-5.43413823375754e-05	0.003173961448137829	-0.0029880106348592625	0.025671869361439344	-8.742887831864487e-05
Xe	-4.18962331353072e-05	-0.00017160159245335202	0.002802052346380579	-0.009405740102968475	0.0021801026634350414	-6.621524390029985e-05
2
107000
Ar	-0.00043343191564281495	0.0001979302852135305	0.0031737017178852835	0.010529856406849858	0.023544434635469878	4.38389780162163e-05
Xe	-0.00012520855656332234	-0.00012643508482966512	0.0028007060807407305	-0.006853869941927067	0.00663441662561856	-0.0001622861789468238
2
107200
Ar	-0.0002713947447275302	0.00039412937983452923	0.0031746680297478316	0.021106692158934428	0.014732558098830171	0.00013313160713044331
Xe	-0.00017264865081958897	-4.508623362989908e-05	0.0027992481526931336	-0.0024038792538414117	0.00925168093039481	-0.00013015548259243158
2
107400
Ar	-3.1833824168571814e-05	0.0004778960761001067	0.00317581604084625	0.02561499062568569	0.0016227002159556545	9.818137144567031e-05
Xe	-0.000170909895361697	4.9416370388943816e-05	0.002798405578128637	0.0027370763298443044	0.00923035860777198	4.3704416614943326e-07
2
107600
Ar	0.00021658555716043317	0.00042508696221922214	0.0031763903048669523	0.022837942295236207	-0.011920225220899985	2.5643349550967193e-05
Xe	-0.00012035916068632878	0.00013034554837226993	0.0027987396242045554	0.007121918760139954	0.006548879928225539	4.865504994665828e-05
2
107800
Ar	0.0004029494668701758	0.000250784408015446	0.003176501874646528	0.013533291079833441	-0.022051808238957495	1.0659744746115597e-06
Xe	-3.537112315299628e-05	0.00017453295829517125	0.002799308183737614	0.00946148346548456	0.0020624068744634692	6.157195102923282e-05
2
108000
Ar	0.00047418849898101027	4.986900511314699e-06	0.003176344310812288	0.00038420415476013285	-0.025895947795438155	-2.219747618302916e-05
Xe	5.9921388209423766e-05	0.0001694849265454684	0.0028001765939097427	0.009125507707910535	-0.003087075878896209	7.16898787890242e-05
2
108200
Ar	0.0004099931964028364	-0.0002422987861227016	0.0031760079192536175	-0.01289427342536815	-0.022338219778798702	-6.162076702238068e-05
Xe	0.00013825550866286218	0.0001160171485835436	0.0028010143649300164	0.006170445271074574	-0.007354352627399082	0.0001020176624346562
2
108400
Ar	0.00022859371254166475	-0.00042040210294694015	0.0031748282037590905	-0.0224887409223389	-0.012395672886884224	-0.000130858643588877
Xe	0.00017712623743686585	2.9711369872714102e-05	0.0028016378787232704	0.0014113163735269998	-0.00949316386897311	3.608739469214603e-05
2
108600
Ar	-1.8232939686440196e-05	-0.00047849816993594737	0.003173728413788094	-0.025666900599089843	0.0010691723239938497	-9.062207345826872e-05
Xe	0.0001653601744910182	-6.488592157359372e-05	0.0028019520471402933	-0.003674269002287273	-0.008952612873850898	3.6943131828974e-07
2
108800
Ar	-0.00026003020220098736	-0.0004000235352027701	0.00317300867664786	-0.021507132814740614	0.014219867882631446	-4.047063857017887e-05
Xe	0.00010692779147928404	-0.00014093485536088323	0.0028017193793616084	-0.007715693414901789	-0.005872858345243952	-6.4879026389802e-05
2
109000
Ar	-0.000427741327182357	-0.00020771424496362326	0.0031734568794044645	-0.011205330364184373	0.02332737440570337	9.410914983523258e-05
Xe	1.8570325339084954e-05	-0.00017675445614839127	0.002800882244416637	-0.009533785457180985	-0.0011127830096546553	-0.00011867113096510287
2
109200
Ar	-0.0004736115543494598	4.382844890918454e-05	0.00317491184052782	0.0022744197950265803	0.025753803742161015	0.00017839635577624073
Xe	-7.476138770649802e-05	-0.00016195835605097402	0.0027996426183883438	-0.008672738773596231	0.00401305720264706	-0.00013391892909354558
2
109400
Ar	-0.00038432517890183175	0.00028265523586728136	0.003176426929975468	0.015167630095820258	0.02080614159326668	0.00011060010013265823
Xe	-0.00014685473751990677	-0.00010079583880667563	0.0027984910820367938	-0.005404259093689173	0.007926651226020034	-9.045012288655448e-05
2
109600
Ar	-0.0001850030445690653	0.0004401169880990588	0.003177014861559662	0.023727489102336807	0.009933177997123186	-2.5973864374319323e-05
Xe	-0.00017735307605969266	-1.0704617383716083e-05	0.0027982580031859585	-0.0005437893120233942	0.009650055383498788	2.6351460691704524e-05
2
109800
Ar	6.707317017502998e-05	0.0004718212037271276	0.003176030978285856	0.025466913153081066	-0.0037357484361735683	-0.00013268697480421236
Xe	-0.00015715223589402196	8.296849768472245e-05	0.0027994194766312076	0.004490289989519178	0.008597695764883345	0.00018457947813852875
2
110000
Ar	0.0002999235078097093	0.0003686776311933874	0.003174586372304122	0.019944641693589647	-0.016356186056701635	-0.00013685092606298248
Xe	-9.175879734283191e-05	0.00015304725921934528	0.0028013055774089145	0.008263019076984787	0.005047138283324311	0.0002026665890664757
2
110200
Ar	0.0004473634512321417	0.00016048936868152096	0.0031735866339080644	0.008819798985429282	-0.024299017249698386	-4.9081454577555576e-05
Xe	-2.550604530425544e-07	0.00017926092487636957	0.002802707390187633	0.009586812780261843	7.578716144497692e-05	4.517229909369579e-05
2
110400
Ar	0.00046777009699458283	-9.380650754726352e-05	0.0031737646853604393	-0.004817284510789098	-0.025315357702457436	7.165760907197418e-05
Xe	9.08242802896193e-05	0.0001543795852177397	0.0028024485755249514	0.008187698409900704	-0.004921676216825168	-7.220160993203531e-05
2
110600
Ar	0.0003552346360547526	-0.0003216630165792003	0.0031746421590020694	-0.017136114515514122	-0.019123483594346492	9.688064830762802e-05
Xe	0.0001558187198933992	8.57722612842538e-05	0.0028014555472731235	0.004498565963246634	-0.0084769874017514	-0.00010477570341722183
2
110800
Ar	0.00014120819879109812	-0.00045772998523010495	0.0031756899985660968	-0.02461232684301581	-0.007419057685872393	9.550732662389868e-05
Xe	0.00017631460913834584	-7.370868834460971e-06	0.0028003663695604394	-0.0005063606427981374	-0.00967999646763935	-0.00011847103652168955
2
111000
Ar	-0.00011317068810471373	-0.00046307615539431085	0.003176501409292321	-0.025032375164961804	0.006360309573900431	7.705025534926695e-05
Xe	0.00014647379601419859	-9.84592627973163e-05	0.002799445797058004	-0.005318898729942742	-0.008077619826472437	-0.00010460212043096826
2
111200
Ar	-0.00033528223886949293	-0.0003367640460410302	0.003177245189079744	-0.01829994288952857	0.01832941643184804	6.220069550656354e-05
Xe	7.506096000572336e-05	-0.00016119123726354782	0.0027986249343248297	-0.008612655260868608	-0.004179032772469536	-5.2858817878713954e-05
2
111400
Ar	-0.000461467958526029	-0.00011402840022093713	0.0031771850510037667	-0.00632697254722391	0.025116040086424055	-9.598253702910369e-05
Xe	-1.7680263102822366e-05	-0.00017796910167712992	0.0027985246685981843	-0.009495488038062515	0.0008969174505994004	1.1436799710711176e-05
2
111600
Ar	-0.00045555841566277504	0.00014097718572676375	0.0031756133795551676	0.007459696443766995	0.024663578118188617	-0.00020345069018521775
Xe	-0.00010578200664671317	-0.00014377120709804613	0.0027991159609169355	-0.007695815503161137	0.005747888218044139	0.00010084471487476088
2
111800
Ar	-0.0003195253114006995	0.0003555531422132099	0.0031734924980536643	0.01907667808828976	0.01722218709439013	-0.00018174906447121432
Xe	-0.00016365751945926954	-6.829704515395877e-05	0.00280027577099065	-0.003613818919717115	0.008952757882043848	0.00013820051774325498
2
112000
Ar	-9.221827045655722e-05	0.00046878657360393145	0.0031721533335245947	0.02527521508822256	0.00488408649900466	-4.930943456976774e-05
Xe	-0.0001747918732074632	2.6607634693667904e-05	0.0028015295277097553	0.0014341727221550658	0.009572792165698823	0.0001034945984869617
2
112200
Ar	0.00016165228100233046	0.00044863376108970134	0.0031725230867174414	0.02424989202351297	-0.008813564681200191	0.00012161951174324227
Xe	-0.00013642133153700595	0.00011358065193921849	0.002801953621377789	0.00605503202579263	0.0074221974665019735	-8.27652013319903e-06
2
112400
Ar	0.0003696106231314035	0.0003010716840842107	0.0031744500926510957	0.016320414534266123	-0.020011122613587694	0.00026603239333703295
Xe	-5.926851704804374e-05	0.00016812248014471285	0.002801394705429728	0.00899112651131162	0.003203846468973297	-7.66824902907214e-05
2
112600
Ar	0.00047222953205659746	6.752050457219975e-05	0.003176849970742497	0.0037002329204645903	-0.02554644924922943	0.00018792089249494072
Xe	3.466107143298505e-05	0.00017490925319382135	0.00280015055631626	0.009352054483015414	-0.0018907908638003202	-0.00014566292522772198
2
112800
Ar	0.0004398381520916393	-0.00018525355605196532	0.003177989493456102	-0.010003779664893483	-0.023755640955107724	2.4220529290072906e-05
Xe	0.0001189909980054472	0.00013208079603630515	0.0027989716805055585	0.007070641046088361	-0.006475919366133011	-0.00010695953550802971
2
113000
Ar	0.0002817343892219798	-0.00038464407966955206	0.003177061828216826	-0.020830758108097255	-0.015156652165866166	-0.00016608443736883027
Xe	0.000169524434176849	5.152819156630052e-05	0.002798539337696729	0.002785247886508104	-0.009272522989731531	-6.864465256410516e-06
2
113200
Ar	4.331134877720839e-05	-0.0004740618288717303	0.003175195121310037	-0.025679214204112844	-0.0022940590628106445	-0.0001773364750478689
Xe	0.0001715758173903835	-4.422163500642809e-05	0.0027989803639710802	-0.002361644541655594	-0.009393408743204252	6.588851540281215e-05
2
113400
Ar	-0.00020735169253691363	-0.00042829532878922423	0.0031736246044211025	-0.023240462370109984	0.011234879488105205	-0.00010920769729279711
Xe	0.00012477500171588363	-0.0001274699167299321	0.0028000158500668913	-0.006806195818103024	-0.006833933262746899	0.00010155492845009182
2
113600
Ar	-0.0003991794881133478	-0.0002604190598290551	0.0031731896787656443	-0.014186260935831472	0.021549354624979738	1.32749334026952e-05
Xe	4.20778486478558e-05	-0.00017414397445057454	0.0028006690983329438	-0.009330390184158273	-0.002275665466263566	4.484731949191253e-05
2
113800
Ar	-0.0004770929693809536	-1.830366620198912e-05	0.003173986355354545	-0.0010191263885505123	0.02572203894799096	0.00010151549716244987
Xe	-5.288552267895186e-05	-0.00017098935725371164	0.0028011354141601135	-0.00920210245592766	0.002890410606442478	3.5726886645097155e-05
2
114000
Ar	-0.0004189271382222001	0.00022930280781775103	0.0031751322479671236	0.012367537005965788	0.02256203910742008	0.0001202652762731622
Xe	-0.0001329461823939558	-0.00011891071259030997	0.002801328570885104	-0.006410370010132901	0.007284832030831036	-6.441800795260891e-06
2
114200
Ar	-0.00024137616503653775	0.0004113048666004064	0.0031762032199862647	0.022264263723466782	0.012952972618212611	6.867794486596773e-05
Xe	-0.0001749467265237044	-3.2577485587401896e-05	0.002800977453895829	-0.0018012742283492174	0.009578319219913778	-3.627974159374853e-05
2
114400
Ar	5.133095288504035e-06	0.00047596567367088607	0.0031765000519325993	0.025825125708205717	-0.00033949975062042703	-6.214979844927251e-06
Xe	-0.00016690764591977857	6.324198115184465e-05	0.0028004321192621026	0.0033675715772762895	0.009112950410196576	-5.192238462019075e-05
2
114600
Ar	0.000250182173315988	0.00040479010528287116	0.0031761719640607637	0.02200274816549481	-0.01353451750481343	-4.2060712620046754e-05
Xe	-0.00011089234525378758	0.0001407028641067194	0.0028000659510084413	0.007573328020864166	0.0060311377192629415	-1.813488268306145e-05
2
114800
Ar	0.00042368804234111073	0.00021813432599067478	0.0031756692548834866	0.01185699187469619	-0.02290957263366459	-6.261208473286439e-05
Xe	-2.2958994805875262e-05	0.00017802653150525498	0.002799680963968416	0.009589151394332337	0.0012674581225447827	-3.897860032166579e-05
2
115000
Ar	0.0004758921055213579	-3.0964789708229714e-05	0.003174673523309054	-0.0016477056108103714	-0.025701839369555897	-0.00010493953342641107
Xe	7.14778395193229e-05	0.00016467997458280092	0.0027997157122496823	0.008845029202627195	-0.003868441967706464	2.8086607668495575e-05
2
115200
Ar	0.00039244315881049776	-0.0002710954331342253	0.003174026903307518	-0.014637077844482043	-0.02114167655662422	-2.7179931251586853e-05
Xe	0.00014549543178661042	0.00010458871234138805	0.002800303835872267	0.005606201022259545	-0.007845809886545175	9.238780802222894e-05
2
115400
Ar	0.00019686208457177668	-0.00043356793339635954	0.0031739224866113025	-0.023505612379703795	-0.010563365035334086	1.935372185253756e-05
Xe	0.0001779892147925109	1.5012848464105541e-05	0.002801058010609918	0.0007549915432729968	-0.009627902333704795	6.793822028995101e-05
2
115600
Ar	-5.473462818809373e-05	-0.0004722748044658373	0.0031744614086690634	-0.025606847890900036	0.0029952590278904	0.00010822876091921481
Xe	0.00015986067333052665	-7.870698909212053e-05	0.0028015624971918875	-0.004294288691866697	-0.008686682530619473	1.305565078373993e-05
2
115800
Ar	-0.000290715366908067	-0.000376604374606266	0.0031757541894990022	-0.0204563271328884	0.015704874216694434	0.00013766769813923
Xe	9.631101593078591e-05	-0.0001502469842309952	0.0028013967179653324	-0.00811031180973017	-0.005276276102636054	-4.131983475220616e-05
2
116000
Ar	-0.000444018874761679	-0.00017328898485523928	0.003176817643219958	-0.009474871925342304	0.023961203083058928	4.497843487899787e-05
Xe	5.234723206477388e-06	-0.00017920108119770322	0.002800664933732017	-0.009656827683090797	-0.00037217624234751813	-8.164521862044672e-05
2
116200
Ar	-0.00047070156413766905	7.937318937248266e-05	0.0031768107659948214	0.0042624902722607425	0.02535224149245953	-7.230516798476528e-05
Xe	-8.767267116763172e-05	-0.00015690458526556556	0.002799805003141396	-0.008459625179930125	0.004705436106544841	-7.117796433261818e-05
2
116400
Ar	-0.0003628386932985444	0.00030931230775963875	0.0031755354012243217	0.01679821106535693	0.01949635344302125	-0.000161341870887287
Xe	-0.00015567036187814012	-8.9645435702601e-05	0.0027993704326749647	-0.00478453503811226	0.008408185126034364	9.07389019167539e-06
2
116600
Ar	-0.0001509305965026822	0.0004506460713657016	0.0031738481393762414	0.024513261486238523	0.008096402581225109	-0.00013626931679467316
Xe	-0.0001790278879347049	3.136394909335019e-06	0.002799520920356561	0.00021186735787642115	0.009694186710398955	4.1296915503561936e-05
2
116800
Ar	0.00010417024045086695	0.0004635840454277049	0.003172925266773631	0.025249963524345085	-0.0055857588878716205	-3.467471274985919e-05
Xe	-0.00015149138170917595	9.50767119416909e-05	0.0028003600513056472	0.005185977662822545	0.008252428540740424	9.800900695277106e-05
2
117000
Ar	0.0003297906161182877	0.0003442482426587594	0.0031735374793365368	0.018771205939284847	-0.017687033221427312	0.00014208445841712824
Xe	-8.059353602428151e-05	0.00015984997738429225	0.0028013482356448165	0.00865766561425728	0.004400707755363889	7.245188064090407e-05
2
117200
Ar	0.0004614335782168171	0.00012670500713473504	0.00317525986198726	0.006913062043477537	-0.024755886084128608	0.00017726858900393589
Xe	1.3050583017993303e-05	0.00017889048848422878	0.002801646488974058	0.009603693153352055	-0.0006819911209049364	-1.4953952345436058e-06
2
117400
Ar	0.0004611570104068342	-0.00012714053950047	0.0031768836178871196	-0.006956071344586329	-0.02477522786114339	0.00011980935175220629
Xe	0.00010244369435578608	0.00014676228531469493	0.00280139463653855	0.007842247002812722	-0.005603180951682113	-3.4215715862759563e-05
2
117600
Ar	0.0003291694824471953	-0.0003449000052779657	0.0031774111515436754	-0.01879910048308323	-0.01770571789149529	-3.2645379475143884e-05
Xe	0.0001626573423796796	7.258889694540905e-05	0.0028008007430313083	0.0038922127004619774	-0.008877311706392839	-7.500355199850132e-05
2
117800
Ar	0.0001032457965741068	-0.00046425472342591975	0.0031765155178744764	-0.025277306467919054	-0.0055812257480444835	-0.00016369884073053737
Xe	0.0001765171525678611	-2.2404442664282265e-05	0.0027998390802401866	-0.0011939948996705643	-0.00964959775191141	-9.863189037952728e-05
2
118000
Ar	-0.0001522351444346708	-0.00045075596901098615	0.0031745351539427752	-0.02458914804563484	0.008201866411174331	-0.00021906382364587505
Xe	0.000140018309071876	-0.00011117866249530095	0.002799091419154054	-0.005942859390339571	-0.007691717059245909	-4.842191706368185e-05
2
118200
Ar	-0.0003646802888087464	-0.0003081969715626388	0.0031729114612763804	-0.01683977081404985	0.019603486169618572	-8.628453009423466e-05
Xe	6.333916623406223e-05	-0.00016852947160908026	0.002799211708281403	-0.00901481153010883	-0.003487701763021326	3.154682914250373e-05
2
118400
Ar	-0.00047275629563354305	-7.735598344437228e-05	0.0031727674825980665	-0.0042635046925160736	0.025437373207682412	5.6330755767662595e-05
Xe	-3.130280721995795e-05	-0.00017778775237447844	0.002799838537382086	-0.009449760495427667	0.0016932361312712297	9.548823756716279e-05
2
118600
Ar	-0.00044581315504500335	0.00017594420864241948	0.003173861780320268	0.00951090889990323	0.023977988822051283	0.00012973849495483256
Xe	-0.00011672959841557423	-0.0001362958884703041	0.0028009270486113054	-0.00722367600124461	0.006375319387115214	0.00010402205020652972
2
118800
Ar	-0.0002914783476837205	0.00037904109905091725	0.0031751836091864706	0.020576473915683662	0.015641751292980576	0.00011220875900212448
Xe	-0.00016861746492370885	-5.630177271032368e-05	0.0028019701605554235	-0.0029098925319682558	0.009228717667454828	7.928374328892258e-05
2
119000
Ar	-5.390571150901005e-05	0.0004738091631597817	0.0031760363204459013	0.02576505756302435	0.0028582385314902202	4.319234433712364e-05
Xe	-0.00017217423018666322	3.9701521466840234e-05	0.0028023144285744227	0.0022118815050013686	0.009520668147016057	-1.2354253760086062e-05
2
119200
Ar	0.0001988255784136123	0.00043358972830388157	0.003176258072665878	0.02354943996380802	-0.010717554178124006	-2.7452280662754506e-05
Xe	-0.00012665268136506847	0.0001244865610770956	0.002801807172982311	0.006691901485962634	0.007051485249857205	-0.00010426560899469628
2
119400
Ar	0.0003947655667364054	0.0002699195154488648	0.0031755953424138046	0.014672098762124367	-0.02124614129051855	-6.86323883874106e-05
Xe	-4.4792100995042686e-05	0.00017398621117062656	0.002800505119041838	0.009268500283925288	0.002596973484610721	-0.00014899919373625883
2
119600
Ar	0.0004779467999402664	2.9255349256357545e-05	0.003174825538178958	0.0015453411211778444	-0.025721222444206385	-7.510025311860731e-05
Xe	5.029124587744571e-05	0.0001738217490811906	0.0027991865006489307	0.009276514298050702	-0.002616936848382472	-8.943767889374109e-05
2
119800
Ar	0.0004241711289706812	-0.00021972288219964498	0.0031741973399923786	-0.01203240588176662	-0.02285293276358016	-5.761557888278361e-05
Xe	0.00013142625514170957	0.0001241536008329116	0.0027986547626555665	0.006557778544943086	-0.0070837394981046395	1.5398850609516695e-05
2
120000
Ar	0.0002490070568548294	-0.00040614016232036097	0.003173465768751854	-0.02212868681543675	-0.013508588254629014	-5.144016566436054e-05
Xe	0.00017491909975504366	3.884751019217974e-05	0.0027996020291277293	0.0019186938952991282	-0.009526767393013596	0.00013876810980811098
2
120200
Ar	2.870520813092987e-06	-0.0004767147462379442	0.0031734234928036853	-0.025879709099880712	-0.00025638681855529553	2.84499295341421e-05
Xe	0.00016828497436058716	-5.7110814770248645e-05	0.002801190633940314	-0.0032175824035061517	-0.00919792676852283	0.0001669985517802069
2
120400
Ar	-0.00024366965143223938	-0.0004112402030952146	0.003174307091423241	-0.022233903622919788	0.01302645600896373	0.0001088731869818708
Xe	0.00011386062811036477	-0.00013635595432129994	0.0028026662523014975	-0.007408327318321665	-0.006267309235034883	0.00010963856124941318
2
120600
Ar	-0.00042074072836630446	-0.00022838795502233086	0.0031754533577624876	-0.012304044886660665	0.022669566048674275	9.90500851919668e-05
Xe	2.705886963984003e-05	-0.0001763448597493465	0.0028032167346959997	-0.009525824749287336	-0.0015420036841659634	-1.9730942492245787e-05
2
120800
Ar	-0.00047794649366738733	1.9916888127905932e-05	0.0031762098170758477	0.0011540448108388853	0.02578778617399421	4.471378033774056e-05
Xe	-6.712237346087186e-05	-0.00016555609714620105	0.002802628625439513	-0.008858260300357008	0.00361716108522776	-0.0001056948428216956
2
121000
Ar	-0.0003988850188046737	0.0002624928691553483	0.003176118606918731	0.01427940387014086	0.02154562417594566	-4.334988071699898e-05
Xe	-0.00014186745292266522	-0.00010757535548095478	0.0028013869718508436	-0.0057358648735816135	0.007683929130322845	-0.00012244135820002266
2
121200
Ar	-0.00020613415819570706	0.00043020570949451887	0.003175472471371624	0.023352613365178902	0.011159968765418232	-8.304373598655594e-05
Xe	-0.00017634835772851472	-1.9109770576956268e-05	0.0028001088546727114	-0.0009952767842814686	0.009563559012416964	-0.00012321373472138738
2
121400
Ar	4.551726992907755e-05	0.0004748324930595813	0.003174888760976902	0.025741546221461586	-0.002466840414222695	-5.3678241296288184e-05
Xe	-0.00016047282710132403	7.491265518748007e-05	0.0027992570604291724	0.00409697775333612	0.008771413939042409	-6.235343894081739e-05
2
121600
Ar	0.00028397513493520445	0.0003834883817785904	0.0031745362493595677	0.020771947584818765	-0.015359136578288603	-1.6472294618677342e-05
Xe	-9.87612540353197e-05	0.00014785276723630915	0.0027989287616309983	0.00797394764913777	0.005457698749222263	1.9893787135250433e-05
2
121800
Ar	0.00044094059002328253	0.00018243333339468018	0.0031744024222400535	0.00987713414063539	-0.0238706480997153	-1.4726044662142848e-05
Xe	-8.67646768921615e-06	0.00017879928556994916	0.002799598806264785	0.009586937733871075	0.0005706164818884379	9.652486369435833e-05
2
122000
Ar	0.0004716821255793718	-7.087479938801562e-05	0.0031743745031261564	-0.0038572770845645226	-0.02556663633423194	1.4590423339038477e-05
Xe	8.386095187276187e-05	0.00015853072807378056	0.0028005881673905044	0.008464743039523069	-0.0045197361911496915	9.492789143120269e-05
2
122200
Ar	0.0003674800112777617	-0.0003040757511474485	0.0031749900172403016	-0.0164627837824157	-0.019944574194023346	7.311954124619814e-05
Xe	0.00015250425148071787	9.291148467251598e-05	0.002801321063229739	0.004911066467888329	-0.008279008445639833	6.644044703754463e-05
2
122400
Ar	0.0001585331404618575	-0.0004505671407366482	0.003175630061073992	-0.024312661545555118	-0.008599420651175305	3.969962510711382e-05
Xe	0.00017757432775401312	1.0039819815766111e-06	0.0028016676254672894	2.2632639924659543e-06	-0.009656303454898284	1.865422120055641e-06
2
122600
Ar	-9.558569095388782e-05	-0.000468118172378784	0.0031756574453347345	-0.02525403717240675	0.005186939528257889	-1.1058583232050388e-05
Xe	0.0001521373323875012	-9.097984838059479e-05	0.002801522182096463	-0.004961425399890842	-0.008275519071491811	-4.93107216797316e-05
2
122800
Ar	-0.0003224931622711489	-0.000351939629618629	0.003175384305465135	-0.01900407790844579	0.01748927793907673	-2.9585916304877927e-05
Xe	8.313520898691186e-05	-0.00015670726872420306	0.002800670815367464	-0.008492759346540384	-0.004562781273191062	-0.000105670040080296
2
123000
Ar	-0.0004571362220533964	-0.00013515087750949685	0.003175136855360181	-0.007293640016144789	0.0247913219131697	-2.975440151595295e-05
Xe	-9.512017412667013e-06	-0.00017774796180767248	0.00279938437528839	-0.009588808159179613	0.0004388576691411719	-0.00014269045725420139
2
123200
Ar	-0.0004615576091404238	0.0001199162111735338	0.003174636813007784	0.006434428171674068	0.024977008207770546	-5.5745821963188366e-05
Xe	-9.949202929511779e-05	-0.00014818432979714702	0.0027986287686245694	-0.007971622106555812	0.005326874452863215	-2.5044542891613523e-05
2
123400
Ar	-0.0003343369113107354	0.00034064969356788015	0.0031743507583501334	0.018359300949070272	0.018102785845673902	-1.7864178823897798e-05
Xe	-0.00016120812286237054	-7.618009689608552e-05	0.0027986963782705853	-0.004074212901399978	0.008709878055506022	6.598119222596504e-05
2
123600
Ar	-0.00011188374858217156	0.0004641514723818664	0.00317431319633535	0.02503528655885056	0.006009334379645359	1.6182968804367176e-05
Xe	-0.0001770396429060689	1.7593088657663716e-05	0.0027998126411654467	0.0010116360732361704	0.009591132585927978	0.0001318177910068719
2
123800
Ar	0.00014227979007765918	0.00045509440330237025	0.0031745707760383645	0.024559473177687377	-0.007771212239942621	4.073952464162419e-05
Xe	-0.00014213486531134662	0.00010594629444932608	0.0028009726617194103	0.005793972402283976	0.007659527773146803	0.00012567108575831028
2
124000
Ar	0.0003558400851821158	0.0003163685740434231	0.0031749864752377574	0.01709985298370408	-0.01928222987976001	6.419820692911738e-05
Xe	-6.669137267460266e-05	0.00016385613635994112	0.002802151902228656	0.0089138628613519	0.003635597181759485	7.699859520482705e-05
2
124200
Ar	0.0004681941680524102	8.783074167651101e-05	0.003175792507033783	0.004798826888026212	-0.025331096087721595	5.400636967980306e-05
Xe	2.7440965792657943e-05	0.000175092891156384	0.0028024533813583627	0.009448095049344626	-0.0014356507654913057	-1.1103844616315154e-05
2
124400
Ar	0.0004473029577192528	-0.00016583683976684882	0.003176052308318822	-0.00889639226541785	-0.024141783225759546	-5.037608910837614e-06
Xe	0.000113212695086507	0.00013664451515196663	0.002801997430713241	0.007295799716124616	-0.0060692369659491865	-8.184000117162996e-05
2
124600
Ar	0.0002987737197613339	-0.00037187332734763267	0.0031756638025099504	-0.020104326006864726	-0.016075058184737128	-7.880415933107812e-05
Xe	0.0001667024528159871	5.951824483461857e-05	0.002800812606307908	0.003140056066686102	-0.008995199533211732	-0.00014600388154847318
2
124800
Ar	6.500686650201778e-05	-0.00047158274621461377	0.0031745070114439357	-0.025528995679860503	-0.003391063014463125	-0.00013908670565186175
Xe	0.00017270390191052355	-3.488399300052006e-05	0.0027995170511436857	-0.00196857826261585	-0.009407484295408811	-0.0001075443204202271
2
125000
Ar	-0.00018720682805056324	-0.00043634759583720115	0.003173638744402292	-0.023715549305753803	0.01024628590075263	-3.204803483183723e-05
Xe	0.00012955926291708959	-0.00011945191705583557	0.0027987693241822323	-0.00647250474624865	-0.007096955322243547	-7.378754750334971e-05
2
125200
Ar	-0.0003864570878539195	-0.00027643442441745636	0.0031738039726342073	-0.015142280741896542	0.02094243177853557	6.617003570271768e-05
Xe	4.9466248555608845e-05	-0.00017002713570072562	0.002798309990042366	-0.009148376124140241	-0.002767591199882675	1.0412947647420629e-06
2
125400
Ar	-0.00047525450032364307	-3.757207387242675e-05	0.0031749857449644464	-0.0022121233343825163	0.025656264575484332	0.00014687112635302507
Xe	-4.4851217767200006e-05	-0.00017232452549358225	0.0027989478823650725	-0.009245064694292036	0.0023318588606655788	0.00010284143893392721
2
125600
Ar	-0.00042826110358217976	0.00021211380787497308	0.0031760639903420248	0.011386728764910037	0.0230523602850904	7.985963732113206e-05
Xe	-0.0001267409787172921	-0.00012528970752882505	0.0028001625579356067	-0.0067488945177527895	0.006814231065697766	0.0001108795530754966
2
125800
Ar	-0.00025855896913494296	0.0004009525539901954	0.0031762879584796943	0.021714195766482734	0.013804911915870098	-3.1667381970802786e-05
Xe	-0.0001728260103769825	-4.215689805448731e-05	0.0028014750372748354	-0.00223688964484022	0.009408227752049343	0.00013123721976291528
2
126000
Ar	-1.4972463097616881e-05	0.00047545869798775933	0.003175730347493181	0.02582028480491762	0.0007159511300518477	-7.698405746059244e-05
Xe	-0.00016939785499298508	5.337774891665594e-05	0.0028026269902121813	0.0029004896767122887	0.009227168217553287	8.218399460077203e-05
2
126200
Ar	0.0002329903825895804	0.00041470438794782486	0.0031750499706969465	0.022575393052237314	-0.012571041168912778	-5.541071543480978e-05
Xe	-0.00011757480412769574	0.00013349707259291196	0.0028026565194197	0.0071876731910275014	0.006414911648448415	-6.312081852396969e-05
2
126400
Ar	0.00041453236992723474	0.00023648813620651504	0.0031746613700586223	0.012861553226424127	-0.02223700008571107	-2.7039233095962765e-05
Xe	-3.2612968249309965e-05	0.00017523551428344752	0.0028017375547106206	0.009374461816328913	0.0017396051804503992	-9.909751228721001e-05
2
126600
Ar	0.00047764659552721427	-8.959311574858035e-06	0.003174349835974982	-0.0005451782050139582	-0.025652968534809962	-4.31850925931485e-06
Xe	6.123082339225536e-05	0.000166700502104239	0.0028005245269069577	0.008928479437390538	-0.003397063949570413	-0.000130108067272245
2
126800
Ar	0.00040440609881020595	-0.00025170054944556326	0.0031743094941649843	-0.013732475986886657	-0.02173118044381318	-4.478694377982927e-06
Xe	0.00013743373619052272	0.00011019882536371301	0.002799187325135119	0.0059461356502491704	-0.007638567819534576	-0.00013121565383702544
2
127000
Ar	0.00021598936467285128	-0.0004226969658084259	0.0031744989897978223	-0.023027087554546088	-0.011612744156616861	5.26939539201844e-05
Xe	0.00017454735228614852	2.184111494041456e-05	0.0027980991451874745	0.001314753718254929	-0.009613989262176836	-5.56908814194108e-05
2
127200
Ar	-3.408421282378733e-05	-0.0004731641467414959	0.003175355901968201	-0.02576562860548738	0.0017783613038643367	0.00010196750934561687
Xe	0.0001620072142234776	-7.283394378989819e-05	0.0027978222904252946	-0.0037654756491875747	-0.008846339324435033	7.208893733265141e-06
2
127400
Ar	-0.00027450684436042396	-0.00038850547603986864	0.0031765389205792864	-0.021149231965345232	0.01474089327137657	0.00010439951535849233
Xe	0.00010277701287576944	-0.00014674830847753555	0.0027983967738252156	-0.007782321454095055	-0.005570127902145429	0.00010742411242375163
2
127600
Ar	-0.00043661679720662935	-0.00019248400916030466	0.0031770967953367764	-0.010478467117339286	0.023495430979708288	-1.3602928156574457e-05
Xe	1.3864204108104073e-05	-0.00017902002853917079	0.0027997760763647673	-0.009554600162772913	-0.0007471011905286275	0.00017333301994126437
2
127800
Ar	-0.00047375171027151425	5.870857163075414e-05	0.0031761743503705333	0.0032424224938940927	0.025527111674480813	-0.0001601186910204132
Xe	-7.915236154256556e-05	-0.0001606499399050003	0.002801638964301117	-0.008584507430520536	0.0043563894861779005	0.00020586473349451523
2
128000
Ar	-0.0003751738922322062	0.00029350236615503447	0.0031742132421741973	0.015949466117754264	0.02026758122950426	-0.0002216386970563348
Xe	-0.00014980373185839268	-9.613467527287357e-05	0.002803192779085574	-0.005174324497239926	0.008208937590709	8.453522879474433e-05
2
128200
Ar	-0.00016992284982270307	0.0004444306458353534	0.0031728292243779583	0.024099952765591532	0.009204818181119446	-4.551819114533905e-05
Xe	-0.00017763681581897886	-4.083054362241136e-06	0.0028032208586485394	-0.00027199484307012143	0.009731526211750772	-7.487798104486102e-05
2
128400
Ar	8.395810794588916e-05	0.00046880955732741625	0.003173092867960814	0.025408662692574295	-0.004448028031483683	0.00010652827623881665
Xe	-0.00015489122615680248	8.872327690537302e-05	0.002801873355902284	0.004682723492726941	0.008383080318281132	-0.00017052304921056212
2
128600
Ar	0.0003140103596720032	0.0003594356059998053	0.0031745953114970926	0.01943571887561115	-0.016898084340707477	0.00016775497050247436
Xe	-8.816698024294836e-05	0.00015546912444141026	0.0027999185147119326	0.008335636367583447	0.004656844601505512	-0.00021095150398949388
2
128800
Ar	0.000453991049579321	0.00014707397793661394	0.003176112123503886	0.007873452796018534	-0.02451402515728697	0.00013045608572870786
Xe	4.027036045796494e-06	0.0001775852992669423	0.0027981024304531915	0.009653941252136734	-0.0003504053741381458	-0.00013081414659806654
2
129000
Ar	0.0004640078545824477	-0.0001068685983819835	0.0031768546892585016	-0.005942977786831965	-0.025038794942179875	4.052488811406923e-06
Xe	9.568221658679851e-05	0.000148785227841444	0.002797881567062403	0.008221640840025168	-0.00526799819969989	8.410773255538271e-05
2
129200
Ar	0.00034115204331081777	-0.000329675944045695	0.0031762075710213226	-0.018034850675199544	-0.018460330738492646	-7.761194614051153e-05
Xe	0.00016040611804486843	7.718043933506143e-05	0.0027990577481418586	0.004400201093468883	-0.008697533367075757	0.00015548426501241905
2
129400
Ar	0.00012063126462641754	-0.0004587489528547672	0.003175507387383539	-0.02497932227239928	-0.006719293508615713	-7.672827703538983e-05
Xe	0.00017939055158791475	-1.6746939699386523e-05	0.0028005844403512473	-0.0007152301415940287	-0.009631044362250117	0.00013852674974630986
2
129600
Ar	-0.00013469502071504437	-0.00045746789659389286	0.003174897213796113	-0.024821783525787983	0.006973227400387693	-4.797196406950752e-05
Xe	0.00014680083588105582	-0.00010590336858528911	0.002801990593287951	-0.005643530714084442	-0.007773465165719173	0.0001523145185406728
2
129800
Ar	-0.000351859844310755	-0.0003256610354775956	0.003174428398910113	-0.0175320468432605	0.018719479096182434	-3.001834723705019e-05
Xe	7.222802042953775e-05	-0.00016476698157996144	0.0028029862925722944	-0.008882638810979194	-0.0037200376537621436	6.155167132864469e-05
2
130000
Ar	-0.00046858423309783766	-0.00010094960921276914	0.0031742096413151706	-0.0052497270158586235	0.02509638762902985	7.880124309106873e-06
Xe	-2.231265935168975e-05	-0.00017669503914316146	0.0028030377197082665	-0.009566049354406045	0.0013932367922317565	-3.811368595739331e-05
2
130200
Ar	-0.0004515543110751419	0.00015243007055427429	0.0031743727099595824	0.00854228627302591	0.024319350750946135	3.554544682510083e-05
Xe	-0.00010978295445954927	-0.0001381987221936066	0.002802248143741544	-0.0075281125965571604	0.00609594330813767	-0.0001462241172875363
2
130400
Ar	-0.00030592996765983196	0.0003622380277254316	0.0031748805234677485	0.0198434607912295	0.01663792748100728	9.314517787682575e-05
Xe	-0.00016573745244609196	-6.0819270967195935e-05	0.002800388772183281	-0.0033668341086998065	0.009015483505569048	-0.000216364369786417
2
130600
Ar	-7.35126655464249e-05	0.0004690922937865796	0.0031761152412589917	0.025499233273035944	0.004196448060491253	0.00013221248803688845
Xe	-0.0001742245419914276	3.381487922477603e-05	0.0027987599870242102	0.0017336581133983715	0.009457289751158114	-0.00012931861770864534
2
130800
Ar	0.00017942904504759764	0.00044193112362264745	0.003176969192232495	0.02385645337743755	-0.009498815414588819	2.6664191068073378e-05
Xe	-0.0001328361839752357	0.00011907345127166879	0.002797906038696927	0.006343078802806629	0.00718335461143689	-3.489329858265491e-05
2
131000
Ar	0.00038069725622497585	0.00028827936705593584	0.0031764862395201906	0.015416888883524198	-0.020452841629614853	-8.661434160619576e-05
Xe	-5.318199445743033e-05	0.00017075949658021907	0.002798326652312708	0.009185796960993826	0.002890625261123147	0.0001181498892057584
2
131200
Ar	0.0004731255835257645	5.2084338057542535e-05	0.0031752297420316257	0.0026087617713113024	-0.025610812140129224	-0.00013653607075603293
Xe	4.195022641753065e-05	0.0001740516829941876	0.0027998137753647823	0.00939198712997545	-0.002254095846002682	0.0001897706427909191
2
131400
Ar	0.0004306623120426216	-0.00019919203626384674	0.003174155110444674	-0.010880508601058448	-0.023448914425788416	-0.00010588919033055195
Xe	0.00012543264689617655	0.00012792856682548555	0.0028015740834775467	0.00687445576992241	-0.006743239467027892	0.00013963481582576716
2
131600
Ar	0.00026579005751900216	-0.0003941365487494245	0.0031737767588061465	-0.02130271989669157	-0.014584117380852218	5.3964544812871055e-06
Xe	0.00017305206860283935	4.541137437725972e-05	0.0028023127059089554	0.0024241016154194824	-0.009328673491581563	2.1780903818020597e-05
2
131800
Ar	2.5105176576002624e-05	-0.0004770880225776904	0.0031743718367175325	-0.025658870081665505	-0.001556488030086428	9.9399610232966e-05
Xe	0.000171435563283818	-4.9792170324592226e-05	0.0028020561267821757	-0.0027495938999713802	-0.009254971219483309	-4.834231072807034e-05
2
132000
Ar	-0.00022283360348486101	-0.0004236835473100768	0.003175583857450132	-0.02270464382097709	0.011964476191774995	0.00011691948325742141
Xe	0.00012102170244078848	-0.00013037441530848869	0.0028012253602747316	-0.0070890709301558	-0.006492983531728555	-0.00010398536517805178
2
132200
Ar	-0.00040702661005481537	-0.0002493923294247844	0.0031764128373692694	-0.013224424475799877	0.022043977174160918	2.668807269305841e-05
Xe	3.6098328293886466e-05	-0.00017362859691220624	0.0028000756675119836	-0.009488332549186467	-0.0019572558133931356	-0.00010505984799474982
2
132400
Ar	-0.0004750758516767748	-4.03608812949178e-06	0.003176301241298166	-2.916246375237666e-05	0.02581495790394769	-5.226451078801692e-05
Xe	-5.928338030084636e-05	-0.00016749007576646492	0.0027993377136573015	-0.00912956842612824	0.003147561984931834	-4.038096664583613e-05
2
132600
Ar	-0.00040751360231690905	0.00024225365684258474	0.0031757389893020222	0.01319931788420038	0.022233330136926143	-4.252139615983422e-05
Xe	-0.0001376834493137148	-0.00011350013240696791	0.002799207034962904	-0.0061763398305264595	0.007368792648963598	1.2589057704682118e-05
2
132800
Ar	-0.0002237108233333043	0.00041924467782142213	0.0031753787869243095	0.022659144710793562	0.012283629576114693	-2.922262514541162e-05
Xe	-0.0001767011272023193	-2.7275542564991225e-05	0.0027997155222853243	-0.0014344058377667277	0.009479827815139247	9.039525137402964e-05
2
133000
Ar	2.4037595596751924e-05	0.0004763391288962801	0.0031750168412697116	0.025655110719751958	-0.0011437745215905977	-4.693763658559857e-05
Xe	-0.00016539498102027724	6.668874789843918e-05	0.0028007047493516105	0.003644771599008071	0.008868744448757853	8.796138196542917e-05
2
133200
Ar	0.0002646856116435946	0.0003973663536300822	0.003174556981923297	0.021304397396834263	-0.014238757113967233	-4.570467683027143e-05
Xe	-0.00010714520707650806	0.00014166322562370834	0.0028015971576158907	0.007725701482187867	0.005747100017415296	7.882035625975643e-05
2
133400
Ar	0.0004299186317835725	0.0002052206029861984	0.003174563798070867	0.01091683806306848	-0.023250623941963096	3.6157926613546383e-05
Xe	-1.8418829906103473e-05	0.00017623418220225607	0.0028019822463747376	0.009576094466745448	0.0009743511107440424	2.087040089070241e-05
2
133600
Ar	0.00047265926302228717	-4.525298864929929e-05	0.003175159003104223	-0.002554923844782552	-0.02564306373463627	6.269838085612734e-05
Xe	7.544051801508975e-05	0.0001602751805684414	0.0028015296519798183	0.008720042249526988	-0.004073173885197898	-0.00012077725481587698
2
133800
Ar	0.0003809422577592985	-0.00028286590225132924	0.00317570834310508	-0.015334696802127923	-0.02068772964388975	5.112763842219143e-05
Xe	0.00014762429076365665	9.842832076902012e-05	0.002800097663501694	0.005364043501240126	-0.007981392660926167	-0.00014721170822383457
2
134000
Ar	0.00018069853380778213	-0.00043961530138908163	0.0031756690971507886	-0.023722810854309377	-0.009894800632762095	-4.577972037648121e-05
Xe	0.0001775924440188219	8.119342806097031e-06	0.002798572748327901	0.0005049343682353902	-0.009645551938633827	-0.0001349936318327778
2
134200
Ar	-7.101509055030212e-05	-0.0004710305289859749	0.003175097741122005	-0.025380883318665382	0.0037637080888311466	-6.859513882840036e-05
Xe	0.00015731477912356051	-8.496328189593168e-05	0.0027979419894466006	-0.004465767752513777	-0.00852288849101643	2.084419002463214e-05
2
134400
Ar	-0.000302231740394224	-0.00036823270874099994	0.003174487445411239	-0.019729968739287108	0.016316311074636006	-2.261397229173313e-05
Xe	9.224784736104387e-05	-0.0001541128991690223	0.0027987046360274997	-0.008210707243809134	-0.004991596350995167	0.0001377998534562834
2
134600
Ar	-0.0004469620057774985	-0.0001603754843037559	0.0031744171050006017	-0.008517071118306126	0.024247128341210285	1.4638996330172929e-05
Xe	1.087028410738809e-06	-0.0001794821532444618	0.0028004465870957187	-0.009592786514573924	4.1018273688687496e-05	0.00017997163416238958
2
134800
Ar	-0.0004645665331415252	9.3266716014265e-05	0.0031748352630198203	0.005103378388223293	0.02523757325494545	6.745559574990843e-05
Xe	-9.048541106970718e-05	-0.00015363488288606562	0.002801920332795934	-0.008284167522716405	0.005006414984163167	0.00011204763364893597
2
135000
Ar	-0.0003500096872535997	0.0003201640604753966	0.003175600895348233	0.017269766902418545	0.019037386860067305	7.172091841771724e-05
Xe	-0.00015640173079718242	-8.427214429635115e-05	0.0028025871800386824	-0.004562151357787107	0.008537920504468336	2.3277430347286463e-05
2
135200
Ar	-0.00013567702484791144	0.00045566686503942775	0.0031761715409815545	0.024546992292775238	0.007391257477632074	3.1003820107554554e-05
Xe	-0.0001775676010863844	8.957740664923798e-06	0.0028022872765627593	0.0004361793794297392	0.009637892752212256	-8.620516516441676e-05
2
135400
Ar	0.00011744032444077568	0.0004608715725155794	0.003176093563184391	0.02482798761466329	-0.00638578026074563	-4.9223087057805815e-05
Xe	-0.0001479190048677522	9.95754521817002e-05	0.0028008661847395673	0.005350510497453637	0.008035373287353879	-0.00015643704477736882
2
135600
Ar	0.00033711916361248487	0.00033422962373571197	0.003175284197146968	0.01802775487076611	-0.018318232460615702	-9.28277955087688e-05
Xe	-7.579669730630081e-05	0.00016209097865593712	0.0027992768808678746	0.008721435104824078	0.004167906908237115	-0.00012045205738823997
2
135800
Ar	0.0004609310400877356	0.00011223424412368674	0.003174507326608695	0.0060955782851745185	-0.024989662467542622	-4.123803193139961e-05
Xe	1.8143184557372073e-05	0.00017851323075181736	0.0027981656591418618	0.009577047553257256	-0.0009651117906233099	-6.750903867408164e-05
2
136000
Ar	0.000452930079987871	-0.00014181561421800222	0.003174467330831997	-0.007662939089663317	-0.024543551513419606	2.950833667212938e-05
Xe	0.00010661699185629548	0.00014369139529858284	0.0027981331945524626	0.007670293049158466	-0.0058239309055676996	5.8228180641342554e-05
2
136200
Ar	0.00031510761829661857	-0.00035515691885616593	0.0031748045564396576	-0.019207793794530085	-0.01705707187968609	4.780852855083938e-05
Xe	0.00016470866021466073	6.753223932051298e-05	0.0027992862616546036	0.0036486264076802622	-0.009020147289947905	0.00015056920711901652
2
136400
Ar	8.751569119460882e-05	-0.00046710340223901316	0.00317529393327856	-0.025207492300155808	-0.004775914874317731	4.3327505777873874e-05
Xe	0.00017600243680730403	-2.817554657500205e-05	0.0028010941501822703	-0.0014398051392639029	-0.009654727380941423	0.00017158962181294837
2
136600
Ar	-0.00016478650429690113	-0.0004460567661501965	0.0031755510853754493	-0.024047528351557886	0.00889266748847703	1.378277592770799e-05
Xe	0.00013708207587595026	-0.00011593555051165358	0.002802442930141152	-0.006136752251918476	-0.007459164680733314	9.954343286222248e-05
2
136800
Ar	-0.00037053964649052395	-0.00029779826390018875	0.003175534661820694	-0.016064459990752823	0.020025550319405276	-3.5859521050544954e-06
Xe	5.913761407296597e-05	-0.0001700885006347445	0.0028025266703535926	-0.009085659526016107	-0.0031076749312672885	-5.505002396945381e-05
2
137000
Ar	-0.00047081579901417944	-6.454124911735029e-05	0.0031754795362322398	-0.003517631647500042	0.025474820502134083	-2.854985174999861e-05
Xe	-3.562037616998384e-05	-0.00017520235476004643	0.00280143486652449	-0.009402945789577016	0.002113695101523705	-0.00013469301169609526
2
137200
Ar	-0.0004372423040854347	0.00018725928405848282	0.0031751393252943496	0.010067604173829875	0.023655798349388205	-1.9291784090753956e-05
Xe	-0.00012000150544300779	-0.00013007709791143055	0.002799913972954558	-0.007053934343507216	0.006697257001685694	-0.00016349780461059362
2
137400
Ar	-0.0002790863402495035	0.0003859704285279084	0.003174905237987862	0.020787620755404326	0.015081336972323865	-3.262907369916185e-05
Xe	-0.0001700512219578955	-4.757807783694576e-05	0.002798415046478881	-0.0027103846506122014	0.00937950950925548	-0.00012775625476097732
2
137600
Ar	-4.13927723437301e-05	0.00047450522896433877	0.003175086967808658	0.025602820542909036	0.002183063811088899	6.765808622347145e-05
Xe	-0.0001715806924816288	4.8395761712922493e-05	0.0027976345116254245	0.002397938972884886	0.009368026624526233	-4.055737260349547e-05
2
137800
Ar	0.00020839165210707056	0.0004275822974310691	0.0031757072023326904	0.023133901005056766	-0.011341871004391041	5.950954013547806e-05
Xe	-0.00012446665483995195	0.00013075377974580704	0.0027977095921352304	0.006799315892854569	0.006704119213726604	4.050269204281653e-05
2
138000
Ar	0.00039891275879631275	0.0002584404035019369	0.0031761181899104753	0.014040345063148253	-0.02166504275378769	3.7847510151986843e-06
Xe	-4.19456703423336e-05	0.0001760713725167167	0.0027987127502927967	0.009307903533147558	0.0021347312563889356	0.00012407901241516788
2
138200
Ar	0.00047530243689520115	1.546950961547944e-05	0.0031759486663471737	0.0008809475293650367	-0.025736678250152037	-5.065979139054598e-05
Xe	5.285202743346916e-05	0.00017140372286591902	0.0028002662800904634	0.00918292246904626	-0.003017777123171443	0.00017951159487951193
2
138400
Ar	0.00041578511381433746	-0.00023172846381183882	0.0031752465698156843	-0.012458398887648468	-0.022508339320780547	-9.038186961212631e-05
Xe	0.00013270311824931257	0.0001182862949468766	0.002802034319819912	0.00638761373889834	-0.0073334189176263494	0.00015221422529181384
2
138600
Ar	0.00023803156728592728	-0.0004129346724830012	0.0031742222921110645	-0.02223624848547266	-0.01284498138464321	-0.0001021540963973451
Xe	0.00017435283480428412	3.166837118475604e-05	0.0028029081665579166	0.0017453103944837674	-0.009546654686200548	1.6750674882936445e-05
2
138800
Ar	-7.78679745341343e-06	-0.0004762190100707992	0.003173508500794611	-0.025741212873467808	0.0005076183142299361	-3.079451461892894e-05
Xe	0.0001659310389676236	-6.348371863488881e-05	0.002802361755747539	-0.0033611444972152576	-0.009016095562420638	-0.00010253845012900154
2
139000
Ar	-0.0002517516078194701	-0.00040364628406384413	0.003173857116331296	-0.021860494317282035	0.013663510371347628	0.00010580858486552752
Xe	0.00011006507204775506	-0.00014005339317442163	0.00280070376456252	-0.007528326785695132	-0.005913805775984233	-0.0001966532042726079
2
139200
Ar	-0.00042403753053868774	-0.00021582976746460788	0.003175233823836231	-0.011751081425860873	0.022967082679940524	0.00015880110655037716
Xe	2.2792985031806086e-05	-0.00017618497786837917	0.002799030026133469	-0.009506294261376369	-0.0011601647981249598	-0.00012624125757792167
2
139400
Ar	-0.0004752834683847651	3.357609796763014e-05	0.00317667774610168	0.001741781055630277	0.025687411047004227	0.00011580417171381988
Xe	-7.126582639064e-05	-0.00016207417582612035	0.0027984063271123925	-0.008835858894475114	0.003923900532761215	-4.206454580028113e-06
2
139600
Ar	-0.0003905437724288925	0.0002732235065429863	0.003177143487961733	0.014775123406058974	0.021086592725400127	-1.687498237258075e-05
Xe	-0.00014534343167131613	-0.00010121274526418522	0.002798795730860626	-0.005618837657350326	0.00793514653645382	6.111016842435026e-05
2
139800
Ar	-0.00019398610325844769	0.000434996096304393	0.003176717234427197	0.023553653544126314	0.010455999065110484	-7.358826164894258e-05
Xe	-0.00017821228618064339	-1.1138007671510795e-05	0.0027997651037711645	-0.0007719820895184041	0.009629505192938287	0.00011902450957291009
2
140000
Ar	5.782363300798543e-05	0.0004725606090406966	0.0031757794879858432	0.025580284066667767	-0.0031402930721912727	-0.00012041163297372736
Xe	-0.00016004664134260487	8.202598497033187e-05	0.0028009712453699958	0.0042984995958689895	0.008553060160187555	8.533819365460256e-05
2
140200
Ar	0.00029294412126817395	0.0003752154923661321	0.003174815502222204	0.020313911686675543	-0.015844127255189452	-7.526267771796105e-05
Xe	-9.626494560405324e-05	0.00015172992985146736	0.002801461933176767	0.008137151500838368	0.005033640963821528	3.7224472655789834e-05
2
140400
Ar	0.00044452302278911315	0.00017085782112181687	0.0031740124997088597	0.009253480033468507	-0.02403718513294111	-6.564983731002761e-05
Xe	-5.0645959450450475e-06	0.000178014814270765	0.0028014822097022734	0.009663712861995232	0.00012928566429290154	-3.8500911576891175e-05
2
140600
Ar	0.0004692609187053347	-8.261967476950701e-05	0.003173842163228263	-0.004430969472929752	-0.02540481033269786	7.5103220580019915e-06
Xe	8.739889767996144e-05	0.00015378014167206019	0.0028008230095956	0.008377290598528596	-0.004879535920725328	-8.751077659660764e-05
2
140800
Ar	0.00036004259523655496	-0.0003125703633645025	0.0031744080575559297	-0.01688313836531846	-0.01947579000486238	0.00010912105783143172
Xe	0.00015466956915730337	8.547422234254355e-05	0.002799841276193435	0.004741134912551038	-0.008454763052147091	-0.00010385516754787514
2
141000
Ar	0.00014796956958692325	-0.0004534572110051727	0.0031756554856309156	-0.024472370606687513	-0.008012174175009676	0.0001340556324841897
Xe	0.00017779675813029913	-7.201497460858305e-06	0.0027987669741263775	-0.00023692861658825657	-0.009640269849473714	-9.801122981594089e-05
2
141200
Ar	-0.00010635469360209105	-0.00046507759407645713	0.003176786654037289	-0.025130792166601593	0.005769567126847005	8.304183006854846e-05
Xe	0.00014998194754919656	-9.792134803260819e-05	0.00279816840751034	-0.005184275351415368	-0.008100849573051143	-1.663901558935244e-05
2
141400
Ar	-0.0003302898090570879	-0.0003437130637555573	0.00317691072827235	-0.01856471926794216	0.01790749751733705	-4.800837836437838e-05
Xe	7.910274297747818e-05	-0.00016138004823030392	0.002798497366749935	-0.008661520441538385	-0.004269930284285883	8.564164723141555e-05
2
141600
Ar	-0.00045989706672717914	-0.00012409866733006255	0.0031758082061108485	-0.0067127822782461115	0.024925449407098895	-0.00014734515945176508
Xe	-1.4710198386533705e-05	-0.00017871999589617912	0.00279959621864302	-0.009638713807524261	0.0008704184445808137	0.00015234162660476136
2
141800
Ar	-0.00045804128343912256	0.00013082135520433837	0.0031742518010295967	0.007082177214566757	0.024829241811895088	-0.0001047089533526006
Xe	-0.00010445145266795175	-0.00014492114855017873	0.0028012535426866956	-0.007880794391041926	0.005713949348533817	0.00014542638452048255
2
142000
Ar	-0.00032522514828582	0.0003483655349396299	0.0031739089607393575	0.018854933748391162	0.017637331136955828	3.303103479057159e-05
Xe	-0.00016447882728484425	-7.008890110380828e-05	0.0028021925661322012	-0.0038289999388494075	0.008875477349935596	2.4020018463578045e-05
2
142200
Ar	-9.918882912340905e-05	0.00046650647553623875	0.003174674363289843	0.02524132204616393	0.005401854350714297	0.00011359720896866605
Xe	-0.00017758945683455862	2.4152788100547958e-05	0.0028020526299329454	0.001283926617783548	0.009520650928065796	-4.645545424665259e-05
2
142400
Ar	0.00015514811834143984	0.00045130101128692195	0.0031757840957291313	0.024392969859079988	-0.008368801380635905	9.0036366010678e-05
Xe	-0.00013991232183101847	0.00011129471135917841	0.002801210396893649	0.006076904606428439	0.007458495453104076	-0.00011515666085292886
2
142600
Ar	0.00036513163062907184	0.00030730760454915026	0.003176007365436114	0.01659027396453325	-0.019732585470652472	-1.9932383697129975e-05
Xe	-6.208006841557709e-05	0.00016658614169389512	0.0028000755179939476	0.009129344582542246	0.0033124316292762763	-0.00011043899447047511
2
142800
Ar	0.0004711289662541952	7.595368919045198e-05	0.0031756898753536175	0.004064813942424933	-0.025418463535717424	-5.6504460639039485e-05
Xe	3.3695131486891865e-05	0.00017448683843252234	0.002799182518806898	0.009565561136147293	-0.001787582461920059	-7.602745328895797e-05
2
143000
Ar	0.00044232362205746907	-0.00017681948919447666	0.0031751022040246444	-0.00967056004033949	-0.02391682698559117	-5.5355360071821136e-05
Xe	0.00012005963617362694	0.00013235997007652169	0.002799009888712815	0.007304430539494605	-0.006434510335856927	4.32304639916711e-05
2
143200
Ar	0.00028723028658242665	-0.00037934168033879306	0.0031748615152724616	-0.020617898402038357	-0.015577329647452365	-5.07724314828514e-08
Xe	0.0001726054826013816	5.217009581045283e-05	0.002799669363571321	0.002912404421997452	-0.009221041582593958	7.575804130245805e-05
2
143400
Ar	4.992867210831645e-05	-0.0004733990407534692	0.003175063500374622	-0.025670792632794072	-0.0027870431141062526	3.948156167853534e-05
Xe	0.00017585200301283298	-4.303042389444387e-05	0.002800468797076052	-0.00227420496564503	-0.009357485407774138	5.390814982515283e-05
2
143600
Ar	-0.00020164593966418798	-0.0004323218900316481	0.0031754363104210663	-0.023413955966395013	0.01078481139391806	7.71389965558787e-06
Xe	0.00012918439941449306	-0.00012621681041366056	0.00280083821489279	-0.0068269290695136065	-0.006880258192067766	1.4183274447860298e-05
2
143800
Ar	-0.00039568985542625475	-0.0002677138166800681	0.003175218829000854	-0.014430803364680719	0.021312192929815513	-2.7629179004383933e-05
Xe	4.5641666810661346e-05	-0.0001735932403605107	0.002800977578103843	-0.009452166523077628	-0.0023710429141527746	2.946744763367198e-05
2
144000
Ar	-0.0004767151726821623	-2.662046554399008e-05	0.003175005213278123	-0.0013549155711488718	0.0257232963843964	-3.0591799567755435e-05
Xe	-5.090986627878889e-05	-0.00017154041037158375	0.0028013855992660057	-0.009379420562365504	0.0027804332180218793	5.5354889708945304e-05
2
144200
Ar	-0.00042167431441260915	0.00022212933910143218	0.003174826850195317	0.012094009284690546	0.022814693384057692	-9.149513203257678e-06
Xe	-0.00013280971259323608	-0.0001206227103223147	0.0028015369023444885	-0.006598703559319606	0.0071726585571192415	-2.6264127730023757e-05
2
144400
Ar	-0.0002461917939462782	0.0004075894636691435	0.0031748779718131772	0.022135434673249035	0.013387626554638337	7.413054136529557e-06
Xe	-0.00017672522566877425	-3.4979475382439215e-05	0.002800752695067426	-0.001964163527947757	0.009519679788946033	-0.00011286340939013415
2
144600
Ar	-3.4580192478191e-07	0.00047693176154862016	0.0031751435620463713	0.02582732570683554	0.00012214712959958749	6.570734281993855e-05
Xe	-0.000170434391835435	6.066131042593105e-05	0.0027997312694674832	0.0032041819025774246	0.009135697376223731	-7.604027924470329e-05
2
144800
Ar	0.00024569776427556456	0.000409913364961946	0.0031756378059766403	0.0221752420470264	-0.013217184433763405	4.727594144894034e-05
Xe	-0.00011555206100366179	0.00013913665605140723	0.002799407393067799	0.007507388001614888	0.006136869880476924	1.738067881878644e-05
2
145000
Ar	0.0004215467469296512	0.000225552556696344	0.003175707193837819	0.012126396091894868	-0.02276908632693366	6.697242863813353e-06
Xe	-2.7558336559869258e-05	0.0001776911338361617	0.0027999013380964563	0.009682191482526392	0.0013940832503773132	8.540552521717711e-05
2
145200
Ar	0.0004763695770913322	-2.335845882925646e-05	0.003175484862966858	-0.001399996020344906	-0.025790860953153246	-4.553590408700832e-05
Xe	6.856997987335795e-05	0.0001657380057565367	0.0028009339341363497	0.009054367641101067	-0.0037183768154432223	0.00010097208369667379
2
145400
Ar	0.0003952470596394359	-0.00026543172872278866	0.003174959880731984	-0.014414510152252948	-0.02144316100623973	-4.865150049918105e-05
Xe	0.00014484383789717224	0.00010680218402609357	0.0028016132630533873	0.005835812264661769	-0.007763202987226558	2.7684544193963267e-05
2
145600
Ar	0.00020158684040796798	-0.0004319678964222199	0.0031746301086944986	-0.023365102323241276	-0.011005845653229498	-1.761764184745031e-05
Xe	0.00017986144662201044	1.776700765696398e-05	0.0028017116901311086	0.000986219276465638	-0.00959745503625523	-1.5852139301701383e-05
2
145800
Ar	-4.9761069048144217e-05	-0.00047524134835599634	0.003174658444582388	-0.025685266818265794	0.0025811122639470595	1.888138378861046e-05
Xe	0.00016360889783937653	-7.612067737568341e-05	0.002801306472435509	-0.0041608579809686375	-0.00871056430788164	-3.544083185831514e-05
2
146000
Ar	-0.0002871436625718357	-0.00038265182377343046	0.003174651845832879	-0.020628408534229935	0.015482770027792659	-2.7546513278357043e-05
Xe	0.0001006466349729771	-0.00014801093704513827	0.0028008397727873465	-0.008111234918559558	-0.005345825414887884	-5.32241800908543e-05
2
146200
Ar	-0.00044265222023493904	-0.0001806381961174943	0.003174592692798521	-0.009706520614422308	0.023913882956949583	7.113400211497118e-06
Xe	9.056075105700162e-06	-0.0001777685144327886	0.002800480042611874	-0.009767182877156323	-0.00045892897517343966	-3.126063258521886e-05
2
146400
Ar	-0.000471883951521722	7.274021003138605e-05	0.0031749328100892055	0.004011944490827815	0.025493679619737225	3.5278557338079717e-05
Xe	-8.493784816145556e-05	-0.00015662949736673884	0.0028001365141853687	-0.008568544560948816	0.0045717856269432535	-5.121066804523277e-05
2
146600
Ar	-0.000366169230395139	0.00030492455970766686	0.003175448449373225	0.016598744456884466	0.019814107081022873	4.7117472292007366e-05
Xe	-0.00015451640963100622	-9.094688467089277e-05	0.0027998670785096026	-0.004999421758237591	0.008264334781277872	-5.957287374709397e-06
2
146800
Ar	-0.00015594666392662834	0.00045010192969371525	0.0031755239217467176	0.024417143961116158	0.008505057978012995	-5.253677192991562e-05
Xe	-0.0001798626413807262	5.62217921961706e-07	0.0027999041347928685	4.199659228024344e-05	0.009615894529946947	1.567473895833234e-05
2
147000
Ar	9.858436271408643e-05	0.0004668477370436273	0.0031747593009104113	0.02523435988672401	-0.00524626299813969	-0.00010876835532879066
Xe	-0.00015393246041499857	9.187563208764981e-05	0.0028000474685233668	0.005026891113688217	0.008207719814458392	3.6325640165535635e-05
2
147200
Ar	0.0003247011565571192	0.00035012576287349334	0.0031735362982290224	0.018863518718275404	-0.017508903100114763	-9.942947467399165e-05
Xe	-8.402723988992224e-05	0.00015691320141584427	0.002800671559706631	0.008639232235988944	0.004470410481748523	8.46032864773531e-05
2
147400
Ar	0.0004579978541811819	0.00013363763834433367	0.0031731119948996455	0.007152895391895988	-0.024729883958473742	1.576993647855125e-05
Xe	1.017359572953012e-05	0.00017685963009377365	0.0028017825704362426	0.009731088398615244	-0.0005677214375707835	0.00011913163770335388
2
147600
Ar	0.0004609890499583181	-0.00012090945980053553	0.0031738584712917425	-0.006578598972932621	-0.02491644336592235	0.00012998809190857994
Xe	0.00010100014403157648	0.00014600926193255462	0.002802954201560754	0.008009809373056261	-0.005440499284104028	8.15985209459849e-05
2
147800
Ar	0.00033257485565637706	-0.0003409916808979761	0.00317558009548613	-0.01848468987026015	-0.018037249304584765	0.00019209934431687833
Xe	0.0001627665332546819	7.344841683777704e-05	0.002802930107622607	0.004058559812711343	-0.008695261768638898	-6.19611735842649e-05
2
148000
Ar	0.00010928442513189435	-0.00046418955776669264	0.0031770439830449038	-0.02508969776529705	-0.005968195226121179	0.00011567909714817139
Xe	0.0001782612381462082	-1.967507449108818e-05	0.002801755903353149	-0.0010540351778948458	-0.009494272636668686	-0.00013942666957871897
2
148200
Ar	-0.00014530908752525347	-0.00045486616631596247	0.0031774706275046775	-0.02456583164369204	0.0078058057341168705	-2.7510539803178606e-05
Xe	0.00014289119704620002	-0.00010725150369469353	0.0027999927197363	-0.005853440558813491	-0.007633895609484242	-0.00016904567978686695
2
148400
Ar	-0.0003581151267052285	-0.000315233174672708	0.0031763879679422642	-0.016957927135194572	0.019442901831023908	-0.00015877536204657853
Xe	6.663452076924004e-05	-0.0001647586309288867	0.002798738132036632	-0.009017057931064588	-0.0035923808840748746	-7.993692831119544e-05
2
148600
Ar	-0.0004683019176792628	-8.52284540161948e-05	0.003174685768304219	-0.00454244096082418	0.025452903919173306	-0.0001583670771780504
Xe	-2.8832971187455924e-05	-0.00017574703389548255	0.002798251489053316	-0.009610698880997444	0.001471118786146055	-2.7341806686531692e-05
2
148800
Ar	-0.00044470484111745886	0.00016937980159745505	0.003173356118610561	0.009161611135738207	0.024204682971045922	-8.929506073141477e-05
Xe	-0.00011625011317686051	-0.0001364599368071876	0.0027984639705582594	-0.00743950527512838	0.0061901807505984185	7.922614298565607e-05
2
149000
Ar	-0.0002936981420732198	0.00037558973541846713	0.00317332287843724	0.02029492151506176	0.016029799246892792	5.390570464785411e-05
Xe	-0.0001704209305130594	-5.79982178773668e-05	0.0027996452193836167	-0.0031449468057724262	0.00912577734779087	0.00015352583566488652
2
149200
Ar	-5.838424236256494e-05	0.00047453163123303474	0.003174168440214161	0.02560591362440136	0.0032685584044279663	9.190318612470064e-05
Xe	-0.00017640804052090266	3.6851477674991585e-05	0.002801251796178485	0.0019882159309011624	0.009410302342853293	0.00013958421476138698
2
149400
Ar	0.00019379953887593734	0.00043773874747431233	0.0031751550058947437	0.023575383669024116	-0.01044818128643082	8.44622016355037e-05
Xe	-0.0001321689696696892	0.00012104084338995402	0.0028025024699933738	0.006644539980187227	0.007034495045363256	8.367441438515443e-05
2
149600
Ar	0.00039032512122982464	0.0002757520924844471	0.003175443072606295	0.014792882636534409	-0.021142061002671356	-1.5869079696575182e-05
Xe	-5.006136869111229e-05	0.00017064743249209805	0.002802906092248657	0.009361871546835107	0.002664350454932411	-1.8040168553230696e-05
2
149800
Ar	0.0004756057036519728	3.5343881774597265e-05	0.0031751377928404103	0.0018281685095938474	-0.02575433086059808	-3.433390951312311e-05
Xe	4.605844713049628e-05	0.00017156965495817536	0.002802189975933526	0.009394597239869193	-0.0024876078325202166	-0.0001242876434423923
2
150000
Ar	0.00042557874570322033	-0.0002149153050605699	0.0031748805482614694	-0.01159568494206286	-0.023088534580319862	-4.919420138023666e-06
Xe	0.00012867868139995392	0.00012340649518392702	0.0028006051560944666	0.006738801505321339	-0.006901238506767826	-0.0002015285884858827
2
150200
Ar	0.00025417443447437013	-0.0004039796492107459	0.0031750928337881236	-0.021841312025864378	-0.01380850613047432	3.698934779149009e-05
Xe	0.00017451714859251244	3.993077709202019e-05	0.0027984767765475626	0.002198396628683738	-0.009407226387612589	-0.00019380408505918734
2
150400
Ar	1.0047049266805352e-05	-0.00047796215120505994	0.0031751978045175063	-0.025777945722084326	-0.0006031846295203971	-8.69973962126062e-06
Xe	0.0001704665425300978	-5.559323013989422e-05	0.0027973411162555695	-0.0029749988355172135	-0.009237657940309512	4.604161388733482e-06
2
150600
Ar	-0.00023664262071701096	-0.00041521154380581783	0.0031748125122636308	-0.02235783905392969	0.01283538013900091	-5.0215408000267604e-05
Xe	0.00011796417264844545	-0.00013595880717713865	0.0027979433442359347	-0.007286942827226706	-0.006450532129792959	0.00011590696775940599
2
150800
Ar	-0.0004157788138514983	-0.00023376423689196565	0.0031743430648049926	-0.012596317522307733	0.022592367509980504	-4.7455809638265386e-05
Xe	3.175476128768436e-05	-0.00017793981614943122	0.0027994941724403095	-0.009534031284935405	-0.0017415564773108625	0.0001726157905654904
2
151000
Ar	-0.000476559250598934	1.45726606157454e-05	0.0031741272828611673	0.0007396053902900075	0.025844862910715773	4.132718207650533e-06
Xe	-6.330075359320217e-05	-0.0001691639708311206	0.002801383035165488	-0.0090012826620148	0.003464888099350329	0.00018612771871957614
2
151200
Ar	-0.00040130188703776655	0.00025865196375112436	0.0031742063815664995	0.01393066019475193	0.021752237429157995	2.7813511428149043e-05
Xe	-0.0001400709722695525	-0.00011230793795034858	0.002802741816595508	-0.005960731155215137	0.0076293793281884325	7.855949375970117e-05
2
151400
Ar	-0.00021126329929657618	0.00042903584292463594	0.0031741979322113577	0.02314803191808844	0.011489263413471373	-8.547067059809196e-06
Xe	-0.00017688191169712127	-2.368764401758794e-05	0.0028031293099933094	-0.0012084825037834421	0.009688514137066381	-2.0581540329529747e-05
2
151600
Ar	3.942611583996606e-05	0.000477121303392159	0.003174273150986657	0.025743246441825494	-0.0021347794221885656	3.6424080190555194e-05
Xe	-0.00016297083321963762	7.197628901158755e-05	0.00280229416615287	0.0038941016902244202	0.008957992692205203	-0.0001332870297356022
2
151800
Ar	0.00027895021360060853	0.0003888078321954829	0.0031747308151769643	0.020996101501609143	-0.015100444044171905	3.831925831583064e-05
Xe	-0.00010239486661389402	0.00014661025815633022	0.002801001493811992	0.007907307883856497	0.005607278813596351	-0.0001344229546096288
2
152000
Ar	0.00043864864222055753	0.0001894949594275994	0.0031751848799693185	0.01018439695527032	-0.023793149495742672	3.145141805842546e-05
Xe	-1.2494420824556513e-05	0.00017900316776870928	0.0027997658583541365	0.00966061880150139	0.0007284877234359925	-0.00010762398194296603
2
152200
Ar	0.00047317690620535946	-6.398323128959384e-05	0.0031750617597543235	-0.0034503709642610446	-0.02564750576876081	-3.91552418080704e-05
Xe	8.137455154243782e-05	0.0001602604714141157	0.002799046662291923	0.008642092541371634	-0.004391761183813051	-1.3070545491349043e-05
2
152400
Ar	0.0003726065522018264	-0.00029883685408015634	0.0031746716108335643	-0.016179560072964772	-0.020170500593835156	-1.6551968925323775e-05
Xe	0.00015199507955438878	9.560114042892251e-05	0.002799234944657258	0.005156796742123571	-0.00824187419128482	7.174937005024085e-05
2
152600
Ar	0.00016531310870354998	-0.0004482234573858442	0.0031744962016942175	-0.024274428393078	-0.008970757991239376	-4.2165568927358736e-05
Xe	0.00017943368783166958	3.126091675372795e-06	0.0028003315299900793	0.0001886971869596845	-0.0097790511143242	0.00014176307864118
2
152800
Ar	-8.922482347640727e-05	-0.0004695155641870189	0.0031741496631550866	-0.025404129334355673	0.0047985435909312715	-1.974338926663646e-05
Xe	0.00015567958707095818	-9.032538500835494e-05	0.0028015530895542182	-0.004816721007544284	-0.008419856998179149	0.00010311524415242239
2
153000
Ar	-0.00031869391546497075	-0.0003568086833529131	0.0031740647838127255	-0.01935879851090851	0.017183480477075068	-1.3662116446473426e-07
Xe	8.745735852058683e-05	-0.00015730638812760898	0.0028022323154476394	-0.008480507298473286	-0.004662916968634885	1.626055209837857e-05
2
153200
Ar	-0.00045753835532758686	-0.00014250602334933183	0.0031742631172530103	-0.007720075903990292	0.024634275589024087	3.731459545599825e-05
Xe	-5.723325782999341e-06	-0.00017908970736381548	0.002802137632076482	-0.009674284610448948	0.0003819515877876525	-6.154886182938387e-05
2
153400
Ar	-0.0004654979375635251	0.00011211535200530244	0.0031745883383239096	0.006145105474143438	0.025057146364704005	3.1910896866386216e-05
Xe	-9.687823053859789e-05	-0.00014968123754638654	0.00280139773700224	-0.008147368936950875	0.005339511450340245	-9.171968221068337e-05
2
153600
Ar	-0.00034029223896821367	0.00033466331819142705	0.0031748338113689123	0.018260860272096325	0.018364808024236016	2.543574794632959e-05
Xe	-0.00016066971514328295	-7.763244325429917e-05	0.0028005294209316385	-0.004282544955120249	0.00871666032223098	-0.00010880760388226717
2
153800
Ar	-0.00011793768979030367	0.0004617373602077137	0.0031749477948117026	0.02511202741982685	0.006417565196242814	-9.2468046525547e-06
Xe	-0.0001782545932481372	1.6396120369610265e-05	0.002799703707736281	0.0008315733933851205	0.009633526590286646	-4.552700117106398e-05
2
154000
Ar	0.0001377949410225185	0.00045689899447950776	0.003174784893381581	0.02481340510045343	-0.007358041699191488	-4.68178423308246e-05
Xe	-0.0001449293525947194	0.00010557844816920614	0.0027993996274502035	0.005676906426475123	0.007781347183074693	-1.959055837802048e-05
2
154200
Ar	0.0003542187569657469	0.00032143948342165446	0.0031744667544805717	0.01741248426099478	-0.0190760245003153	-2.0829193002241782e-05
Xe	-7.024777364688156e-05	0.00016461506247054668	0.002799555903722032	0.008908673699016028	0.0037336716000165634	6.53605812407864e-05
2
154400
Ar	0.0004691398202484969	9.404410292934321e-05	0.0031743861084097473	0.004994530528346203	-0.025273510008013866	5.929772902317321e-06
Xe	2.4653617228737792e-05	0.00017683457614411333	0.002800809315112226	0.009596869672200274	-0.0013352248523584309	0.00017975767171251906
2
154600
Ar	0.00044974763181817456	-0.00016002881554406847	0.003174445660344026	-0.008776826862812854	-0.024294461463773787	2.3808624545003363e-05
Xe	0.00011235744549965672	0.00013877493745915244	0.0028025423255188964	0.0075100346261367645	-0.00609893844912034	0.0001410801321397385
2
154800
Ar	0.0003021576568700598	-0.00036873456296933555	0.0031749237197940617	-0.020031429574909825	-0.016440325321710005	7.950501879468847e-05
Xe	0.00016765013695511807	6.07832582584715e-05	0.0028034149397548696	0.003280172168759314	-0.009097108538098865	3.4417114621777055e-05
2
155000
Ar	6.851637067181145e-05	-0.0004725893107471156	0.0031755597354956432	-0.025547223099031638	-0.003819073021989955	4.294307484552733e-05
Xe	0.00017482555431138993	-3.430105646794385e-05	0.0028031388076669	-0.0018778459827820124	-0.009456470171667432	-0.00010442122128873146
2
155200
Ar	-0.00018487498036524454	-0.000441472913582401	0.0031759651702826875	-0.0238587707124576	0.009900931976412945	2.2771408147417945e-05
Xe	0.00013208676485699556	-0.00011944127019027613	0.002801542131656428	-0.006469224929183808	-0.007152926389641369	-0.00020092521347251266
2
155400
Ar	-0.00038554227187235146	-0.00028379872099419326	0.003175972524958103	-0.015296315505549777	0.02082940425543411	-1.770966103082613e-05
Xe	5.15524387730597e-05	-0.0001707069771680079	0.002799398869303543	-0.009244838899234963	-0.00283336235512184	-0.00017737511292272655
2
155600
Ar	-0.00047582656150662364	-4.5198374972307615e-05	0.0031751893141335696	-0.002332597962765824	0.025729297797490204	-0.00010307262303813065
Xe	-4.41489414440077e-05	-0.0001734079891306438	0.0027980130867129222	-0.009429300262652008	0.0023282534289785196	-0.00011625539913100012
2
155800
Ar	-0.00043006406660491865	0.00020613702138798975	0.0031740110854869227	0.011263294779108908	0.02331428157650604	-0.00010891920890027977
Xe	-0.00012781259140607905	-0.00012630076054310623	0.0027977775161525244	-0.006895268224887267	0.006876293036670931	8.203402995779827e-05
2
156000
Ar	-0.00026157464484181844	0.000398482363948825	0.0031733665175469137	0.021607183791826346	0.014230715177208838	-3.5382510975426685e-05
Xe	-0.00017512788436825486	-4.2639398429543606e-05	0.00279940709270114	-0.0023439476586087434	0.009432461407304707	0.00022441312304068638
2
156200
Ar	-1.847215753580268e-05	0.0004771171590618479	0.0031735916115931185	0.025827619018009892	0.0011204735318965737	5.602791895940411e-05
Xe	-0.00017254875520516272	5.3256577269240845e-05	0.0028017318151483087	0.0028609659470984687	0.00926740869933918	0.00021870630593798216
2
156400
Ar	0.00023028404064060019	0.00041973669502973183	0.003174417795840839	0.022692371573906814	-0.01233751997829728	9.247214773559977e-05
Xe	-0.00012088044057859584	0.00013370142497419642	0.0028035975631698854	0.007218883030559045	0.006448261310466346	0.00013385820455124838
2
156600
Ar	0.0004133338601101704	0.000242474236690462	0.003175471052453412	0.013041630000832112	-0.0222501948082948	9.155372466992935e-05
Xe	-3.504692140090479e-05	0.0001759383750555314	0.002804316743908952	0.009532852029241815	0.0017792731505696607	-2.680126495522853e-05
2
156800
Ar	0.00047823643666738535	-3.961089145258125e-06	0.0031761214126435336	-0.00035612718263070106	-0.025813299541028224	3.516319247866716e-05
Xe	6.054351518309193e-05	0.00016787562747973516	0.002803304367730211	0.009120028702511449	-0.0033548845389170675	-0.0001662727300886355
2
157000
Ar	0.0004067012918651078	-0.0002490277812546133	0.0031760733598224723	-0.0136086318521993	-0.022008810038591536	-4.982165347313327e-05
Xe	0.00013888054423799267	0.00011203448740525257	0.002801089650811462	0.006159161680497254	-0.0075361181981846315	-0.00024922571049083923
2
157200
Ar	0.00021895814605437373	-0.00042308423514355876	0.0031754087545300225	-0.023006537321655342	-0.01193452369098689	-0.00010298959306794463
Xe	0.0001777551866248151	2.4225048640715383e-05	0.002798883372078193	0.0014155311805847427	-0.009589126412032705	-0.00018522375318449336
2
157400
Ar	-3.14817965655398e-05	-0.0004761807388469112	0.003174382747811947	-0.025855225143400096	0.0015495988926122503	-0.0001225384227976526
Xe	0.00016577827826835725	-7.044694837369161e-05	0.002797608777870706	-0.0037474935010557344	-0.008892381760569168	-4.5992972839118585e-05
2
157600
Ar	-0.0002729624424527771	-0.0003933805543271313	0.0031732077842324888	-0.021253363438668037	0.01460228102654665	-9.752196083469178e-05
Xe	0.00010615466584666084	-0.00014495945628771546	0.0027981538537883775	-0.007855812181543692	-0.005638689752017361	0.0001310592866097723
2
157800
Ar	-0.0004360877683946713	-0.000198396669066821	0.0031725515059190944	-0.010582118372765596	0.023452919490886265	-1.9678930816142348e-05
Xe	1.6343806528033398e-05	-0.00017789489622270052	0.002800017078935509	-0.009668684859193399	-0.0007673796654014978	0.00022882236356662047
2
158000
Ar	-0.00047479212666787126	5.3151799308050256e-05	0.003173039249478291	0.003026738456982794	0.02562834305277422	0.00011633587036182122
Xe	-7.778704465013466e-05	-0.0001599739079973475	0.002802501637880752	-0.008704013591485708	0.004278428558439207	0.00024378428093506445
2
158200
Ar	-0.0003784799166065571	0.00028951721102004284	0.0031745853629169467	0.01576452624374319	0.02048951428275585	0.00017587017689259766
Xe	-0.00014926209923008785	-9.66332054651176e-05	0.002804261271017619	-0.0052202617134715305	0.008073006396209692	6.997903995700979e-05
2
158400
Ar	-0.00017442974756983604	0.00044338495973956566	0.0031762902424634517	0.02406455398319336	0.009529538454911769	0.00014388567572457564
Xe	-0.000177436435430614	-5.9272222345594404e-06	0.0028038739721684435	-0.00030816965599326043	0.009606076955759916	-0.00013863522195301601
2
158600
Ar	7.931117197403165e-05	0.0004708523134556709	0.00317749219748291	0.02542635452541166	-0.004194140009678178	4.4030492825259175e-05
Xe	-0.00015489383512070842	8.632279988028076e-05	0.0028017594277916728	0.004687095241110054	0.008411735949346077	-0.00024771645557409997
2
158800
Ar	0.0003098721480453708	0.00036354526662782496	0.0031770189205186845	0.019562034666043098	-0.016733947552872285	-0.00011841867882305382
Xe	-8.817695789861727e-05	0.000154305282604143	0.0027991553830807804	0.008332000605178256	0.004855278359259122	-0.00025456736582197257
2
159000
Ar	0.00045189677400182175	0.00015217118998939045	0.003175348734568913	0.008159284845023523	-0.0244509411985322	-0.00020369419390926005
Xe	3.909227639016232e-06	0.0001785800074790216	0.002797093578520871	0.009648761988419522	-0.00010505276780160414	-0.00012586829203493655
2
159200
Ar	0.00046502943654952444	-0.0001021720730540507	0.003173682468254655	-0.005608352252293779	-0.025197241130363427	-0.00011687047076865188
Xe	9.552119447325148e-05	0.00015220889413594598	0.002796904697710115	0.008188275603639756	-0.00503893498879477	8.335670525394156e-05
2
159400
Ar	0.000345428023250786	-0.00032764266310965514	0.00317315893523387	-0.017724954641672966	-0.018799273071573693	2.3106544770386362e-05
Xe	0.00015982995078115027	8.238447754752045e-05	0.0027984913029956314	0.004343047861169781	-0.008593042829090588	0.00021195445631243322
2
159600
Ar	0.00012722460841089865	-0.0004598763520805848	0.00317390548509365	-0.024851348451320004	-0.006997021665451485	0.00012455303488395918
Xe	0.00017805447414227348	-1.1060877584188683e-05	0.0028010322674371043	-0.000769471876772736	-0.009646305224628593	0.0002680276007134991
2
159800
Ar	-0.00012759867831703102	-0.0004610103376839584	0.003175495739904101	-0.024857067208400023	0.006783406761546455	0.00014709638652502354
Xe	0.00014526531468728198	-0.00010107110047288297	0.0028033368787564075	-0.0056427770344176075	-0.00791189749449076	0.00016239197577490923
2
160000
Ar	-0.0003460963065336612	-0.0003308843677677551	0.0031765482713247365	-0.01776935798497019	0.018618911734929144	5.2615487132638416e-05
Xe	7.078129415916793e-05	-0.00016192868594015237	0.002804310801800573	-0.00886816327945298	-0.003958499084768665	1.993284874145576e-05
2
160200
Ar	-0.0004658312695197886	-0.00010648752330410434	0.003176679735332783	-0.005611770815312781	0.025168294221606064	-3.5161332082648256e-05
Xe	-2.388076849741847e-05	-0.00017638991651674566	0.002803640001187066	-0.00958574240874549	0.0011214259987026509	-0.000136612676215372
2
160400
Ar	-0.00045280914668267705	0.00014836026480600587	0.0031760430234734167	0.008145790844448032	0.02454982470470706	-9.980811276889404e-05
Xe	-0.0001113214397179722	-0.0001406529946429321	0.0028014424365648814	-0.007497840420543899	0.005847896859612024	-0.0002569260615335927
2
160600
Ar	-0.0003107755825814725	0.00036085848462750916	0.0031750089051514976	0.019576889098253995	0.01690598080539503	-9.289251023566195e-05
Xe	-0.00016685251104145977	-6.4987139531091e-05	0.002799141937396983	-0.0033402685848016034	0.008915067300518064	-0.00018225696924794346
2
160800
Ar	-8.009255211943224e-05	0.0004704010074301085	0.0031738827036408837	0.025446795226184774	0.004439193015850388	-0.00010264760253358232
Xe	-0.00017478113091310023	2.949807181350195e-05	0.002797659986623391	0.0018106137261953816	0.009518067483352403	-0.00010459177245534053
2
161000
Ar	0.0001735968577636277	0.00044538169175504323	0.0031734601601446787	0.024047351460843323	-0.009318513040132561	1.6219682632423246e-05
Xe	-0.00013248324025283612	0.00011605688531724413	0.0027974757971357053	0.0064373546628728765	0.007369437569127164	8.256950098209706e-05
2
161200
Ar	0.0003776726724728708	0.00029294779654541437	0.003174078607821266	0.015781778919293714	-0.020417342188309363	0.00012668359844743773
Xe	-5.226642243339924e-05	0.0001697511481123448	0.0027989957514438	0.009204591717139464	0.0030858947309357217	0.00019451277434380735
2
161400
Ar	0.0004740837738373219	5.697053963802012e-05	0.003175293998368093	0.003036831117023765	-0.025647877239464278	0.00012762836897236088
Xe	4.294171684946917e-05	0.00017481557598804484	0.002800912367375677	0.00936061542567283	-0.002088736544975255	0.0001687599841907177
2
161600
Ar	0.0004350568321175135	-0.00019546987800111775	0.0031762595163026975	-0.010636754084688052	-0.023623780195533874	7.1626229366388e-05
Xe	0.00012581951266939107	0.00012995561650641085	0.002802321982560807	0.006788146854505567	-0.006679448968738284	7.829337423222005e-05
2
161800
Ar	0.00027172351159376293	-0.0003923934422105967	0.0031766633863972308	-0.02121707466715263	-0.014807185025694133	1.6560196967733775e-06
Xe	0.00017255101995901438	4.773426672878249e-05	0.0028024729458550396	0.0023553979323296457	-0.009341985643333942	-2.8662434719635697e-05
2
162000
Ar	3.08691360609864e-05	-0.00047734262566850893	0.003176308709973431	-0.02577177913236284	-0.0017744161296836013	-7.905171737957156e-05
Xe	0.00017027300485081913	-4.805300202813654e-05	0.0028018060386307345	-0.002784706774981882	-0.009356517685345633	-7.391713193903934e-05
2
162200
Ar	-0.0002188282950255264	-0.00042602201208706504	0.003175041319258103	-0.02292206325704802	0.011789632021173729	-0.0001292797493569214
Xe	0.00011938481062439506	-0.00013044915745556764	0.002801056918224053	-0.007141144704780221	-0.006731819811001068	-9.490334453334374e-05
2
162400
Ar	-0.00040559822821793903	-0.00025294394837118366	0.0031740407759539204	-0.013539414442154547	0.021982723050291843	-5.5366660932817446e-05
Xe	3.4322268590781954e-05	-0.0001756422906912158	0.0027998870936497195	-0.009450450894264929	-0.0021181373524784644	-0.0001331210186902186
2
162600
Ar	-0.0004766041783852589	-7.436990740316929e-06	0.003174242696525204	-0.00030902649635906106	0.025917397413463418	8.735278224560271e-05
Xe	-6.069653527462791e-05	-0.00017073643154446336	0.002798784887468518	-0.00909661719877824	0.0030783191762558857	-8.746612625890294e-05
2
162800
Ar	-0.00041148416078331683	0.00024041194259437037	0.003175092820674344	0.01301318994191892	0.022422102254519446	8.81682444692444e-05
Xe	-0.00013842353353935442	-0.00011703791078268165	0.002798480604228528	-0.006064843762900546	0.007402609039290476	4.178359816673359e-05
2
163000
Ar	-0.00022898343924449577	0.00041927378415869426	0.003175803158121377	0.022593138049925916	0.012475012028297941	6.186327080099219e-05
Xe	-0.0001764227352543482	-2.95203959106367e-05	0.0027993306723721884	-0.0013444512991375166	0.00965730165588701	0.00013618561127469765
2
163200
Ar	1.855318111913952e-05	0.00047810512532143746	0.0031760973562603915	0.02570635998388522	-0.0010055235190313246	-1.0053071495280121e-05
Xe	-0.00016418054897583738	6.657873301052817e-05	0.002800685074482459	0.0037587438049644572	0.009097655403289003	0.00015111197733331703
2
163400
Ar	0.0002607707250599224	0.00040004989277761196	0.0031758925434351767	0.021530965930862338	-0.014197317326554175	-3.319135778452472e-05
Xe	-0.00010506022324331896	0.0001435601421873231	0.0028019066844469334	0.007771184748978428	0.005924644585250639	7.808363484265054e-05
2
163600
Ar	0.00042862704682351756	0.00020806170427462413	0.003175440064270811	0.011208554492052297	-0.023284834552658663	-4.675879817736702e-05
Xe	-1.618965236536023e-05	0.00017939748233888517	0.0028023504359204147	0.009565438202296635	0.0010620645430357047	-6.238445939464175e-06
2
163800
Ar	0.00047448904409390976	-4.343422387431372e-05	0.003175095040077859	-0.0022828618552277065	-0.025756665937277944	-1.5680075444423775e-05
Xe	7.705240926526951e-05	0.0001640130500087975	0.002801737039554005	0.008639786684807959	-0.0040425198447531785	-0.00012172537157261957
2
164000
Ar	0.0003849461911958071	-0.00028259514160006	0.003175084644157466	-0.015199893373350124	-0.02088056858682902	5.403794081053517e-06
Xe	0.00014820892046550282	0.00010242645296440256	0.0028003455481302062	0.00524746708080565	-0.007970985076769311	-0.0001350707025496269
2
164200
Ar	0.00018525218069666462	-0.00044111583816773043	0.003174877327424121	-0.023752750843625055	-0.010019157331608228	-3.151825593730026e-05
Xe	0.0001769869517135658	1.2087656450489708e-05	0.0027993618965513364	0.00035552211055073094	-0.009670357243673848	-6.575886624750964e-05
2
164400
Ar	-6.682975491886494e-05	-0.00047328503014265567	0.003174412250057262	-0.025443923474420725	0.0037458526073577856	-4.17178804503057e-05
Xe	0.0001552042350753227	-8.179239019718773e-05	0.002799391975237594	-0.004582860212593151	-0.008659064320243244	6.615707067396647e-05
2
164600
Ar	-0.00029935191937846507	-0.00037031906569868903	0.003174150878600071	-0.019937882214756675	0.01630529883716632	-3.790591846039198e-06
Xe	8.934698601429958e-05	-0.00015248764521423271	0.0028003374357730435	-0.00824747534533351	-0.0051252230206234985	9.257318530317764e-05
2
164800
Ar	-0.00044653722131193503	-0.00016241003825653844	0.003174713140818256	-0.008787701098305215	0.024266682695926765	0.00010450496801523305
Xe	-1.7265441402724892e-06	-0.00017944783056795337	0.0028012405327431616	-0.009517415981758436	-0.00013608156941194476	6.542519427265007e-05
2
165000
Ar	-0.0004665220860990003	9.185593377558112e-05	0.003176080104845367	0.004884090603634066	0.02534150623135702	0.00013196519386640874
Xe	-9.203108058639327e-05	-0.00015527105175598335	0.002801308883448455	-0.008100335709745771	0.0048662883223137225	-4.1874718642028955e-05
2
165200
Ar	-0.00035355538599335113	0.00032009067066675643	0.003176987069158882	0.017170795316461266	0.019177300408826384	1.241198963832625e-05
Xe	-0.0001558631494894493	-8.6602138936847e-05	0.0028008106438443757	-0.004363122291543807	0.008519512570061073	-6.927184024048413e-05
2
165400
Ar	-0.00013957662255073824	0.0004567291806773963	0.003176354085863993	0.024554755243971726	0.007494512409980923	-0.00013925235478958012
Xe	-0.00017494778557247012	6.98198764503865e-06	0.0028002896337230585	0.000632676150308622	0.009762910213338645	-4.6923336518407464e-05
2
165600
Ar	0.00011400475274926018	0.00046269727261780797	0.0031747515405722944	0.024924469767078638	-0.006328253384896095	-0.00013623718180606322
Xe	-0.00014414526220482503	9.894199706097091e-05	0.0027999372545546197	0.0054103198237299465	0.00817419103679711	-1.84147267343672e-05
2
165800
Ar	0.0003351132823296125	0.000336744994243318	0.0031739752192264355	0.018234833018143243	-0.018251536610579204	-9.894837548238668e-06
Xe	-7.226554115002255e-05	0.00016241283322431703	0.0027997541464779645	0.008587593901025155	0.004235645897258861	1.2149377810600717e-06
2
166000
Ar	0.00046102277933638254	0.00011474439373262593	0.0031744708797524263	0.006324763092763632	-0.025074287026574507	7.151750386416771e-05
Xe	1.9814384711820872e-05	0.00017948210426322952	0.002799622990330939	0.009367907488836895	-0.0008999337310763547	-4.17569498854497e-05
2
166200
Ar	0.0004555503775247581	-0.00014019093781524953	0.0031752062588128785	-0.007399327881698306	-0.02465452437534854	6.190244168252991e-05
Xe	0.0001061598159989582	0.00014522768011603857	0.002799475753716971	0.007483627394773054	-0.005786363631568425	2.4214055679300884e-05
2
166400
Ar	0.0003199240488916553	-0.000354861089784691	0.003175325972615892	-0.019035614911923383	-0.017214907321824877	-3.149503429031624e-05
Xe	0.00016220776906758022	6.921067664671446e-05	0.00280017712599498	0.003465246180444808	-0.009029224504175168	9.124238243456482e-05
2
166600
Ar	9.307383135762351e-05	-0.0004678561288092915	0.003174735928766468	-0.0252124268428397	-0.004839568169446147	-7.658538673935938e-05
Xe	0.0001721173736234319	-2.6638008109681073e-05	0.0028011593490203756	-0.001535364730361325	-0.009680412963854787	7.910313446356454e-05
2
166800
Ar	-0.0001602518802188388	-0.00044743355237473656	0.0031743078144366057	-0.024226423131471372	0.00882477660316614	1.1360059813513502e-05
Xe	0.0001329114274777267	-0.00011483245676414684	0.0028016326420275688	-0.006098924005451478	-0.007529347266751216	-6.11919631336457e-06
2
167000
Ar	-0.00036781900021044106	-0.0002995284962553209	0.00317494966426923	-0.01630369599614626	0.02002996175270052	0.00012528728248890745
Xe	5.6009466392329466e-05	-0.00016977613170933236	0.0028012039218168667	-0.008897467672471087	-0.003217571131340049	-8.376982801969327e-05
2
167200
Ar	-0.0004706748288987052	-6.591816051298318e-05	0.0031764680569615804	-0.003771900926373156	0.025570040630884017	0.00015636988882768415
Xe	-3.665493251674879e-05	-0.00017635242491924346	0.002800047456979098	-0.009184761283532227	0.0019530811161759007	-0.00011013678633380593
2
167400
Ar	-0.0004391209023078444	0.00018673996495142595	0.0031774770159458884	0.009911079886556783	0.02371808304686752	3.281271417188106e-05
Xe	-0.00011912309747162572	-0.00013269124105703042	0.002799189568123609	-0.0068850484705424075	0.006574737514332998	-6.450527634810611e-05
2
167600
Ar	-0.00028184087719684	0.0003854184437267235	0.0031768754670239104	0.020757573654538945	0.015068311855292428	-0.00014280406112080553
Xe	-0.00016802887763579485	-5.08483767082198e-05	0.0027992195724735767	-0.00263003929921828	0.009401719240283572	7.406193706314735e-05
2
167800
Ar	-4.4073831899790756e-05	0.00047373350662913513	0.0031748808621402274	0.02563750781726717	0.0021968926112731525	-0.00021692232189071824
Xe	-0.00016928865769262605	4.591943809531112e-05	0.0028000539229905198	0.002383251925192785	0.009475644232620123	7.739971927744447e-05
2
168000
Ar	0.00020626585230841215	0.0004272531676412803	0.0031733541155785946	0.023241130260529572	-0.011255640457463561	-7.935966948576309e-05
Xe	-0.00012249456670916382	0.0001295331061462822	0.0028010030386177664	0.0067562563453410236	0.006840126171438016	8.292747149502416e-05
2
168200
Ar	0.0003984298610027124	0.00025930876095531566	0.0031733096910213487	0.01425293588094488	-0.02152544032560695	9.031901362185945e-05
Xe	-4.0800250285391976e-05	0.00017598702018281243	0.0028015711742526935	0.009194582105855127	0.002226399426778249	3.002140720740821e-05
2
168400
Ar	0.0004773540726008776	1.7143411614531056e-05	0.0031747008797207493	0.0011456161585949598	-0.0257328114113608	0.00015322973984440637
Xe	5.267081003390803e-05	0.00017200695154917728	0.0028015357964932975	0.009020952589804622	-0.002990450040576879	-5.1034859261564604e-05
2
168600
Ar	0.0004198380398742085	-0.00023009078646866034	0.003176028496703456	-0.012361790085141391	-0.022506032894694612	8.957647683913839e-05
Xe	0.00013084866535530642	0.00011887592081413016	0.002800893964277887	0.006249441597571254	-0.007388240968812426	-4.6676629154504345e-05
2
168800
Ar	0.0002423731432188377	-0.0004115893940821537	0.0031766597353256785	-0.022261157738115555	-0.012915337694000148	3.6683471584494715e-05
Xe	0.00017179523720382885	3.1435951097474506e-05	0.0028000874895666274	0.0017249773190421331	-0.009640777767940452	-0.00010144350624272958
2
169000
Ar	-3.9369602855350635e-06	-0.00047560036461243753	0.0031767114940701915	-0.025809347161794508	0.0004105455720509901	-2.2360280976672172e-05
Xe	0.00016355032155850738	-6.475617542602297e-05	0.0027989854221384734	-0.003324250614170107	-0.009134104363603887	-0.00011735808559186859
2
169200
Ar	-0.0002487829497728215	-0.0004043897737804477	0.0031763508324449473	-0.02196239144653242	0.013521096543380651	-6.680036617871116e-05
Xe	0.00010858224587221599	-0.00014259588762552085	0.002798185143076315	-0.007424573034132151	-0.006054443340825519	-5.6285053276203565e-05
2
169400
Ar	-0.00042219204393456947	-0.00021783442127986237	0.003175713992573246	-0.01188628437496851	0.02287473107879051	-4.854176137495943e-05
Xe	2.2173480149788306e-05	-0.00018026723425003082	0.0027982021077590695	-0.009437831507773047	-0.0012913005478462677	3.9863706560814354e-05
2
169600
Ar	-0.000475062632433516	3.115528083203054e-05	0.003175108191332993	0.0015687203799886168	0.025707333881964934	-5.428989484484823e-05
Xe	-7.130477762770323e-05	-0.00016657388866789488	0.002799137366801302	-0.008768404681806943	0.0039498852579221925	0.00011919045170446488
2
169800
Ar	-0.000392215715345944	0.0002713269610005912	0.003174488546534514	0.014607692184344738	0.021155008973775195	-4.8208828392826384e-05
Xe	-0.00014504575783001324	-0.00010509796864066085	0.0028004396802684614	-0.005601510889559656	0.008039309098063321	0.00015340671078087052
2
170000
Ar	-0.00019719613369493944	0.0004337870276787565	0.0031741967749274	0.023442248425311386	0.010574105435793433	-4.013534301155389e-07
Xe	-0.00017789874929206512	-1.3692469703083635e-05	0.002801988479258557	-0.0007882763117735329	0.00978894120285074	0.0001150661845975614
2
170200
Ar	5.437580069016422e-05	0.0004729042596906766	0.0031743267180447342	0.025648097118558588	-0.002962618639654937	3.3540464636940225e-05
Xe	-0.00016014613919138615	8.13483191906714e-05	0.0028026924887994986	0.004235528475958299	0.00873529156295493	-1.4986577866411925e-05
2
170400
Ar	0.0002910811715756025	0.0003773228254285588	0.0031749075106338766	0.020526610577281206	-0.015686446886663798	6.975520353199215e-05
Xe	-9.699710213677352e-05	0.00015260017092426042	0.0028016633712686935	0.008108312696424445	0.005179500407239443	-0.00015601982358135022
2
170600
Ar	0.00044500076082282865	0.00017413015675329965	0.0031759306447903517	0.009475723714173859	-0.02396236425680464	9.684496435213386e-05
Xe	-6.207646606767977e-06	0.0001802702040491819	0.0027999402378953413	0.009609529804806772	0.00021283925277364776	-0.00017757011478671648
2
170800
Ar	0.00047154977502409366	-7.88601059545576e-05	0.0031762816669583965	-0.004300287446658158	-0.025401547892816102	-5.139890485217174e-06
Xe	8.631955461083698e-05	0.00015652495230919614	0.002798477710647217	0.00844045841518554	-0.0048493421122459785	-8.96330624552238e-05
2
171000
Ar	0.00036312624231037036	-0.0003094387609062437	0.003175776127805177	-0.016819903744025304	-0.019577180369028696	-6.508295892985003e-05
Xe	0.00015436593798324178	8.768857345360347e-05	0.0027982284551614526	0.004838334144515679	-0.00857229793991899	2.6285529161258583e-05
2
171200
Ar	0.00015094463642076824	-0.00045175989074096263	0.003175017546664898	-0.024558526443243994	-0.008166264841646507	-8.04439275507765e-05
Xe	0.00017850179732971795	-6.7428724414506145e-06	0.002799073393800269	-0.00012359368119011624	-0.009840463657229919	0.00013777597587089893
2
171400
Ar	-0.00010451856105848733	-0.0004652381916355125	0.0031746542107997625	-0.025283660909512545	0.005558565751510397	2.5677485037968474e-06
Xe	0.000151753931531425	-9.91687957827773e-05	0.002800496319554267	-0.005087196679818508	-0.008205033431110564	0.00015387145143056467
2
171600
Ar	-0.0003302852201038631	-0.00034602103404293385	0.00317518888373214	-0.018762870949241717	0.017693194008203246	0.00011076504526577689
Xe	8.158448520616185e-05	-0.0001631824227890855	0.0028018168945568946	-0.00860064341932593	-0.0042564968237975434	9.62888954510827e-05
2
171800
Ar	-0.0004617550364620638	-0.00012801288786499514	0.0031759781605395143	-0.006870240761984318	0.024825230422594838	3.066301328315087e-05
Xe	-1.1869903618703486e-05	-0.00018062988144994393	0.0028024956979097017	-0.009628727118275547	0.0008556786916359419	5.081727312080737e-05
2
172000
Ar	-0.00046137684529046804	0.0001268602666359051	0.003176010675252849	0.006962034966778208	0.024894262812264683	-4.21889129841357e-05
Xe	-0.00010184099860319415	-0.00014682304013202002	0.002802393461613027	-0.00790177144862363	0.005724929150048319	-5.989067937527096e-05
2
172200
Ar	-0.0003293269832259615	0.00034569386727857334	0.003175231940617759	0.018825455469511393	0.017793986767240626	-9.504722557812175e-05
Xe	-0.00016230499679346593	-7.152087705534212e-05	0.00280157137904397	-0.003922576946484058	0.008964439594570751	-8.94213812311355e-05
2
172400
Ar	-0.00010349619755394574	0.00046599579806511787	0.0031742148725613056	0.025259409799336455	0.005674440495719572	-9.603571609653004e-05
Xe	-0.0001760767729488283	2.3727552259384333e-05	0.0028004472288799737	0.0012007397923213046	0.009623997357328225	-0.00012572571978407843
2
172600
Ar	0.0001516412434677479	0.0004537042351550021	0.003173718875661126	0.024523248099084103	-0.00808934062432519	-3.7856665089734197e-06
Xe	-0.00013967211469042746	0.00011202514632344191	0.0027991738291846375	0.005912986409244038	0.007618873049334288	-9.445555481434016e-05
2
172800
Ar	0.00036350526348027517	0.00031155280031178585	0.0031743155016587484	0.016785186238287658	-0.01963472763293207	9.619772771895918e-05
Xe	-6.361609273744532e-05	0.00016856870507769983	0.002798589535421875	0.008924031538897686	0.003396567162704241	-2.7680998329932766e-05
2
173000
Ar	0.00047114883905657027	8.015730335175096e-05	0.003175138100847757	0.004216992013552219	-0.025517655775914676	5.6262750163690116e-05
Xe	3.0600073180822776e-05	0.0001768745615413901	0.0027987749192988536	0.00945750572178907	-0.0017722989863171114	6.0669133765049884e-05
2
173200
Ar	0.00044381516372449633	-0.00017404303506888822	0.0031757139664307294	-0.009544312372050095	-0.024072648970454625	7.764941496324203e-05
Xe	0.00011658435822606077	0.0001347471665700672	0.0027996740680588028	0.007307502395528564	-0.006447003613246004	0.00012018314191185542
2
173400
Ar	0.0002897345617189517	-0.0003784303318923315	0.00317617523131709	-0.020512822213620465	-0.015791250581700896	-6.913878639511049e-06
Xe	0.00016956687540445784	5.395214744751592e-05	0.002800638912364696	0.003024670009630684	-0.009315526024410641	8.669540656412345e-05
2
173600
Ar	5.308671747520304e-05	-0.0004747016080311907	0.0031757214533256767	-0.025672575529485868	-0.0029803622930503824	-4.995636156551307e-05
Xe	0.0001742338354785059	-4.260844434225813e-05	0.002801504765165138	-0.0021178936255652364	-0.009518290273664564	5.900897709503462e-05
2
173800
Ar	-0.0001991380688504802	-0.00043526393457210733	0.0031751920508913617	-0.023524160665704986	0.010687236924729575	-5.814487841536535e-05
Xe	0.00012905373321072655	-0.00012732987120319476	0.0028018434547155864	-0.006680275866713759	-0.006988417907149494	1.698279598011266e-05
2
174000
Ar	-0.0003945262602452936	-0.000271130839337456	0.0031745780355571375	-0.014594731070117812	0.021311510012798022	-6.850275098025592e-05
Xe	4.7225491878869906e-05	-0.00017567178728011409	0.0028017157996935217	-0.009284938706530578	-0.002436912723893026	-1.2600992066263203e-05
2
174200
Ar	-0.00047716798312589116	-2.9325503774658868e-05	0.003174044821188165	-0.0015279272152728134	0.02584022036014059	-4.3950065908871904e-05
Xe	-4.788605727216804e-05	-0.0001737914679020632	0.002801496173566906	-0.00928642352663649	0.002798810454962711	-2.832035320213272e-05
2
174400
Ar	-0.0004239711902813374	0.00022089757280094544	0.0031737045031328764	0.011920959389250389	0.022953807867286787	-1.0807403745264125e-05
Xe	-0.00012940834708348312	-0.00012231212457794645	0.0028011745951006897	-0.006629320101636435	0.007226895535062138	-3.6220293256647294e-05
2
174600
Ar	-0.0002502123276959964	0.0004079491385658109	0.003173880995118074	0.02197646555503861	0.013536433868321509	3.272249038677286e-05
Xe	-0.00017404669293260343	-3.6079462432910416e-05	0.0028007059201841404	-0.002078173131971929	0.00959639112363746	-5.83899667914702e-05
2
174800
Ar	-5.263573203085665e-06	0.00047868287807721366	0.00317428215703094	0.025795009824751143	0.00025685450984437184	4.43264288362052e-05
Xe	-0.00016908516500499616	6.007237915863163e-05	0.002800030240290461	0.003065523275218976	0.009192909414548861	-5.313721709294731e-05
2
175000
Ar	0.00024079204426777812	0.00041271325638541625	0.003174665337750589	0.022217548212123434	-0.013123049416321248	2.837668063344324e-05
Xe	-0.00011575837355638812	0.0001389811659219165	0.0027992685590572898	0.007330012072576533	0.006226735320266823	-9.478467849425265e-05
2
175200
Ar	0.00041777664554579306	0.00022891756290161977	0.0031747476024604096	0.012308576949493026	-0.022749571647360554	-2.423865999021783e-05
Xe	-2.9290389136015744e-05	0.00017825360080865667	0.002798578959014119	0.009533194087527166	0.0014131963725877484	-6.497325101041116e-06
2
175400
Ar	0.0004753673039903692	-2.0389613586880365e-05	0.0031745682033532865	-0.0010760893773626003	-0.02588589433830513	-3.0714583249028623e-06
Xe	6.558955730446271e-05	0.000166432843675203	0.0027990363811015904	0.008995735759896298	-0.003723793674870791	8.94077110536274e-05
2
175600
Ar	0.0003972993670400171	-0.0002640986958570249	0.003174692944494803	-0.014164285680708594	-0.021652715975941254	2.5999314878823373e-05
Xe	0.00014201760081943143	0.00010708320260211112	0.0028003606054849087	0.005909767824249983	-0.007864911019782915	0.0001636610775941017
2
175800
Ar	0.0002056763006373409	-0.0004323549762520172	0.0031749758591219967	-0.023231803954727966	-0.011198957801654091	8.617140930712063e-06
Xe	0.0001779563173172112	1.6874729421546308e-05	0.0028019521230364186	0.0011112715468788938	-0.009707694742563533	0.00014188570102700548
2
176000
Ar	-4.5125601997916285e-05	-0.00047723901985540775	0.003174811148574343	-0.025673248994393258	0.0024304285849529855	-3.614565173451169e-05
Xe	0.00016324238974229125	-7.79439805786747e-05	0.0028030707578212914	-0.003988194274332232	-0.00877531091521446	7.397225484075257e-05
2
176200
Ar	-0.00028318052206798293	-0.0003860255169178413	0.0031744190236870254	-0.02078388613060283	0.015389378255224432	-5.2171759103825154e-05
Xe	0.00010209030240261007	-0.00015024007338506048	0.002803099796323239	-0.007955368212835625	-0.00532073311751791	-5.776409260167311e-05
2
176400
Ar	-0.0004408205064610614	-0.00018447668524413125	0.0031740981021771046	-0.009985427709679475	0.02392042536903782	-3.2480750181480284e-05
Xe	1.178079685208625e-05	-0.0001794127440567248	0.0028022684870378416	-0.009645172956992723	-0.00037102818666623794	-0.0001246063373387469
2
176600
Ar	-0.00047278851646788184	6.958083946695796e-05	0.003173927501955664	0.0037448434296467686	0.025651469441911528	-1.5763303998854587e-05
Xe	-8.170758915103268e-05	-0.0001575177004060991	0.0028010335719042072	-0.008590867559085764	0.004653702225978599	-0.0001184187645137451
2
176800
Ar	-0.0003696891154580748	0.0003038653349470967	0.0031739133734054762	0.016350520078877093	0.020041836969417904	3.066664391587733e-05
Xe	-0.00015183066825000846	-9.07117461168159e-05	0.002800011928601606	-0.005094925509173755	0.008384580048853597	-8.677402392790785e-05
2
177000
Ar	-0.0001611516845233312	0.00045131999347788497	0.0031745712511215413	0.024344402994792142	0.008725592894047427	0.00010804443920353729
Xe	-0.00017892518918124565	2.010302643898855e-06	0.0027994463220785055	-0.0001828380853793214	0.009713453553975076	-4.01589389584039e-05
2
177200
Ar	9.365412755107438e-05	0.0004696867530839291	0.0031758226699415935	0.02535972151298868	-0.0051453220135628825	0.00010310606220007579
Xe	-0.0001550637399683501	9.400919614517385e-05	0.002799229060186855	0.004826666886470643	0.008273953621304881	-2.5634125246751296e-05
2
177400
Ar	0.0003216346465229955	0.0003535012754721895	0.003176475919747291	0.019134281533817386	-0.01755355596400152	3.950440769918889e-05
Xe	-8.674611318322172e-05	0.00015943963760692807	0.0027994292108999147	0.008486541828734755	0.004488206653707926	7.233826772844603e-05
2
177600
Ar	0.0004577825554048903	0.0001356507826378299	0.0031763399192685253	0.007436598806834841	-0.024924809503623267	-3.478556663199333e-05
Xe	6.407766297230415e-06	0.00017961918952830194	0.0028004504145095845	0.009718821827074448	-0.0005605026705400354	0.00013178217922027718
2
177800
Ar	0.00046324711183703374	-0.00012102661899255174	0.003175242225775618	-0.0063850207913225005	-0.02513845353218252	-0.0001499965750194035
Xe	9.78630810664247e-05	0.00014838222977043048	0.0028020783961325044	0.008133691295504812	-0.005517345717968153	0.00017268593260490813
2
178000
Ar	0.00033621798993978296	-0.00034296643903383635	0.003173800741642148	-0.0184065730678747	-0.018167630671559555	-0.00013493806735165664
Xe	0.0001614801586987442	7.470262847427734e-05	0.0028034541148406916	0.004277409676907281	-0.00885918948882917	7.868819250812717e-05
2
178200
Ar	0.0001130547722838979	-0.00046692907537977955	0.0031729153104824537	-0.025151375801168024	-0.00601280696384339	-2.035894999008128e-05
Xe	0.00017907406047442604	-1.9880825834009365e-05	0.002803853983423269	-0.0008531415581193457	-0.009579369545366319	-3.396553578952002e-05
2
178400
Ar	-0.00014264155198191755	-0.0004577681683485428	0.0031733694032073326	-0.024732652989811955	0.007810791216141775	0.00010328245791634234
Xe	0.00014543669158062616	-0.00010786426043635329	0.0028029822014284237	-0.005723603933347659	-0.007608289976228071	-0.00013982383448802796
2
178600
Ar	-0.0003577925714596233	-0.0003181635074922758	0.0031746530827205	-0.017221814336930916	0.01943356994798448	0.00015898072014404102
Xe	7.026645352850647e-05	-0.00016455097424696724	0.002801327822266262	-0.008942960567405643	-0.0034696245551076674	-0.00016128488436604354
2
178800
Ar	-0.0004705532585251443	-8.78273875913577e-05	0.0031759542516431797	-0.004766559155240793	0.025490648709259305	9.844405828808773e-05
Xe	-2.486266369265012e-05	-0.00017427887944297207	0.0027997627669203227	-0.009642334830134216	0.0016043085858491858	-0.0001167127229464463
2
179000
Ar	-0.00044851799473645125	0.0001669685808405438	0.0031769456888946055	0.009051999215401101	0.02422987193161125	5.816156506378054e-05
Xe	-0.00011315603381235186	-0.00013377429517230245	0.0027989572190218314	-0.007586517845857057	0.0062949592161742045	-2.60454909940989e-05
2
179200
Ar	-0.0002981178990717175	0.00037355005103411557	0.003176956732986919	0.020282609480843504	0.016073927957568054	-5.783006208048473e-05
Xe	-0.00016921461329348232	-5.464699324807907e-05	0.002799230602027207	-0.003344452844719818	0.009154747249756588	9.846822756676839e-05
2
179400
Ar	-6.233029002307352e-05	0.00047318184548076665	0.00317608118832555	0.025715224167272226	0.003365871103173405	-0.00011743061504473983
Xe	-0.00017682690660062367	4.0513713920802944e-05	0.0028004118951791457	0.0018784329575887724	0.009384481986847732	0.00011183941645400482
2
179600
Ar	0.00019108214578461574	0.00043745684427908075	0.003175113937875596	0.023747856746140366	-0.01034503592236597	-8.936730079097817e-05
Xe	-0.00013368546454232809	0.0001242492779761055	0.002801413339807749	0.006512560539750467	0.006957335866050602	8.075543908184262e-05
2
179800
Ar	0.00038993545645454224	0.0002764731367383723	0.0031740958056869625	0.015031539572507337	-0.021062445655496746	-0.0001164707790720704
Xe	-5.28820331778782e-05	0.00017258008852988894	0.0028022749587798853	0.009274014619366945	0.0024997248433947304	7.896759183017229e-05
2
180000
Ar	0.00047756188912016615	3.629015414543477e-05	0.003172799131382746	0.002071465888902351	-0.02578420264548572	-0.00012549885968238172
Xe	4.3213272960615856e-05	0.00017189424252311367	0.002802539558506113	0.009434160793923242	-0.002647691972157486	-2.424124331608955e-05
2
180200
Ar	0.0004293292136928927	-0.00021450340572806885	0.003172498637777795	-0.011491227063583227	-0.023138214286099478	6.654553519163707e-05
Xe	0.00012686945100060825	0.0001219290011223989	0.0028020007004097474	0.006864991397798345	-0.007072230255331095	-8.856069946529091e-05
2
180400
Ar	0.0002586983552689608	-0.00040405785196566646	0.0031735231388460338	-0.021802975949492057	-0.013872329616561374	0.000130502886337551
Xe	0.00017414135796836583	3.730927149091281e-05	0.00280092034140132	0.0023509126662050466	-0.009431117736699766	-0.00012643761304287227
2
180600
Ar	1.4430591479845699e-05	-0.00047828929782377114	0.003175302061833785	-0.02584910010233952	-0.0005993822465207389	0.00018039988138252833
Xe	0.0001714583360836367	-5.775820788259622e-05	0.0027994754530151706	-0.002872049365486681	-0.009145426352563171	-0.00015796035013262776
2
180800
Ar	-0.00023368241690867555	-0.0004156958500811427	0.0031770534230073757	-0.022532808596148163	0.012798188074444383	0.00014343737739823888
Xe	0.00011930021105230794	-0.00013672526213585057	0.0027985620886424602	-0.007306944526043089	-0.006248910359208352	-2.6364524657439476e-05
2
181000
Ar	-0.00041458893761414146	-0.00023418717232324808	0.003177530639835306	-0.01276053779159503	0.02258731288830359	-3.86367244262077e-05
Xe	3.25335766406669e-05	-0.00017682939453798235	0.0027987415935995363	-0.009626413339368426	-0.0015753616399612474	7.835686291515747e-05
2
181200
Ar	-0.00047679299465968407	1.4161013014406087e-05	0.0031765718299169776	0.0006248384826641006	0.02585712941385783	-0.0001557081681061213
Xe	-6.417023845556965e-05	-0.00016653748689064694	0.0027999254671167836	-0.009205511307236654	0.003563275495570167	0.00016111196320846055
2
181400
Ar	-0.00040260763195671957	0.0002583145449785445	0.0031745171497124095	0.013845418624801528	0.02177951577122006	-0.00020868202934832422
Xe	-0.0001425814039343745	-0.00010904572984783652	0.0028014406365119964	-0.006089308420509316	0.007651599942758235	0.00015058390237238458
2
181600
Ar	-0.00021352866628458116	0.00042908180190394445	0.0031730064809996966	0.023052384030849853	0.011525948081275824	-7.380316551496928e-05
Xe	-0.00018019226993595838	-2.085094734380936e-05	0.0028026208653238087	-0.0012275285062385336	0.009566422382733588	5.197919611246394e-05
2
181800
Ar	3.652666424768262e-05	0.00047779558344911724	0.003173074611359741	0.02571682387925981	-0.002031315573648135	8.566049288425526e-05
Xe	-0.00016638470416686324	7.302623187988761e-05	0.0028027323279199738	0.003933735099656078	0.008734000444595236	-3.5635697560561146e-05
2
182000
Ar	0.00027635450176686827	0.00039049067246372924	0.0031744139136308013	0.02108789840558967	-0.015011647534530673	0.00014320935657037145
Xe	-0.00010535226910120606	0.00014570166087272455	0.0028017076535893576	0.00799306459936265	0.005426786828123443	-0.00014234491299501082
2
182200
Ar	0.0004372250584355753	0.0001917588837839871	0.0031755577486217604	0.010322824803200592	-0.02376908945537406	7.262294766940212e-05
Xe	-1.4248247764941516e-05	0.00017666229381367777	0.002800337201894846	0.009794505306544602	0.0006026940760697712	-0.00013207148559368247
2
182400
Ar	0.0004729042733461466	-6.170824526085423e-05	0.0031758828224644287	-0.0033389821269462993	-0.02568904118199715	6.754139554793632e-06
Xe	8.112462728408771e-05	0.00015710805442058448	0.00279937557436945	0.008816549353697207	-0.004395146004085354	-0.00010362514882985042
2
182600
Ar	0.0003734140653351381	-0.0002974101531295175	0.0031757513771892487	-0.01607859307640503	-0.020292553293645144	-1.604863963073107e-05
Xe	0.0001533403207995906	9.272693272770012e-05	0.00279859524423813	0.005275610655889943	-0.00816490199459602	-3.6019089861176275e-05
2
182800
Ar	0.00016702353920859328	-0.00044794306605975176	0.003175601251377342	-0.0241857478138526	-0.009092834270382098	-4.39914567938075e-06
Xe	0.00018166943414598714	1.8566507662215305e-06	0.0027987818171983266	0.0002373130616100556	-0.009586652536866648	7.976624092817273e-05
2
183000
Ar	-8.70661465793277e-05	-0.0004703558386463103	0.003175371682081204	-0.025396325840706228	0.0047166822744559335	-5.4334811869379916e-05
Xe	0.00015798971036150324	-8.992232450552518e-05	0.0028001048168617678	-0.004856717792558977	-0.008327389190603274	0.00018125603789298768
2
183200
Ar	-0.00031626465154491765	-0.00035831655920334684	0.003174653679718856	-0.0193399569611916	0.017163305805283288	-6.244442071155922e-05
Xe	8.905886022092341e-05	-0.00015648246757520327	0.0028017337852440146	-0.00857054008704547	-0.004634628281261905	0.00011830922321181906
2
183400
Ar	-0.00045516859114779835	-0.00014377560916907834	0.0031741139158834378	-0.0077785928898087735	0.024694487149380485	-1.9293105679296402e-05
Xe	-4.9251663055241685e-06	-0.00017856056824760422	0.002802571928439385	-0.009761201720817049	0.00034931566595744235	7.001170128918683e-05
2
183600
Ar	-0.0004643474016881668	0.00011205839779410353	0.0031742440786622812	0.005965872623534094	0.025221158417445752	3.0583950189629874e-05
Xe	-9.667766474199616e-05	-0.0001501112788095686	0.0028026682301279505	-0.00816360061026192	0.0052154227559667735	-2.7015488502446158e-05
2
183800
Ar	-0.00034110315560443016	0.00033624050861480437	0.003174805105985768	0.018070562737058687	0.018509486869503777	6.616475401950731e-05
Xe	-0.00016047356949008436	-7.910183876486354e-05	0.002802000101952431	-0.004295708174909343	0.008633291894039469	-9.983870388955277e-05
2
184000
Ar	-0.00012056856181264952	0.00046436220562254564	0.0031751335890716245	0.024970888071542127	0.006498344027653027	1.3961429251552272e-05
Xe	-0.00017834709496327043	1.4417319295593645e-05	0.0028009072815620116	0.0008045416577516073	0.009604349855249512	-9.228071768187327e-05
2
184200
Ar	0.00013430594979359193	0.0004595379112317385	0.0031750861289316866	0.024758802768563435	-0.007425842582109959	-8.472275292612257e-06
Xe	-0.00014529478329543114	0.00010387698855256002	0.002800208680007597	0.005642094903835242	0.007841243644359952	-6.679475398432052e-05
2
184400
Ar	0.0003509245770718382	0.0003235950194567624	0.003174901456264573	0.017510417877562273	-0.0191032962973482	1.144717051699365e-05
Xe	-7.085030163648622e-05	0.00016392249921232338	0.0027995827097081747	0.008874985994057725	0.003863583588967659	-4.357928307450218e-05
2
184600
Ar	0.0004676946821143064	9.550041504933425e-05	0.0031750173223975193	0.0052493408306073614	-0.025371722914216317	7.1309000494502e-06
Xe	2.391867873293817e-05	0.00017725998581644684	0.0027994840173610155	0.009608145172064575	-0.0012572775295104212	4.302683199287732e-05
2
184800
Ar	0.00045110326186058563	-0.000159502824409474	0.0031751845605296784	-0.008502633857143711	-0.024373879748791943	1.8958132254428858e-05
Xe	0.0001117768115835175	0.0001396911189851937	0.0028002336195499184	0.007553973535594003	-0.006067921952918039	0.0001194676873998605
2
185000
Ar	0.00030560077148083993	-0.0003685790868693744	0.0031750559706997155	-0.019870067514146533	-0.016428298067712427	-2.1492275966695913e-05
Xe	0.00016799581295103895	6.206185498380848e-05	0.0028015244871391716	0.0034057446200977297	-0.00907677620206471	0.00010894390956041558
2
185200
Ar	7.283356492488907e-05	-0.000472252356477219	0.003174914046691657	-0.025532101339458733	-0.003813565811411733	4.157209128942444e-06
Xe	0.0001764912538120781	-3.307050554166756e-05	0.002802417210057834	-0.0017583302408159212	-0.00947745817228677	5.2788895122480204e-05
2
185400
Ar	-0.00018061340901056444	-0.00044108528477581016	0.003174927877668791	-0.023932703056799374	0.009871040962244785	-1.571168080723527e-05
Xe	0.00013439466442646085	-0.00011859289520889663	0.0028022401241837138	-0.006456847304379948	-0.007200313869706342	-9.036027779230288e-05
2
185600
Ar	-0.0003826092451371662	-0.00028430724732838545	0.0031747375807776625	-0.015501673826318386	0.02070468120884026	-1.0928880121113075e-05
Xe	5.3744480566852025e-05	-0.00017012584123695098	0.0028010170218725665	-0.00928681230225368	-0.002871823592014772	-0.00014177375731954446
2
185800
Ar	-0.00047565839288870075	-4.665023160702598e-05	0.0031746055288725443	-0.002660029160302098	0.025653786797596088	-2.2746880520043446e-05
Xe	-4.2381404971026765e-05	-0.00017292111981817056	0.0027996346013214176	-0.009454395756335249	0.002301207608498492	-9.273080157746101e-05
2
186000
Ar	-0.00043308546961449664	0.00020394623432313716	0.00317430621320421	0.010959424192395024	0.023238744724819526	-2.133011397987108e-05
Xe	-0.00012641797123763202	-0.0001261062635853006	0.0027991118085065507	-0.006950485475453175	0.006802870457199776	1.8457121629730074e-05
2
186200
Ar	-0.0002668790277195247	0.0003959872101614605	0.00317426772236518	0.0214520526104823	0.01422485940308656	1.5209640868215791e-05
Xe	-0.00017435034460469047	-4.3278869206085866e-05	0.0027995640025391005	-0.002418045083227644	0.00933956504960004	6.709001142144743e-05
2
186400
Ar	-2.450386464723952e-05	0.0004750342368599575	0.0031748742196670574	0.025844167774121497	0.001202854505998571	8.48318197721782e-05
Xe	-0.00017257028670802322	5.1817920519046176e-05	0.002800427980203007	0.002782517085368862	0.009219087457682448	0.00010671550682009003
2
186600
Ar	0.0002248518108875367	0.0004186610778546316	0.0031757285899044214	0.022793505263104273	-0.012203385438179408	6.78334666680809e-05
Xe	-0.00012148452650693684	0.000131954297876157	0.00280124640346727	0.007167782373836864	0.006427309067624007	6.914178304414447e-05
2
186800
Ar	0.0004096227878252117	0.0002429059604928142	0.0031761875148653214	0.013286897360314931	-0.022084579977372367	3.3516099429442675e-05
Xe	-3.611140442687358e-05	0.00017428309681952338	0.0028017203047964187	0.009513475261934393	0.00183367525893077	2.9939235877682593e-05
2
187000
Ar	0.0004776140085366658	-1.9245072504715837e-06	0.003176126189218702	-3.428129064385244e-05	-0.025686527519169618	-4.1071572386406454e-05
Xe	5.9614457113356534e-05	0.00016682758368710904	0.002801749318981809	0.009162421423293765	-0.0032876525269104995	-5.513823144075217e-06
2
187200
Ar	0.00040932098349312723	-0.0002461879605721821	0.0031755853137946863	-0.013306939052718039	-0.02196280338687496	-6.324485975655857e-05
Xe	0.00013819190253110987	0.00011147808513396743	0.002801235941186056	0.006181777214736547	-0.007491977694500035	-8.241682801762295e-05
2
187400
Ar	0.00022424700400594687	-0.0004203381414938376	0.003175035282929085	-0.02279285113890723	-0.012015855450097866	-3.079990599559213e-05
Xe	0.00017723950866977887	2.432313114245729e-05	0.002800186837012483	0.00145110809350322	-0.009506399185392223	-0.00012116794217989495
2
187600
Ar	-2.467080341004099e-05	-0.0004746064423672444	0.003174828204474996	-0.025798169166850654	0.0014149697735039975	1.5196339139158417e-05
Xe	0.0001656754226349164	-6.950478551886961e-05	0.002798984505568256	-0.00371414120968497	-0.008827416302075014	-0.0001358289959955216
2
187800
Ar	-0.0002668606728739735	-0.00039315129646609246	0.0031750532269403196	-0.021435323472128235	0.014453353278751383	3.6199998869276595e-05
Xe	0.00010645978934291183	-0.00014377661742717818	0.0027980022703486722	-0.007859886935462728	-0.005645018081870278	-3.9172016834550196e-05
2
188000
Ar	-0.00043266528457402574	-0.00019921250216517223	0.003175319585676713	-0.01092175701087714	0.023371594010518255	1.097993463179217e-05
Xe	1.6115091232569524e-05	-0.00017698495963136272	0.002798364204583648	-0.009769973940299517	-0.0008355671028104288	0.0001250260780256388
2
188200
Ar	-0.0004750461047589952	5.157745807274242e-05	0.0031755002665175194	0.0026506653178739086	0.025563996042577895	3.7755645244980354e-06
Xe	-7.928970257337421e-05	-0.0001597457727890179	0.0028001565458273116	-0.008858607563782256	0.004195470131874504	0.000207102617154377
2
188400
Ar	-0.0003819603682190028	0.00028767679013210574	0.0031756286872019327	0.015506486897926502	0.02050241792022306	2.913567179758891e-05
Xe	-0.00015236691797113967	-9.685527285796954e-05	0.0028022078847285605	-0.005393102539935223	0.00807163990830374	0.00019090399407364526
2
188600
Ar	-0.0001800302555353857	0.00044189206658042557	0.0031759455552098797	0.02389779818211729	0.009585558939749468	2.3495819463824086e-05
Xe	-0.0001817311159264431	-6.441087127031041e-06	0.0028035199006340833	-0.0003636636427088971	0.009559831200434767	4.538737660816054e-05
2
188800
Ar	7.345739322598351e-05	0.0004704720474816765	0.0031761210077028332	0.025547644199614323	-0.004023266005702778	-2.39941935143255e-05
Xe	-0.00015905861496240387	8.5522835000549e-05	0.0028028325361613444	0.004792386091908894	0.00836322497663552	-0.0001474190075871706
2
189000
Ar	0.00030619233087344545	0.0003648299975461392	0.003175801300312365	0.019835441375381044	-0.016563853444407278	-3.528359662446488e-05
Xe	-9.078976274993907e-05	0.00015292736599951866	0.0028008317935959803	0.00853307179313558	0.004772818210551128	-0.000225238680689462
2
189200
Ar	0.0004512677696739506	0.00015492662548139145	0.0031752796466470038	0.008474475823844653	-0.024358410530480955	-5.21102984988556e-05
Xe	3.700715109629085e-06	0.00017636362857161633	0.002798931335842827	0.009887521009258769	-0.0002013120810146465	-0.00017053123261697952
2
189400
Ar	0.00046732859880376225	-9.894201183500176e-05	0.0031747486330879608	-0.005341320588289649	-0.025181754032326926	-4.629986167543926e-05
Xe	9.732622719098572e-05	0.00014924362272436022	0.002797869847083776	0.008356311258695103	-0.005092911378449483	-2.3117802903766804e-05
2
189600
Ar	0.0003497323761060851	-0.00032455084779075297	0.003174714230102771	-0.017614515632716772	-0.01882579732350069	5.373747244109844e-06
Xe	0.00016312954342851104	7.945419849236538e-05	0.002798092697432997	0.004444725422214301	-0.008540531468850492	3.881467781565661e-05
2
189800
Ar	0.000132217781295482	-0.00045762287151015335	0.003174922893437748	-0.0248523661294206	-0.007122555552841853	3.898335500040661e-05
Xe	0.00018222889676196922	-1.308685089992418e-05	0.0027988664231732995	-0.0007133114275629709	-0.009522369696148225	9.864451555585854e-05
2
190000
Ar	-0.00012318276088045025	-0.0004601786350356524	0.003175216878625747	-0.02499270223699163	0.0066224658547554575	2.1135829912259012e-05
Xe	0.0001492390282230538	-0.00010173981617651402	0.0028003272106247954	-0.00571371956057628	-0.007745072600096198	0.00016020585711741574
2
190200
Ar	-0.0003434270046706942	-0.0003314889515268568	0.003175493823513312	-0.017980923192508262	0.018485400793936655	2.0052135694772785e-05
Xe	7.36131237385637e-05	-0.00016102355323280212	0.002801797785138211	-0.009063096260540738	-0.0038028075760345188	0.000111161387893371
2
190400
Ar	-0.00046548947589124284	-0.00010830633075833248	0.0031753438595519766	-0.005846705105277216	0.02505198603531496	-3.516531782242001e-05
Xe	-2.307630027944227e-05	-0.0001742484728631532	0.0028022304254573947	-0.009766793903582765	0.001204783673751066	-2.235196967453412e-05
2
190600
Ar	-0.0004547837236048563	0.00014549486000489472	0.0031752514347962043	0.007936819998228994	0.024462301537787196	2.4801536747531267e-05
Xe	-0.00011266612410581065	-0.000138200309185687	0.0028015755926574896	-0.00768379448337433	0.005848175388151439	-0.00010752458940835586
2
190800
Ar	-0.0003144905478386749	0.00035754136719892276	0.003175692186559197	0.019434066781842466	0.016919979918141727	2.5828855496228885e-05
Xe	-0.00016947199001651409	-6.274748788689251e-05	0.0028002063054608966	-0.0034170194424644174	0.008882114631685263	-0.0001658902494549661
2
191000
Ar	-8.462147678574697e-05	0.0004677735266592773	0.00317572990825583	0.025437077747349244	0.0045787763726167306	3.3236671165154405e-06
Xe	-0.00017783983903028408	3.0753449459683124e-05	0.0027987476697817243	0.00176031019509494	0.009355970222508584	-0.0001075187134222062
2
191200
Ar	0.00016963958581066703	0.0004445176184826177	0.0031756073826945627	0.024145305256886147	-0.009112561988382626	-1.537193632895607e-05
Xe	-0.00013551295439449243	0.00011568829520185562	0.002797962864750567	0.006500711678431208	0.007230281005640334	-4.961643761915467e-05
2
191400
Ar	0.0003751469815579758	0.0002944107451990025	0.003175665951738867	0.01594492713655764	-0.020173691216482877	7.952981684485108e-06
Xe	-5.44586311269419e-05	0.00016811468697368039	0.0027980380383196167	0.009306210517353603	0.002991271735580315	5.2391261336587516e-05
2
191600
Ar	0.0004732332257648167	6.041073505029529e-05	0.0031760226538485085	0.003192129847480588	-0.02549010656162819	4.348087966023804e-05
Xe	4.204127972256706e-05	0.00017252924402451198	0.00279917341869405	0.009502193562493292	-0.0021154638800126723	0.00015337381360840084
2
191800
Ar	0.0004363677877706201	-0.0001905083985251609	0.0031764976136420546	-0.010388302673410761	-0.023488861079255872	5.983887919778458e-05
Xe	0.00012617597853416794	0.00012793512928721958	0.002800481363981007	0.006939778397116777	-0.006591705813854041	0.00011310990569492581
2
192000
Ar	0.0002752317220038568	-0.00038701207004250375	0.0031766563245935182	-0.02104845687461907	-0.014829276924367139	-4.729490012485213e-07
Xe	0.00017431704073183582	4.69053138596853e-05	0.002801176474207268	0.0024380187157124057	-0.00921054244068152	2.205683781796857e-05
2
192200
Ar	3.545293132881553e-05	-0.00047289957094790114	0.003176368493028625	-0.0257571886548429	-0.001914464528166776	-4.7770780891669516e-05
Xe	0.00017259740816614867	-4.74434585859286e-05	0.0028009188575127105	-0.00278353275477245	-0.009192341523802163	-5.260595857529369e-05
2
192400
Ar	-0.0002145602129598926	-0.00042363048419118897	0.0031754477096878095	-0.02303350781564879	0.011512523397390537	-0.00010953137872399676
Xe	0.0001213876846341126	-0.00012823290702956462	0.0028002296198130325	-0.007196080574771194	-0.006564291919317963	-7.953623601226121e-05
2
192600
Ar	-0.00040309286736767315	-0.000253755967697685	0.0031744502674530494	-0.013745451305889757	0.021644879507736896	-8.9748311905616e-05
Xe	3.560912491231914e-05	-0.00017228015470806125	0.0027995044279058856	-0.00952510565815198	-0.0020363437191665327	-6.337834364813504e-05
2
192800
Ar	-0.00047653783177043277	-1.127689450684046e-05	0.003173817899381192	-0.0005695933101947899	0.0256689794636094	-2.3581279152473388e-05
Xe	-5.994582238542337e-05	-0.0001670149460440779	0.0027988624681533586	-0.009114570976996089	0.0030783698384113964	-4.3008361190735977e-05
2
193000
Ar	-0.00041404388736316397	0.0002348028536031188	0.003174268577001305	0.012760178236340972	0.022351661686163742	0.00010735141874602677
Xe	-0.00013826977038175074	-0.00011388284752599343	0.0027988425851372166	-0.006146850108487514	0.007299242273044647	1.7005361666374076e-05
2
193200
Ar	-0.0002335180841915505	0.00041410744529857203	0.0031756148680472567	0.022441619711542772	0.01264533249511968	0.00014396964406768027
Xe	-0.00017729752364880735	-2.8041121244924885e-05	0.002799298589263712	-0.0014405791313013025	0.009455657153181675	4.4283853929064954e-05
2
193400
Ar	1.34835867434491e-05	0.00047541711691019675	0.0031770028537761856	0.025745173556150153	-0.000679973987713243	0.00011057572589118716
Xe	-0.00016576191882787498	6.599525788038069e-05	0.0027999724949656648	0.003686515034148493	0.008872252931035248	6.467590465960179e-05
2
193600
Ar	0.00025637519745281043	0.0004009541276131218	0.0031774538702491143	0.02165748679216461	-0.013854235293241984	-3.0502537102615164e-05
Xe	-0.00010679443214438765	0.000141000280011881	0.0028004129964431875	0.007787563372407489	0.005778653795618792	1.6531886583007402e-05
2
193800
Ar	0.00042585777826956525	0.00021184313398604546	0.0031766507144493634	0.01141891687822841	-0.02302856319288212	-0.00012089216675534714
Xe	-1.7651955385210472e-05	0.00017587842955157695	0.0028005533408238946	0.009623064330514824	0.0010125779161974896	1.1589232475811248e-05
2
194000
Ar	0.0004737844397152182	-3.7645500480197497e-05	0.0031751984992687376	-0.002058060546098215	-0.02565773417295189	-0.00013975016197677423
Xe	7.652461859862972e-05	0.00016034986403489938	0.0028002208832097553	0.00876649105358904	-0.0040240521504194635	-5.58608744796179e-05
2
194200
Ar	0.0003868233053176572	-0.00027671997697840814	0.0031742118947521276	-0.014925850919333378	-0.020987670701609177	-3.484697906236507e-05
Xe	0.00014921081255057656	9.908469501718099e-05	0.002799587325575888	0.005409617880430719	-0.00790682462561085	-7.059239136796975e-05
2
194400
Ar	0.0001896466401815776	-0.00043704347933183087	0.003174350012637717	-0.023546016645963022	-0.010275642363927723	4.125215968141061e-05
Xe	0.000179610806124304	1.0143714192871637e-05	0.0027989842221893056	0.0005225452124029406	-0.009475458810054167	-3.683456298864239e-05
2
194600
Ar	-6.151611105039231e-05	-0.00047231575928900434	0.003174839354483963	-0.02546422880582459	0.003391510372627567	5.845212091015682e-05
Xe	0.00015877305919596182	-8.141406938032705e-05	0.002798945331759995	-0.004587100569011982	-0.008393500571728997	3.315001227831242e-05
2
194800
Ar	-0.00029531557965683353	-0.00037268352057048256	0.003175544250377029	-0.020136052049173434	0.016069103371959863	7.880561786645776e-05
Xe	9.238308013127957e-05	-0.00014979042641819745	0.002799558085035959	-0.008364420658326134	-0.004942618550450367	9.101232683780285e-05
2
195000
Ar	-0.0004449417522362651	-0.00016669261244146776	0.0031762480150281497	-0.00905990455294746	0.02414085835190301	5.760664804926062e-05
Xe	-3.3799674799253133e-07	-0.00017517581280160439	0.002800690531839992	-0.00972791023115198	-1.732502185096973e-05	0.00010749424596629834
2
195200
Ar	-0.00046790203578443197	8.679189598397857e-05	0.00317688576351258	0.004590674609247038	0.02532539728860839	4.283302370501512e-05
Xe	-9.303804844907648e-05	-0.00015017672979044842	0.0028013269295270645	-0.008350461699284138	0.004879542997927007	2.0953806656811854e-05
2
195400
Ar	-0.00035762167376124316	0.000315691335941492	0.003177072989622251	0.016963314800185075	0.019352270943665217	-1.1938903797453192e-05
Xe	-0.00015906493915367922	-8.211315641746914e-05	0.002800933482754964	-0.004548007570289693	0.008383094813378053	-7.325469492602882e-05
2
195600
Ar	-0.00014472697351918838	0.000454793189491279	0.003176625163672113	0.024562451873681845	0.007801258148945664	-9.849639898310186e-05
Xe	-0.0001796410742717029	9.306316574533437e-06	0.002799863414890075	0.0005370897229588094	0.009468805770803747	-0.000102891528886372
2
195800
Ar	0.00010970245551309061	0.0004641881264017724	0.003175233602878727	0.025104943933231753	-0.005983713109485919	-0.00016465697162596215
Xe	-0.00014870373794656733	9.833447945398106e-05	0.0027991637045865743	0.005477318400628459	0.007913160649992949	-5.6867304420639104e-05
2
196000
Ar	0.0003329162890868471	0.0003410976126687678	0.0031739391103525224	0.018435247976028562	-0.018042354954068713	-7.846281147015479e-05
Xe	-7.529174090811346e-05	0.0001597485374663874	0.002798939391289069	0.008851164467059	0.004062139490672895	-3.8268497061289845e-06
2
196200
Ar	0.0004608835973989304	0.00012075762659171365	0.003173911650279729	0.006539683842428716	-0.024959152046702644	8.32025038790236e-05
Xe	1.974949723016876e-05	0.00017563365850124557	0.002799463014694208	0.009683669017493533	-0.0009635060816549267	9.62365408315588e-05
2
196400
Ar	0.0004573924253297086	-0.00013427366366804112	0.0031751635312292316	-0.007205404362766272	-0.024780905650714963	0.00017279529018608423
Xe	0.00010890579157429621	0.00014141875407075121	0.002800322659971309	0.0076928733442741815	-0.005722971502157752	9.68764709576603e-05
2
196600
Ar	0.0003236172884586256	-0.0003510980311594587	0.003176693527086774	-0.018908877844477943	-0.01754344560286015	0.00012160990483598528
Xe	0.00016669412724341847	6.674363952196294e-05	0.0028008981121502496	0.003569387394595434	-0.008857442922722968	4.876917240636772e-06
2
196800
Ar	9.748328404719125e-05	-0.00046803314767067205	0.0031772594498867433	-0.02519916212264276	-0.005253913802571156	6.352587857064058e-06
Xe	0.00017692541160929087	-2.7186968901710572e-05	0.0028007886010312415	-0.0015798534500645206	-0.009484857630109622	-2.5274882137892452e-05
2
197000
Ar	-0.00015647338742023976	-0.000451273698419367	0.0031767445186340086	-0.02432033527267842	0.008508283439565379	-9.16251897394104e-05
Xe	0.0001367100187839685	-0.00011370644355112381	0.0028004345511664108	-0.006269953565744838	-0.007396796071966313	-5.407265806579909e-05
2
197200
Ar	-0.0003655860133212763	-0.00030599294026826217	0.0031755666488952937	-0.01649177995140076	0.019854213408002568	-0.00012121026232746688
Xe	5.743982091348227e-05	-0.0001678268657927463	0.00279975562231935	-0.00918782650255891	-0.0031492132250915297	-7.274684903245517e-05
2
197400
Ar	-0.00047053565615188	-7.356681857747598e-05	0.0031745234137747556	-0.003972490966879108	0.025515417357325338	-4.477536468576896e-05
Xe	-3.81879086147174e-05	-0.00017406456784308847	0.0027994455520143533	-0.009485146574189071	0.0019516242150256647	2.405264456540891e-05
2
197600
Ar	-0.00044137521916137967	0.00017979725378687553	0.0031744868258042147	0.009679312000488419	0.02390587138232614	4.385981156023945e-05
Xe	-0.0001228699929608018	-0.00013070559929946433	0.002799569063186074	-0.0070528103671501155	0.006507307617017674	2.0842671939870682e-05
2
197800
Ar	-0.0002862461213710501	0.0003817213454350787	0.0031752733986436625	0.020591296239109963	0.015488780858642638	0.00011336163483816313
Xe	-0.00017258245666370344	-5.001531551307179e-05	0.002799857799288314	-0.0026605554087140806	0.009232121379181973	2.5720404083456208e-05
2
198000
Ar	-4.932240993794881e-05	0.0004748177340182498	0.0031759731810540835	0.025611545598562498	0.0026742631862190546	3.990290263904449e-05
Xe	-0.0001730440689447253	4.491461243252926e-05	0.0028000554572766892	0.0025687884143098722	0.009270605033623546	-2.053080362586156e-06
2
198200
Ar	0.0002014925911363433	0.00043263491101169717	0.003176105030801168	0.023315850524208856	-0.010904341090839178	-3.053499121332329e-05
Xe	-0.00012382869130639614	0.00012694784426748253	0.0028001786877680387	0.007031271885193436	0.006726953985258407	4.918560569804315e-06
2
198400
Ar	0.00039475071591996917	0.0002669517727977791	0.003175699243059534	0.014390552305013835	-0.021407723283174182	-3.123514436411208e-05
Xe	-3.917205304239508e-05	0.00017270273682272507	0.0028004098760031093	0.00945690038629333	0.0022124182957682184	2.5660346031528814e-05
2
198600
Ar	0.0004758319083698992	2.526560349155387e-05	0.0031754486871540736	0.0014250165525952958	-0.025749870398968443	-5.833739548937721e-06
Xe	5.6498762144140116e-05	0.00016914516374921053	0.0028003027731174136	0.009205017746834326	-0.002899599085736738	-3.4416805914998464e-05
2
198800
Ar	0.0004217341369548265	-0.00022349929274696466	0.0031755450322667896	-0.012007396549793915	-0.022789609645612736	1.0517963026827514e-05
Xe	0.00013592401145201254	0.00011744792968188698	0.0027997825593164736	0.0062923110256770665	-0.007208432259691161	-5.4135227163846384e-05
2
199000
Ar	0.00024714025881536326	-0.0004083130478985837	0.0031756891270281985	-0.022062345779138213	-0.013269473379924056	1.465546290193548e-05
Xe	0.0001766068233526297	3.227278978912757e-05	0.0027991229122249946	0.0016515621949715856	-0.009450354974403549	-5.6881548989427384e-05
2
199200
Ar	1.8486737162054482e-06	-0.000476460308872376	0.003175991082392476	-0.02580599540889169	-3.427396330181901e-05	4.507518208156644e-05
Xe	0.00016729442085991925	-6.218676386205186e-05	0.002798922983572822	-0.0034608902871776284	-0.008977244854503574	2.0934062713776937e-05
2
199400
Ar	-0.00024394939749819905	-0.00040912148450872527	0.003176263350869266	-0.022150163907469756	0.01317713423841873	1.1387548189082288e-05
Xe	0.00011069652630719275	-0.0001388120464821889	0.002799556037611687	-0.007562230657237788	-0.005962776341199521	9.124441279759744e-05
2
199600
Ar	-0.0004198589179636583	-0.0002254783831590848	0.0031763925093762913	-0.012184986715614432	0.022653628150087927	1.875027395359101e-05
Xe	2.2761222072744953e-05	-0.00017609962579519535	0.0028004414869012995	-0.00956861433369375	-0.0013182941116725354	6.564528020526226e-05
2
199800
Ar	-0.0004760168651861252	2.2384922123072833e-05	0.0031766001165113742	0.0012287414132225933	0.02573439436821365	5.21402774452328e-06
Xe	-7.153250045427505e-05	-0.00016371070739030745	0.002800733927724572	-0.008820308649346296	0.003739832617162633	9.658925837747845e-06
2
200000
Ar	-0.00039656701141564367	0.0002641344287187264	0.0031763172031891575	0.014291163202036238	0.021429574599749777	-6.040149648266376e-05
Xe	-0.00014534827914112398	-0.00010470355751001164	0.0028006526646250454	-0.0055835383722300045	0.007774782005029613	-2.2286744149806333e-05
2
200200
Ar	-0.00020404853381823817	0.00043034436379998865	0.003175570408901101	0.0232656983246849	0.010998070819666075	-8.896459878642552e-05
Xe	-0.0001779120450262455	-1.5721268042285776e-05	0.002800287249779573	-0.0007534162980987901	0.009591385926358165	-5.220319363185394e-05
2
200400
Ar	4.6510716913767264e-05	0.00047388268149088083	0.0031747325142608617	0.025618893015346835	-0.002519820203541797	-7.844533684563087e-05
Xe	-0.00015970857278365053	7.788279373948398e-05	0.002799448438632116	0.004312168134145144	0.008663167702613932	-7.248688634155757e-05
2
200600
Ar	0.00028373542233512214	0.0003822083074750542	0.0031744186808518008	0.020667820588686908	-0.01534745494810232	9.606473209222308e-06
Xe	-9.571718045553534e-05	0.00014903435539377708	0.0027987463218029315	0.0081447483767183	0.005248821621147595	-3.491534884195385e-05
2
200800
Ar	0.00043981666241212926	0.0001817173409108661	0.0031747011626193943	0.00977772937440913	-0.023777614417550347	2.1996158965627128e-05
Xe	-4.6831524377429255e-06	0.00017785407205855	0.002798384749239838	0.009643782708392367	0.00035574072677667986	-2.295975103112825e-05
2
201000
Ar	0.00047022941645426865	-7.07649203522924e-05	0.003175076122825349	-0.00385480266260169	-0.025484634851968373	5.66854266093414e-05
Xe	8.785175607445845e-05	0.00015596800107508084	0.002798467429340445	0.008424498460597205	-0.004612528096260582	4.371419673147134e-05
2
201200
Ar	0.00036666820956682283	-0.00030335741461467346	0.0031756297434858806	-0.016366872339128792	-0.019884133907992284	5.4468951690831495e-05
Xe	0.0001556742831583051	8.961109238335371e-05	0.0027991420741846317	0.004823076649963292	-0.008339110306510475	0.00010298994131752448
2
201400
Ar	0.0001586359771001583	-0.000449402636513096	0.0031761632771780293	-0.02421906188586497	-0.008594352361333662	5.4578337004840705e-05
Xe	0.00017955477722924083	-2.565772965379231e-06	0.0028001462869324035	-0.00015161457474594396	-0.009644631119672883	0.00011759789620272693
2
201600
Ar	-9.477954264401647e-05	-0.00046693393873112316	0.003176494769581941	-0.025233827404055185	0.005164992035194934	-1.3576212154947893e-06
Xe	0.00015278497452396987	-9.383285692192753e-05	0.00280112896439951	-0.0050903020890180175	-0.00817548479536928	7.344931254895935e-05
2
201800
Ar	-0.00032136219907127217	-0.0003510864838297515	0.0031760455553832	-0.01897411962609454	0.01741893716134392	-5.884511055528419e-05
Xe	8.25087417236961e-05	-0.00015831876614036565	0.0028015398828957344	-0.008639803274321307	-0.004398679904900413	3.300643690933536e-05
2
202000
Ar	-0.0004564215937059684	-0.00013518758990084244	0.0031754642856928164	-0.007359445355067615	0.02469020307203134	-4.628506292542961e-05
Xe	-1.1398309793035568e-05	-0.0001775743100648661	0.0028016074426196595	-0.009687774047915945	0.0006481918380858899	-3.050358234870736e-05
2
202200
Ar	-0.00046124500801827907	0.00011922448239683833	0.0031750321701122294	0.006417988776677695	0.024954067736064373	-4.7658523816564705e-05
Xe	-0.00010168141415709762	-0.00014605356228174058	0.0028009294570819723	-0.007922560371633889	0.005494192559813898	-0.00010189947851913512
2
202400
Ar	-0.00033437965457417426	0.00033975062300933595	0.0031747413423496725	0.018348200655443556	0.018072546755161116	-2.0105142759058425e-05
Xe	-0.00016286060328041626	-7.306013934758945e-05	0.002799718236079806	-0.0039923121219731725	0.008760615098641381	-0.00012617896203709838
2
202600
Ar	-0.00011203632657467184	0.00046325429267981996	0.003174592645657476	0.02502086990108289	0.006038286655340277	9.696079514104272e-06
Xe	-0.0001775725164066421	2.0686364846464755e-05	0.0027988766429411223	0.0011255641244478608	0.009525907356374163	-3.278816277369677e-05
2
202800
Ar	0.00014224039283499405	0.0004545847262158532	0.0031750038058202122	0.024567842887936422	-0.007714471837084953	5.7525387601958934e-05
Xe	-0.00014170528169580156	0.00010844077091294889	0.002798996109138898	0.005885028927896617	0.007574517005815681	2.3874990148837184e-05
2
203000
Ar	0.0003560162876657832	0.00031648000482434796	0.003175798415334233	0.017125524103896055	-0.019252312903805455	8.493951169791345e-05
Xe	-6.520931809833399e-05	0.00016502232627184322	0.0027995762092995714	0.009049349299039496	0.003470888111001324	0.00010251967247233994
2
203200
Ar	0.00046818384008040146	8.791389054155021e-05	0.0031764321401698626	0.00475620186205549	-0.02533414439919421	1.6491751525042435e-05
Xe	3.0151993273867544e-05	0.0001746686623590539	0.002800573146539408	0.00955982689423187	-0.0015948322164140404	7.532467856297562e-05
2
203400
Ar	0.0004466862613881533	-0.00016596316712151206	0.003176200136270227	-0.008944789178742288	-0.0241872625476831	-4.4236514648731707e-05
Xe	0.00011676416794856717	0.0001343240853342833	0.002801301326060649	0.007345101267727736	-0.006243485289471915	6.773027216976938e-05
2
203600
Ar	0.0002975312472494073	-0.0003728507314979607	0.003175962711507324	-0.020141364542683993	-0.016182420017237735	-3.777254323867506e-05
Xe	0.00016997486197375158	5.564249370757715e-05	0.0028014471287135974	0.003048997813918327	-0.009075336533893696	-2.8643767185616183e-05
2
203800
Ar	6.321052681966949e-05	-0.0004735552970826915	0.003175367102871022	-0.025581879869409907	-0.0034702324539631277	-8.336925127380535e-05
Xe	0.00017496645882351177	-3.8521946474506895e-05	0.0028009977216533173	-0.0020722913401492044	-0.009315008306863149	-7.431267419853096e-05
2
204000
Ar	-0.0001893664788490771	-0.0004390567078871788	0.0031746434901702265	-0.023706963916706878	0.010211156986407885	-6.293513226179146e-05
Xe	0.0001302848658399556	-0.00012180330500856377	0.0028001865823099824	-0.006665018524880054	-0.006913290042018404	-7.816593119403056e-05
2
204200
Ar	-0.00038782167260520634	-0.00027916562578046337	0.003174442902669546	-0.015003378442290861	0.020981631526436447	1.3027606744661865e-05
Xe	4.8121608829388863e-05	-0.0001705397188345009	0.0027993962136084855	-0.009368897116878524	-0.0025853582709623618	-4.813341399000298e-05
2
204400
Ar	-0.0004753690203970805	-3.949956023042356e-05	0.0031749654670482556	-0.00205946383222672	0.025754156621259867	7.611117844820171e-05
Xe	-4.780681836892681e-05	-0.00017081877429658626	0.002799150979352752	-0.009341685778120773	0.002537825811834743	-8.109317812325827e-06
2
204600
Ar	-0.0004273021497535118	0.00021140687341873198	0.0031756171774950616	0.011444585265365567	0.023195256075611844	5.2129772533135805e-05
Xe	-0.0001299982456101749	-0.00012203804593250594	0.002799450212887089	-0.006698779129109001	0.006977010283754272	3.27158961609287e-05
2
204800
Ar	-0.00025746749057286157	0.00040196496659505236	0.0031758288386357337	0.021702835471683293	0.013980131195981512	-1.1113733030044086e-05
Xe	-0.0001751460664517418	-3.819938681241981e-05	0.0027998959059665064	-0.0021198095374512864	0.009378699139977714	8.207832358058363e-05
2
205000
Ar	-1.3936928589986056e-05	0.0004776826408033048	0.0031754665102232747	0.025821993179148774	0.0007778139675908394	-5.583180326548942e-05
Xe	-0.0001704523096610716	5.6694509037732745e-05	0.0028008897047128705	0.003032283988510052	0.009136337939530571	8.75956210056313e-05
2
205200
Ar	0.00023377893752943817	0.00041706178202914493	0.003174977754383535	0.022502248405310427	-0.012631583317577577	-3.4907409687344104e-05
Xe	-0.00011727848192539599	0.0001355195691773077	0.00280157807478806	0.007349501189576181	0.006231112074461625	2.6582645352520966e-05
2
205400
Ar	0.00041462421233611646	0.00023754725734901873	0.0031747288877888445	0.012810278891959162	-0.02239913737023935	-2.5536690528322654e-05
Xe	-3.077310949611496e-05	0.0001752502433085761	0.0028017178807976735	0.009529461817898991	0.0015222547673203245	3.20898451354702e-06
2
205600
Ar	0.00047741027912354497	-9.442468687422337e-06	0.003174598662679587	-0.0005428465184694422	-0.02578487264059677	1.0574954783622869e-05
Xe	6.414730555877308e-05	0.0001648815648542392	0.0028015064897463763	0.008999168687670636	-0.003547010720377662	-6.798091570998543e-05
2
205800
Ar	0.00040427992622392965	-0.0002534659824714829	0.0031752055788992904	-0.0137425407790758	-0.02183317875084007	6.128291178235638e-05
Xe	0.00014056650703211365	0.00010758147352421417	0.0028004876073601825	0.00590212692185718	-0.00761658728572108	-0.00011464245999337521
2
206000
Ar	0.00021591936336407694	-0.00042514999432355187	0.003175705774273075	-0.023027917394712456	-0.01164578408048356	3.1726277011323406e-05
Xe	0.00017646834888637532	1.994861208679163e-05	0.002799576024806374	0.0010988171107366004	-0.009497308090981456	-7.661251401702319e-05
2
206200
Ar	-3.408812111310861e-05	-0.00047515339371747184	0.0031757642364988	-0.02575879559908541	0.001877489015796336	-2.2203055529204323e-05
Xe	0.00016186470202652733	-7.339418903726614e-05	0.0027990880438635564	-0.003947912727794478	-0.008709632171756503	-2.3803941466653198e-05
2
206400
Ar	-0.00027436232290669444	-0.0003894298666079234	0.003175610730096016	-0.021110235653817064	0.014825267420201136	-1.0041295392290951e-05
Xe	0.00010107631958867615	-0.00014587997694430485	0.002799261005258829	-0.007890056517393518	-0.005450968469138715	5.7519729831789915e-05
2
206600
Ar	-0.0004362524965640916	-0.0001925120538445813	0.003175515588562391	-0.01047490807936471	0.023578740183349593	-1.3978537745846774e-05
Xe	1.1472158260639692e-05	-0.00017696632517542348	0.0028000217889611245	-0.009603605129478474	-0.000623896383752748	7.767207225022749e-05
2
206800
Ar	-0.00047351400902508474	5.9478373539611164e-05	0.0031752109632730728	0.003198841122868197	0.02556297612360139	-7.109183417439993e-05
Xe	-8.174442319485937e-05	-0.00015760144089696428	0.002800848786054139	-0.008583614847820014	0.004394533657556079	8.133581782323319e-05
2
207000
Ar	-0.0003754868891166395	0.00029422777643052023	0.003174322443331805	0.01590414779394331	0.020233911131957688	-8.32172847789428e-05
Xe	-0.00015169506934390844	-9.313033959823815e-05	0.002801444626250302	-0.005059498591823917	0.008181402264973407	4.286191126735705e-05
2
207200
Ar	-0.00017034419349193063	0.0004451277051639793	0.003174064481141225	0.02412501464602627	0.009185268173129145	1.7687304732935827e-05
Xe	-0.0001779617396459473	-1.6868433897247551e-06	0.002801518895507494	-8.32679702527589e-05	0.009643078379252712	-2.660749596372149e-05
2
207400
Ar	8.360343112749078e-05	0.00046934035626988854	0.0031747338178925847	0.025407986946452882	-0.004483859781671616	0.00010525694563208052
Xe	-0.00015341946240867875	9.016077634381382e-05	0.0028010504302652364	0.004866674343464376	0.008289342128510445	-6.50231147146106e-05
2
207600
Ar	0.0003134185787475093	0.0003595356553792668	0.0031760314820794265	0.019443770706435905	-0.016946200882752324	0.00012628037243407774
Xe	-8.499978528020384e-05	0.00015622129952015673	0.002800363820589918	0.00847191925444336	0.004618044391466266	-8.209960581239819e-05
2
207800
Ar	0.00045388551931633495	0.00014692766025548523	0.00317682864380544	0.007956011816903233	-0.024539642101805384	3.0886945975897267e-06
Xe	7.712659587630523e-06	0.00017792661595593097	0.0027996416392046617	0.009645599480368793	-0.0003908273485596582	-4.2181590189748366e-05
2
208000
Ar	0.0004648603637742147	-0.00010736045458348758	0.0031765923376423848	-0.005825778151063232	-0.025085254575024377	-6.311727780227791e-05
Xe	9.845838290025965e-05	0.00014879398939097218	0.002799342608952327	0.008075048961437754	-0.0053091564093813316	2.3946420275967364e-06
2
208200
Ar	0.0003428793747502291	-0.0003306864243823911	0.0031756705871740527	-0.01796615517151929	-0.018497037298094692	-9.603475784655848e-05
Xe	0.00016116510208085896	7.712019432117087e-05	0.0027994357738818196	0.004166733657011007	-0.008685711071626613	2.212313662068782e-05
2
208400
Ar	0.00012281349053393478	-0.00045947820000435307	0.0031746437940276613	-0.024961422900363076	-0.0066442978863326466	-6.583649510814252e-05
Xe	0.00017802212198506968	-1.6655648792896336e-05	0.002800004722892	-0.0008807278727753936	-0.009611812658014548	8.745031796774477e-05
2
208600
Ar	-0.00013224049311546718	-0.0004570470332183651	0.0031746193322449326	-0.02481560565060954	0.007124192442060023	4.405601416063981e-05
Xe	0.0001443676812664562	-0.00010568132762495702	0.0028006753885452713	-0.0056775813554790664	-0.007763632239185389	3.084277504182674e-05
2
208800
Ar	-0.00034978523711059865	-0.0003242017002872786	0.003175129958721579	-0.01763520652241005	0.018806453388025828	6.892690940424432e-05
Xe	6.977465534754804e-05	-0.00016461917072244482	0.002800587682656281	-0.008876599197232654	-0.003741645900099897	-4.0295358625169755e-05
2
209000
Ar	-0.00046776056751021483	-9.862178495228986e-05	0.0031756886806546827	-0.005389758495564538	0.0251933589586762	5.3879834972025024e-05
Xe	-2.4748084318744577e-05	-0.0001766755658646777	0.002800008982747142	-0.009574149508258996	0.0014077417230308204	-5.5073503744523125e-05
2
209200
Ar	-0.00045221787903718135	0.00015532760721689672	0.0031759895235482023	0.008430985711196737	0.024348419386178134	3.152873265815085e-05
Xe	-0.0001123747142457549	-0.0001379630540673428	0.0027996952981357804	-0.0075314717440374416	0.006115708123312026	-3.4045136476026325e-05
2
209400
Ar	-0.00030738335204268737	0.0003649445386132662	0.0031759893856882376	0.01980263894263914	0.016531665776973566	-2.354996125554532e-05
Xe	-0.00016842344684806762	-5.970061553799989e-05	0.0027996007939496146	-0.0034072228282313144	0.009137060769657855	2.484705221371478e-05
2
209600
Ar	-7.484540303855249e-05	0.00047012647577948	0.0031756947614763904	0.025545118568841556	0.0040112345401448115	-1.079858298345021e-05
Xe	-0.00017679230812190855	3.57781255904734e-05	0.002799771241007405	0.0017477837213859477	0.0094727611787263	2.006013327393982e-05
2
209800
Ar	0.00017879629729800558	0.00044129691358483	0.0031754874896782765	0.023932628803054863	-0.009641871448856462	-3.8149454903119205e-05
Xe	-0.00013499997421744788	0.00012085263740493144	0.0028000474801220658	0.006411372471835638	0.007142610345912721	3.212528286327278e-05
2
210000
Ar	0.0003813234456019824	0.00028641484759776446	0.0031751457312171184	0.015536105050032991	-0.020588421791947406	-6.788021639015168e-05
Xe	-5.472912760255058e-05	0.00017150995027583895	0.0028005234253671253	0.009243851071129282	0.002734545549526425	5.570690211850066e-05
2
210200
Ar	0.0004746481318204445	4.9391860841298346e-05	0.003174701764450126	0.002656980475943794	-0.025639101193053463	-4.5746829777551336e-05
Xe	4.103510484245515e-05	0.00017294120136653878	0.0028011045927359463	0.009449035426503523	-0.0024343006860072704	5.894707747488772e-05
2
210400
Ar	0.00043217321903217916	-0.00020161830681283334	0.003174415546304098	-0.010930609176968961	-0.023334565560215913	1.612387523188176e-05
Xe	0.0001248763581452919	0.00012520278808083725	0.0028015081597200647	0.006923771948442912	-0.006886860407433263	2.495861903200998e-05
2
210600
Ar	0.0002665161662276766	-0.0003948838231216191	0.003174821511733527	-0.02137581354598535	-0.01438422213082582	5.9474055601956457e-05
Xe	0.00017266928196029896	4.212525229428309e-05	0.0028015953515231323	0.0024223312033876906	-0.009336021654923348	-7.1545291697983185e-06
2
210800
Ar	2.475678783182521e-05	-0.0004756837222034934	0.003175443053849965	-0.025785934216800314	-0.0013554881618856908	5.140365347468837e-05
Xe	0.00017100014112902932	-5.286075844562618e-05	0.002801304658155944	-0.0027359885805884974	-0.009194005602395024	-4.483242551914693e-05
2
211000
Ar	-0.00022425084007362362	-0.0004205862699358718	0.0031758302855568123	-0.022829348772689943	0.012099659293493657	3.250779278222366e-05
Xe	0.00012033131126415429	-0.00013272611574587285	0.002800561298149151	-0.007137126289938037	-0.0063917991546494244	-8.857011822379328e-05
2
211200
Ar	-0.00040933995453407477	-0.0002453618455862854	0.003175985775093269	-0.01325710923902577	0.022071321867149996	6.651724745825843e-06
Xe	3.507979008681296e-05	-0.00017446598631801354	0.0027997055814099996	-0.0095039687815137	-0.001758447011847879	-7.883509270967329e-05
2
211400
Ar	-0.00047697762716372873	-1.043292024205392e-07	0.0031758090092436544	6.797208498766279e-05	0.02575631786395255	-4.021424080088352e-05
Xe	-6.059070690645326e-05	-0.0001659142614224672	0.0027991563217725163	-0.009162924299998928	0.0034117117658997876	-2.8747407384859077e-05
2
211600
Ar	-0.00040842025906951817	0.0002450371630381985	0.00317508130014202	0.013298928460952061	0.022072700782790212	-8.865358058120314e-05
Xe	-0.00013931143249669363	-0.00010987778068831019	0.002799182676113982	-0.006194729482883987	0.007530396246692282	-3.2479837394679413e-06
2
211800
Ar	-0.00022386250545109037	0.0004203801531681829	0.003174632760102769	0.022728259045614922	0.012127324865808073	-1.53547853398117e-05
Xe	-0.00017814566870958716	-2.2461551243112528e-05	0.00279949296981102	-0.0014088778291869238	0.009492445793811368	4.695308692492549e-05
2
212000
Ar	2.4648659263747172e-05	0.00047593749462481166	0.0031751038344333318	0.025735984408011815	-0.0012928213880188956	9.015524149364713e-05
Xe	-0.0001660183648292588	7.114179800093028e-05	0.0027999378965329878	0.0037802037934781224	0.008792973313058165	4.1644584598231866e-05
2
212200
Ar	0.00026613034708772103	0.0003955708937946492	0.0031760848188070847	0.021367417212520057	-0.014394988145145364	7.464738324335e-05
Xe	-0.00010647913034740044	0.00014458492355774507	0.002800684955773315	0.007823604656367495	0.005511911198494838	0.00010310134465427546
2
212400
Ar	0.0004314963483279789	0.0002021796216588158	0.0031764564065336273	0.010882943833856691	-0.023352832382736218	2.071021127416205e-06
Xe	-1.7091447993463205e-05	0.0001762787498472696	0.0028015964379490095	0.009625525838141316	0.0006853660597544797	7.353113865617026e-05
2
212600
Ar	0.00047378825290453607	-4.878783020947161e-05	0.0031762112313515802	-0.0026430572639478066	-0.025626467047039064	-6.625448829657374e-05
Xe	7.709947651941915e-05	0.00015754361288581784	0.002802083105944053	0.008732785344867955	-0.0043434550773084	7.425970042056664e-06
2
212800
Ar	0.0003812222484744437	-0.0002859185936210423	0.003175308524369239	-0.015414364714116648	-0.020635661577145623	-0.00010734777699267987
Xe	0.0001491149128854908	9.348673010157359e-05	0.002801392263212331	0.005331507988629413	-0.008127887208664681	-0.00014350998315391635
2
213000
Ar	0.00017996518797390394	-0.0004418277879530795	0.0031743847638492717	-0.02384019916141586	-0.009791644848262554	-5.0365520853302745e-05
Xe	0.000178576208354668	2.8194255829903656e-06	0.0027998320989118405	0.0004264870295482824	-0.009549067814870967	-0.00017312212712784517
2
213200
Ar	-7.293546493391277e-05	-0.0004718302559007185	0.003174663785190294	-0.025470616793832095	0.003939040050066128	7.595469526704793e-05
Xe	0.00015718984003823826	-8.875349976282762e-05	0.0027982301608737844	-0.004591563189491692	-0.008323373229718328	-0.00011285395903974096
2
213400
Ar	-0.00030502851983764406	-0.00036686041719231227	0.0031757231314605587	-0.019795591678929476	0.01654017736999855	9.974712407736231e-05
Xe	9.094044281168735e-05	-0.00015526240788083195	0.0027976813188357505	-0.008329439982662931	-0.004660113908021234	8.991758604230754e-06
2
213600
Ar	-0.0004497238838606551	-0.0001570248580810378	0.003176416005261091	-0.008446907685908757	0.024398751743799046	1.0146841117657685e-05
Xe	-1.3829801788095835e-06	-0.00017798086459145643	0.0027984505570779502	-0.009678409109089013	0.0002612187560056047	0.00014699945450841545
2
213800
Ar	-0.00046602592087358925	9.780550722798779e-05	0.003176273222605918	0.005261816583449199	0.025310304530006676	-4.469167500683663e-05
Xe	-9.340319113031878e-05	-0.00015011034881704858	0.002799993890932128	-0.008280695101637404	0.005187617890147161	0.0001703570658694331
2
214000
Ar	-0.00034936203200215416	0.0003247646522955957	0.0031755625912088165	0.017497457922546065	0.01896905060464117	-8.798001167894005e-05
Xe	-0.00015887678734112284	-7.933706443491295e-05	0.002801686818433451	-0.004499797461993806	0.008618313350199344	0.00011900210588167452
2
214200
Ar	-0.0001328967450998592	0.000459040876297587	0.003174632464962581	0.024726844411037827	0.007258140235858547	-0.00010026275544577828
Xe	-0.0001790484587446733	1.3753850530319338e-05	0.002802620600291569	0.0005423954480719082	0.009552603730090018	5.215203455392768e-05
2
214400
Ar	0.00012163309523134833	0.00046281180031753976	0.0031737811583281107	0.024940791587580485	-0.0065355474607659645	-6.070337646306963e-05
Xe	-0.0001483051191397682	0.00010253811250803734	0.002802531507513965	0.005431222131560304	0.007748819823294087	-7.41266930170128e-05
2
214600
Ar	0.0003416734681374403	0.00033453466216237354	0.003173539092559158	0.018006243220504346	-0.01849800494132675	9.070922188639193e-06
Xe	-7.552076238287273e-05	0.00016139102725154454	0.0028015835469006748	0.008749983707789323	0.003754048213254655	-0.00012539793291053798
2
214800
Ar	0.00046450091714161993	0.00011095691020954109	0.003174179632009515	0.0059435010384880005	-0.02511714453022527	0.00010315885058263444
Xe	1.8392297715613406e-05	0.00017439680834175877	0.0028002939541142825	0.009588003331669618	-0.0012402583369643613	-0.00013382310524105145
2
215000
Ar	0.00045488211932513407	-0.0001437894570178517	0.0031754959485833594	-0.007811581308598692	-0.024593369323483664	0.00015815030998900291
Xe	0.00010713991384350047	0.00013780979445095077	0.002799043926399277	0.007710702639967206	-0.005904231501649238	-7.966692682278534e-05
2
215200
Ar	0.00031580708525058673	-0.00035706481451320627	0.0031767657864183417	-0.01931759791599695	-0.01704772610310029	0.00010923289976425113
Xe	0.0001651849080833169	6.171040019692881e-05	0.0027987141868029263	0.0036228386571069255	-0.008931201243067583	8.187344553436524e-06
2
215400
Ar	8.674852899370083e-05	-0.0004682721582940947	0.00317758126615776	-0.02538727147486843	-0.004646748417731499	5.19531530048194e-05
Xe	0.00017635603481800494	-3.244026545111267e-05	0.0027992914758194925	-0.0014567047925635927	-0.009415910012167369	9.463632418723263e-05
2
215600
Ar	-0.00016741027206464024	-0.0004455036480707711	0.0031773433835606333	-0.02419154715788014	0.009102855646389114	-7.363609769808172e-05
Xe	0.0001372025454859812	-0.00011759257935633056	0.0028003645537478285	-0.006193984722384492	-0.007204290398923345	9.269173758893678e-05
2
215800
Ar	-0.00037381541219061595	-0.0002952682091223199	0.0031760868465930394	-0.016092497328484518	0.020219921020343083	-0.00015861437173203877
Xe	5.8624012607652654e-05	-0.00016946201381406212	0.00280124632001655	-0.009129732389360108	-0.0029246160326400756	8.547849940042654e-05
2
216000
Ar	-0.000473671203100647	-6.0625178963964534e-05	0.0031743320881752342	-0.0033873599887683887	0.025546161115358103	-0.00017769474752822622
Xe	-3.657544432907169e-05	-0.00017349964137842165	0.002801866913608181	-0.009444553446776693	0.002154668844135653	3.1840118941141136e-05
2
216200
Ar	-0.00043819173271393596	0.00019117166682140703	0.003172919410831575	0.010282429780558648	0.0235775474091866	-8.406125239015632e-05
Xe	-0.00012113794618986329	-0.0001281331924805171	0.0028016779582506236	-0.007043462695472267	0.006670365191612461	-4.6263912097892115e-05
2
216400
Ar	-0.000278261357228292	0.000388397212966915	0.0031730116962910672	0.02094527103279546	0.014897048338605598	9.194049053039692e-05
Xe	-0.00017075013132162486	-4.650065874245679e-05	0.002800975728485935	-0.0026648234390928382	0.009259118510054464	-9.149766097987642e-05
2
216600
Ar	-3.922437802771105e-05	0.00047488992262665903	0.0031744935367475375	0.025703160592454425	0.0019905249604539616	0.0002155792810642901
Xe	-0.0001716337264398642	4.818577906368531e-05	0.0027998466193965748	0.0024932259141582248	0.009218129395202144	-0.0001319668227286295
2
216800
Ar	0.00021096254991631957	0.00042616834424814176	0.0031768077985955176	0.023119453365430698	-0.011509087114337206	0.00023334974774771104
Xe	-0.0001233994266656627	0.00012891994097018444	0.002798849358136561	0.006932213973615413	0.006527825600324075	-6.0044091590128293e-05
2
217000
Ar	0.0004006041717521608	0.00025571408064261524	0.0031783614378365797	0.01386773735257207	-0.021737748390903807	7.77698631649224e-05
Xe	-3.9616945986288565e-05	0.00017292973188866667	0.002798752838042625	0.009413942263829241	0.002056378630333399	1.7199491340913623e-05
2
217200
Ar	0.00047523086439142415	1.2231706472818802e-05	0.0031781670505815784	0.0007007757893076342	-0.025758669941517185	-0.0001139699673184767
Xe	5.59924396056049e-05	0.00016796586719633068	0.002799305055779832	0.009256055602112704	-0.00304355490931992	8.642382537255078e-05
2
217400
Ar	0.0004138332011556081	-0.00023465821802791075	0.003176352007360448	-0.01267394447277494	-0.022401707097957795	-0.00022398681990539834
Xe	0.0001362228808494272	0.00011504517812002298	0.0028003614099344656	0.006387983062782633	-0.007293242492452711	0.0001078128246399347
2
217600
Ar	0.00023402910561536977	-0.00041458818463776116	0.0031742672053113644	-0.02239159032611374	-0.012710006047594915	-0.00018762191984707667
Xe	0.0001777005681438836	2.923100434106139e-05	0.0028012213773290994	0.00170581735814639	-0.009455624794445724	5.858215107638193e-05
2
217800
Ar	-1.2613818055603539e-05	-0.0004766495034156301	0.0031730968960936926	-0.025706482989797514	0.0005986195836472589	-5.516449232734575e-05
Xe	0.00016853332606065749	-6.441764984456536e-05	0.002801473413813224	-0.003497867229443455	-0.008827284553210201	9.525250693526291e-08
2
218000
Ar	-0.0002555692507806078	-0.000402573838080648	0.0031731791688380034	-0.021685523684651015	0.013823810540717081	7.044912572140109e-05
Xe	0.00011130197152129556	-0.0001389048387082707	0.0028011162793627636	-0.007652888371095365	-0.0057048188758862545	-5.160072113585309e-05
2
218200
Ar	-0.00042565802772867237	-0.00021328185596824098	0.0031743266225539852	-0.011497290516028203	0.023078026343398932	0.00014514883765575905
Xe	2.2900854062962016e-05	-0.00017357186566289504	0.0028006122101096043	-0.009622010948333252	-0.0010691443743499809	-4.4163792896665626e-05
2
218400
Ar	-0.0004745124922464274	3.67082807839966e-05	0.0031758665738300996	0.0019673727590035846	0.025692257029967823	0.00015286382702277195
Xe	-7.205047203264843e-05	-0.0001585069590672515	0.0028000096788604136	-0.008906641015458816	0.003967931591516302	-5.3320769760067676e-05
2
218600
Ar	-0.00038819152058628136	0.00027596615848402613	0.003176961110668544	0.014871993552911748	0.02096878230939543	5.923676585596006e-05
Xe	-0.00014626021824845547	-9.818082448727167e-05	0.0027993773822866112	-0.0055868849032190485	0.007810589145161415	-7.273310761821085e-05
2
218800
Ar	-0.0001911582738113213	0.0004358684314948197	0.0031767106311730298	0.023567603393491236	0.010265447888228935	-8.909037267395917e-05
Xe	-0.00017859897950368907	-9.710176010543561e-06	0.002798874772813137	-0.0007324578245613975	0.009450103807361734	-2.931762367087079e-05
2
219000
Ar	6.069327412883098e-05	0.00047121422239036764	0.0031754396523108264	0.025557733593774862	-0.0033553193605177787	-0.00015833522294207738
Xe	-0.00015997019881629278	8.186149364858984e-05	0.0027991512515929884	0.0043637527853154865	0.008434358328509715	6.540805054566705e-05
2
219200
Ar	0.00029523644704865595	0.00037215433879271684	0.003174196034860152	0.020189976147504122	-0.01597401756062616	-9.425405285585104e-05
Xe	-9.559814523861323e-05	0.00015028435588017972	0.002799979784040748	0.008178064753085492	0.004925864864567887	0.00011387508424339074
2
219400
Ar	0.0004454860758217934	0.0001670765839398206	0.0031736258039810807	0.009110098225224586	-0.024050762534126188	-1.3261050985873347e-05
Xe	-4.2867884022979754e-06	0.00017583475717453266	0.002801142399543002	0.009639701494101094	2.931664495342479e-05	0.00010639632474808188
2
219600
Ar	0.0004687657247270836	-8.555813035392329e-05	0.0031740176356549253	-0.004572691706681044	-0.025239218673893175	7.617315675293462e-05
Xe	8.80868980689622e-05	0.00015134555956635657	0.0028018532344921032	0.008369313767303085	-0.004814724939910066	7.223805572569708e-05
2
219800
Ar	0.0003586519863667937	-0.0003135089928897557	0.003175439023389018	-0.016924110934350083	-0.019236619955017957	0.00020536806284457155
Xe	0.00015493901467993903	8.396210264737886e-05	0.002801986959075259	0.0047084537911874875	-0.008323141333229698	-3.351060499446568e-05
2
220000
Ar	0.00014656635417525392	-0.00045200884990077037	0.0031772607675771315	-0.02442567703525417	-0.0077959931508198195	0.0001380399737471209
Xe	0.00017744756710257165	-7.4739834020736305e-06	0.0028011423323126886	-0.00031063622645698954	-0.009511773625028471	-0.0001303163478265153
2
220200
Ar	-0.00010677658358744297	-0.0004619070519737795	0.003177901231271861	-0.025009353500820047	0.00586890785346099	-1.1360790083986433e-05
Xe	0.0001489693923708398	-9.6859621540744e-05	0.002799757018675833	-0.0052501046694526255	-0.007932049698114483	-0.00014000592602631668
2
220400
Ar	-0.00032946289716533186	-0.0003402084444647472	0.0031771533066224066	-0.018451375807870006	0.017904689590735608	-0.0001325104618277847
Xe	7.755586555710372e-05	-0.0001586073247347103	0.0027982661839645847	-0.008687585162530953	-0.0041044980514627115	-0.00014417277338589794
2
220600
Ar	-0.00045804064014055363	-0.00012098089814602324	0.0031755328305999283	-0.0066580420828687824	0.02485218394179271	-0.00016366554527474155
Xe	-1.638916226394363e-05	-0.00017505617576932714	0.0027973118220745484	-0.00965799949053478	0.0008971230862263065	-2.3794098947665294e-05
2
220800
Ar	-0.00045595846221072327	0.00013270291575013661	0.003174205023060311	0.007025481610098878	0.024656770806395795	-7.565482362433589e-05
Xe	-0.0001062191636884913	-0.00014144252104133427	0.0027976658086290027	-0.007841295318974028	0.005654822614885352	0.00011351563014644718
2
221000
Ar	-0.0003238383479438664	0.00034849962740182564	0.0031741300207864848	0.018753238329544435	0.017446274051020283	7.443015760342791e-05
Xe	-0.00016584175117458175	-6.753521741717162e-05	0.0027992508517277435	-0.003782176452674989	0.008752645292466875	0.0001801916420095017
2
221200
Ar	-9.882988461437788e-05	0.00046509011414854785	0.00317539203167528	0.02511738523470227	0.005309230117965463	0.00014724678793445623
Xe	-0.00017852617471323854	2.5525288908308352e-05	0.0028009498024882183	0.0013071027407219517	0.009400063673697572	0.00012636031325856986
2
221400
Ar	0.00015441121900793017	0.0004490998966802855	0.0031768076298665866	0.02428652532132932	-0.008435557107125225	0.00012380191836790198
Xe	-0.00014055849967470533	0.00011139354122126126	0.0028018688485862515	0.006097797579653502	0.007333302403744921	6.659191338170867e-05
2
221600
Ar	0.00036372102628773665	0.0003046797839441486	0.0031772167506760817	0.016533947357804887	-0.01971697885590101	-4.2969063578165364e-05
Xe	-6.248499338137174e-05	0.00016543160816686405	0.002801923534663665	0.009130366712094173	0.0032006843579535605	-4.536180936224271e-05
2
221800
Ar	0.00046917592260458144	7.365034132138817e-05	0.0031762462760953755	0.004031957349876857	-0.025372324902436412	-0.00013938679763989646
Xe	3.361990936074605e-05	0.00017203797516198558	0.002800803373473757	0.009589877868285733	-0.0018812634312796602	-0.00013547483507312874
2
222000
Ar	0.00044071719135491583	-0.00017819322932276205	0.0031748569834973523	-0.009573517015472842	-0.023754197686482747	-0.00010908289963782327
Xe	0.00012018575656364008	0.00012951601721782307	0.0027992368697717504	0.007279570105083959	-0.006408832470120997	-0.00016119726456639098
2
222200
Ar	0.0002867507526803308	-0.0003791870524432799	0.0031741259975721532	-0.020457971447392108	-0.015432317971487211	-8.684750630340676e-06
Xe	0.0001722746863618636	5.0028893941231785e-05	0.0027982603683282528	0.002876501094938134	-0.0091138216545095	-3.052475516652834e-05
2
222400
Ar	5.1025662583560135e-05	-0.000471845405175564	0.0031747068253050476	-0.025520663507221115	-0.002665559688332917	0.0001419162274312191
Xe	0.0001753012451394187	-4.373631717465545e-05	0.002798476166262366	-0.0023173498677682425	-0.009176081879274612	7.806792445858338e-05
2
222600
Ar	-0.000199199592273409	-0.000429816306274056	0.003176425975386349	-0.0233012011750418	0.010868791957157611	0.00016805282155856464
Xe	0.00012834043948499325	-0.0001250692040522372	0.0027995725919869987	-0.006849879468279726	-0.006691653485922024	0.00016616358423454577
2
222800
Ar	-0.0003927080025352983	-0.0002650462180784095	0.0031774429476977136	-0.014444981938328117	0.02129687616140051	3.81565824095194e-05
Xe	4.483837177441099e-05	-0.00017110610659916032	0.0028012937929417954	-0.009443849602609364	-0.0023086493333507895	0.00015792400789966924
2
223000
Ar	-0.00047405240167322613	-2.4531641159684514e-05	0.003177105222090499	-0.0014360779693384652	0.025612454002871075	-0.00010970649416902623
Xe	-5.135875262505352e-05	-0.00016875625340676977	0.0028024191057507966	-0.009331435065188836	0.0027800581631381976	8.180004180152735e-05
2
223200
Ar	-0.0004201131359045497	0.00022278103927463464	0.0031755521173919745	0.011969319696014608	0.022648109442649757	-0.0001834101010307621
Xe	-0.0001326830150269543	-0.00011805261597836235	0.0028023233259965403	-0.006565219604903045	0.007108571290303661	-0.00010357850402441062
2
223400
Ar	-0.00024647853166505715	0.00040661506748839897	0.003174032972288369	0.021915239130565204	0.013242740645833771	-0.00011491877980329427
Xe	-0.00017623753653976275	-3.373905843810384e-05	0.0028007750266423694	-0.0019166198571830306	0.009354596833702026	-0.0001648752593883297
2
223600
Ar	-2.77977320422405e-06	0.0004745410887598471	0.0031735109500411005	0.025625994975314773	-1.9064140677519458e-05	1.8411180603447745e-05
Xe	-0.00016926792363007985	5.970408177196778e-05	0.0027991220031795376	0.0032575352298082737	0.008895461941624069	-0.00016798851811132985
2
223800
Ar	0.0002416192787975192	0.000406843559583746	0.0031741575783710927	0.02205350178824283	-0.013191593254115452	0.0001075257984267817
Xe	-0.00011403773547475219	0.0001358181397838974	0.002797721390965851	0.007504857638575128	0.005979526244292564	-9.720233852250759e-05
2
224000
Ar	0.0004172242424561986	0.00022321711524033306	0.003175561002914277	0.012214761163794044	-0.02262140180332509	0.00016284023271536969
Xe	-2.6374118542922408e-05	0.00017342227052469906	0.002797325024432854	0.009605800070087708	0.001357944526460842	2.559892498405377e-05
2
224200
Ar	0.0004740280176919494	-2.4084572583484666e-05	0.0031770405679689357	-0.0011447770790303973	-0.025626918887764676	9.542624345546825e-05
Xe	6.868259887510222e-05	0.0001617156832560453	0.002798175252821975	0.008961714884919626	-0.003633329177170016	0.00012103462407676458
2
224400
Ar	0.00039562008740766835	-0.0002646201400511151	0.003177611515536635	-0.014150680607463943	-0.021294593219891026	2.0971451922761443e-05
Xe	0.00014457066033562405	0.00010368146507315826	0.0027996138434040925	0.005838781620667902	-0.007681178477790206	0.00015368960748496924
2
224600
Ar	0.00020437079023947035	-0.0004296900494054377	0.0031771986341640832	-0.023154097598610444	-0.010902493178683997	-9.160810709460065e-05
Xe	0.00017944320300586046	1.5631576289379654e-05	0.0028010442283437085	0.0009716114765392701	-0.009496583979575243	0.00013743019661789253
2
224800
Ar	-4.557270593223228e-05	-0.000472374192676837	0.003175899222976173	-0.025617361828805703	0.002585470364501199	-0.0001286204003097486
Xe	0.00016318154961430696	-7.710053443307832e-05	0.002802325248043256	-0.004173144218117378	-0.008582733971184354	9.737328803854744e-05
2
225000
Ar	-0.00028303313610686257	-0.00038037463553025126	0.003174512843591614	-0.02070986143187074	0.01536757111859515	-0.00013438559126136243
Xe	0.00010026980629965359	-0.00014768588969176895	0.002802657069718982	-0.008095879528797258	-0.005205421901438025	-4.397481763012897e-05
2
225200
Ar	-0.0004400050378663689	-0.00017944706077163594	0.0031735890248953303	-0.00992069287494211	0.02381915036725943	-2.9430740379864097e-05
Xe	9.255438445217668e-06	-0.00017597805500090607	0.0028017269022801525	-0.00969216796676932	-0.00033301734154435287	-0.0001378941496796654
2
225400
Ar	-0.00047183598554292677	7.286312195552871e-05	0.003173637327046569	0.0037344813623782385	0.025387336675743482	4.400292307726039e-05
Xe	-8.406222301064428e-05	-0.0001538649982760969	0.0028000972797163604	-0.008517867894198675	0.004638590410336252	-0.00016649248317884683
2
225600
Ar	-0.000368812791083971	0.0003040069932421043	0.003174594584900564	0.01636822719592841	0.019699712330552666	0.00013671037659842688
Xe	-0.00015316668340525065	-8.793224076112651e-05	0.0027986062788070195	-0.0049404939160467955	0.008249827612231789	-0.00011798035657408065
2
225800
Ar	-0.00016039125039228776	0.0004480131420849052	0.003176335948927859	0.024296622387325974	0.008406208583873689	0.00020418185659598
Xe	-0.00017836183219695575	3.2654419110610586e-06	0.002797622354400231	4.184811304147335e-05	0.009563026363233106	-5.92595044799824e-05
2
226000
Ar	9.37042101727629e-05	0.00046426124092298446	0.003178020991697495	0.025262050633124634	-0.005255681696674272	0.00012336309480219892
Xe	-0.00015241878337797518	9.416812936373629e-05	0.002797360810107128	0.005021094477108562	0.008160938071934713	4.2572129112005746e-05
2
226200
Ar	0.0003209756533654607	0.00034802085149836004	0.003178322062909586	0.01904389857993532	-0.017430097052110533	-6.410557049698387e-05
Xe	-8.257359717079592e-05	0.0001587464649944562	0.002798025778734259	0.008617388805262617	0.004431722493478096	0.00012162640231382938
2
226400
Ar	0.0004561280747952288	0.0001326032807646164	0.003176948650164857	0.007346042447809635	-0.02460892529004554	-0.00019295286645479556
Xe	1.1299505194737597e-05	0.00017809973977187804	0.002799637767269367	0.009708094639664553	-0.0006447022510378759	0.00018487790127891818
2
226600
Ar	0.00046089414246835997	-0.00012074935020714004	0.0031748719769299585	-0.006407648989548506	-0.024826340185185505	-0.0002136289572337591
Xe	0.00010226139640011505	0.00014660097704460824	0.0028014355561253165	0.008008471507049267	-0.005493198333746618	0.00015439371002499787
2
226800
Ar	0.0003339764890238727	-0.0003400232438646034	0.0031732330358958337	-0.01832515998933005	-0.017950562187932093	-9.756101152513475e-05
Xe	0.00016391040098925934	7.355205934710715e-05	0.0028024148504138496	0.004025370793608426	-0.00876715257558132	5.592170180167829e-05
2
227000
Ar	0.00011189716840121176	-0.00046261384698856805	0.0031729997852086612	-0.02500569029777755	-0.005956960353609586	4.28493287582683e-05
Xe	0.00017886890763198524	-2.01587675252419e-05	0.0028022542567715733	-0.001097545790371414	-0.009492000175836058	-7.327647476386914e-05
2
227200
Ar	-0.00014225817906410887	-0.00045363957868452406	0.0031739375193266116	-0.024553463100169537	0.0077233535731775485	0.0001466018975898721
Xe	0.00014254155179576117	-0.00010733289316841416	0.0028009534830980005	-0.005967424706744878	-0.007521814674342786	-0.00018764102334157398
2
227400
Ar	-0.0003555150541290624	-0.0003154339737646917	0.003175691272722468	-0.017051101476523483	0.019242440243751657	0.00015295749950694113
Xe	6.555417223855862e-05	-0.00016367110623174681	0.002799016710558302	-0.009066512169803304	-0.0034647465720104714	-0.00017957328517762575
2
227600
Ar	-0.00046725600318035945	-8.750594726863419e-05	0.0031769032473002224	-0.004744536372789362	0.02524215225022967	8.314448961889896e-05
Xe	-3.0214491364452218e-05	-0.0001733329593397222	0.0027978143835632203	-0.009625735600908732	0.0015679471727751302	-5.447372939355551e-05
2
227800
Ar	-0.0004458768471737161	0.00016546296954256186	0.0031771515853313884	0.00893939852512551	0.024096402448468973	-1.9228729408685188e-05
Xe	-0.00011764511755291124	-0.00013350081030554458	0.0027977268220353373	-0.007454450655156664	0.006186904781205169	3.906247619419144e-05
2
228000
Ar	-0.0002970191288059944	0.00037135955051240176	0.0031766148045492965	0.02010242497798127	0.016074957874728672	-7.449694880810237e-05
Xe	-0.00017213495709204847	-5.538170647492164e-05	0.0027984920821263995	-0.0031720851814521236	0.009043738285877295	0.0001279944861617139
2
228200
Ar	-6.332184230257865e-05	0.00047142062610375446	0.0031755269632452923	0.025478448457651782	0.003452026555168675	-0.00012759518747475107
Xe	-0.0001777667294676056	3.856447330316614e-05	0.002800175140646048	0.00208325280778147	0.009310934243024737	0.0001804596414532992
2
228400
Ar	0.00018827866979788087	0.0004370591853046598	0.003174557136895758	0.02360661221767424	-0.010142501458628304	-7.275810966353265e-05
Xe	-0.00013261123344108844	0.00012164033148133958	0.002801819223141404	0.006726336994686712	0.006880247119463851	0.00012848978138474063
2
228600
Ar	0.0003864600100758936	0.0002782001657507752	0.003174160078744704	0.0150582146564571	-0.020885415675751546	-9.329234874331527e-06
Xe	-4.9889197522724146e-05	0.00016972815311905152	0.0028026498515944997	0.009406938388514103	0.002509374366633638	2.2608724469004255e-05
2
228800
Ar	0.0004747985958623429	3.96686407455326e-05	0.003174478630899817	0.002186478860085318	-0.025672530785091192	7.754691718351077e-05
Xe	4.652873987560112e-05	0.00016961524293195363	0.002802446463053664	0.009436069471885683	-0.0025326109830915568	-6.734396851497942e-05
2
229000
Ar	0.000428178300506837	-0.00021060480877048893	0.0031753593595705	-0.011315459189466671	-0.02313354446032132	0.00010718074103337473
Xe	0.0001297028532206606	0.00012141843737942643	0.0028010428517887607	0.00680033911122872	-0.0068733338011551575	-0.00017977668735181057
2
229200
Ar	0.0002592789302938391	-0.0004008254434185092	0.0031762806581624044	-0.021638856581587235	-0.01398217117861978	7.067427229034188e-05
Xe	0.00017595478967903424	3.8577505730209114e-05	0.0027992871838105316	0.002235921341797221	-0.009284459061698768	-0.0001718407455006206
2
229400
Ar	1.5898800085745956e-05	-0.00047659876059967786	0.003176966857112936	-0.02580202667350509	-0.0007870761189481445	4.146866532576629e-05
Xe	0.00017215534425993873	-5.5601321290194785e-05	0.0027981793469630846	-0.0029745277657532375	-0.009083022329494466	-6.26880543690945e-05
2
229600
Ar	-0.00023176443283393663	-0.0004158864270989733	0.0031765459703440493	-0.022533814104995678	0.012623817389220419	-0.00012029940043361768
Xe	0.00011923716399468159	-0.00013437588707005608	0.002798089739443528	-0.007344454885871607	-0.006291425443003982	3.415300991635777e-05
2
229800
Ar	-0.0004129933498596036	-0.00023648187696126874	0.0031749474661923248	-0.012820126181219818	0.02238801748580548	-0.00017060289025384948
Xe	3.212577055080019e-05	-0.00017509849109356842	0.0027989953638456033	-0.00964774168375731	-0.0016603414043103943	0.00013338049054479844
2
230000
Ar	-0.0004760223490048871	1.0344211246702991e-05	0.003173541472993783	0.0004885143060333643	0.025783772168598076	-7.751158173506904e-05
Xe	-6.441117176685999e-05	-0.000165718330796209	0.002800732980880601	-0.009175062025388394	0.0034734658510264527	0.00020872990353543153
2
230200
Ar	-0.0004035025974110277	0.0002545256115913967	0.0031734260385626063	0.01365737431024687	0.021858724082441845	2.7934336726816458e-05
Xe	-0.00014218056134467191	-0.00010897081862771378	0.002802580399995728	-0.0060049913951983665	0.007595746523113979	0.000149940819965189
2
230400
Ar	-0.0002158200079419461	0.0004263549050227861	0.0031740695552988423	0.022955736161650565	0.01168724708583755	0.00010287559836974638
Xe	-0.00017902968114220325	-2.1298657178404284e-05	0.0028033621571737907	-0.0011728017153709587	0.009469562769421465	1.1940231299301368e-05
2
230600
Ar	3.3359773310895554e-05	0.00047678917556139363	0.0031752731888905544	0.025659762233448482	-0.0018368876912203866	0.00011245354013406622
Xe	-0.00016448211649362229	7.15545867872783e-05	0.00280270140493076	0.003998745140942106	0.008647921256393253	-0.0001349975849133223
2
230800
Ar	0.00027277943717601914	0.0003910552674959869	0.003176000965324389	0.021041243867244132	-0.014900551636382067	5.010252186107449e-05
Xe	-0.00010299971475397509	0.00014365717978646664	0.002800783242281628	0.008005152858414643	0.005447790857143823	-0.00022311929893769892
2
231000
Ar	0.00043411437171624626	0.00019327211736841002	0.0031764586478468947	0.010448905274600266	-0.023689299107701515	3.8224768948705306e-05
Xe	-1.182735514422767e-05	0.00017524992791059012	0.0027985914869919064	0.009803611104341562	0.0007086291372925594	-0.00018220908543912904
2
231200
Ar	0.0004714723240977257	-5.9865047696799435e-05	0.0031766411230303446	-0.0031514386545165854	-0.02567960315450503	1.5360462505264947e-05
Xe	8.31920746630945e-05	0.00015719453908125935	0.0027972845934540946	0.008757977929703722	-0.004232306708839032	-7.541827964664937e-05
2
231400
Ar	0.0003739744152606907	-0.0002958448700649118	0.003176330479364681	-0.0158658411258474	-0.02037552296263539	-7.789743912378214e-05
Xe	0.00015495285435823813	9.421045932084547e-05	0.002797367294084548	0.00522866868871216	-0.008041029646554742	8.87750965033053e-05
2
231600
Ar	0.0001694511372116524	-0.0004470930370169348	0.0031750765499656236	-0.024015607111475844	-0.009157395084389551	-0.00017362079922186003
Xe	0.00018291569294006068	4.0272190886207675e-06	0.0027989242494586486	0.00021544170796691429	-0.009547028583170037	0.0002257141427484005
2
231800
Ar	-8.33640712166538e-05	-0.00047033109271700643	0.003173520717818735	-0.025326092642286947	0.004605329007286569	-0.00011816600224756077
Xe	0.00015881126214928597	-8.748387826327691e-05	0.002801487570442	-0.004919211322597542	-0.008293558916130222	0.0002421992468809899
2
232000
Ar	-0.00031266802964676063	-0.0003592349167228936	0.0031727915476424612	-0.019403692901333744	0.01706454016373436	-2.2665091046719095e-05
Xe	8.939524721403437e-05	-0.0001537814118773131	0.002803614623002732	-0.008642042267319957	-0.004643492689800522	0.00014632365890850929
2
232200
Ar	-0.00045284234098958933	-0.00014563398443021336	0.003173437712728146	-0.007957591546472386	0.024607161398232363	0.00015472836177117752
Xe	-5.307188218542312e-06	-0.00017607685029794826	0.0028041886260693526	-0.00983335399672709	0.00028507342035632966	-4.69020691379889e-05
2
232400
Ar	-0.000464084085495502	0.00010945106361494307	0.003175070639354672	0.005753755338576647	0.025168957056256082	0.00016058636411936896
Xe	-9.791360920108904e-05	-0.00014836539152077518	0.0028028272814691365	-0.008275758357701887	0.005143144378890235	-0.00020006291598931812
2
232600
Ar	-0.0003429379148246956	0.00033333872453508316	0.0031768245322532566	0.0178713590284327	0.018509392206297135	0.000129487357901467
Xe	-0.00016269430591422425	-7.801719882638755e-05	0.0028003751366439244	-0.004346560499804431	0.008553911780189374	-0.00026397237230636414
2
232800
Ar	-0.00012382398641400274	0.000462021310699332	0.0031773477153048974	0.024877537267369278	0.006588329681542407	-2.6243961722108423e-05
Xe	-0.0001808161927144276	1.4576369651081104e-05	0.0027980632294509872	0.0008173479002860216	0.009546094767717313	-0.00017713165861377853
2
233000
Ar	0.00013061326672927738	0.0004583770471550162	0.0031761949918410943	0.024742706249060345	-0.007278482562991416	-0.00019355592672088028
Xe	-0.00014726978658148506	0.00010353173249542606	0.0027971947102462882	0.005718646597331707	0.007841610562443896	9.052288681673129e-06
2
233200
Ar	0.0003473706776526886	0.0003235915136158751	0.003173996943900671	0.017539519187754673	-0.019015438444523046	-0.00022399421724678906
Xe	-7.156354121510034e-05	0.00016350840033846334	0.0027979036752890716	0.009047438573327127	0.003863915648907986	0.00014758592483509646
2
233400
Ar	0.0004645515298973753	9.65616259127496e-05	0.0031722376780675466	0.005346630786478148	-0.025304667756829328	-7.184136626990426e-05
Xe	2.492693417347866e-05	0.0001767935208030982	0.0027997593642257773	0.009742810587559407	-0.0012616922239171578	0.0002198042688756612
2
233600
Ar	0.0004491181295434386	-0.00015799507878684063	0.0031727172567196558	-0.008366126158339442	-0.024352627670860914	0.00012751460741473766
Xe	0.00011379244073024009	0.0001397598879795388	0.0028019298740581395	0.007616232371171137	-0.005963728721345129	0.0001747038289757301
2
233800
Ar	0.0003054295240250392	-0.0003675650990975584	0.0031746837965381737	-0.019670707953191185	-0.01650744219027189	0.00023012397355497442
Xe	0.0001696399752720964	6.31494545278609e-05	0.002803357045630554	0.0032944714335892333	-0.008989278257162722	0.00011495544737459345
2
234000
Ar	7.44575135668845e-05	-0.0004721813638802621	0.003176524964302762	-0.025414364166972705	-0.003908619811185853	0.0001058665232950421
Xe	0.00017679117945424588	-3.127356093379196e-05	0.0028037374184203966	-0.0018910954590878155	-0.009460906501120163	-4.564169120395012e-05
2
234200
Ar	-0.00017783339189795554	-0.00044217468373126473	0.003176803550940497	-0.023807906564914216	0.009764928376567289	-5.8312026014423404e-05
Xe	0.000133706372825531	-0.00011704930589769914	0.0028025447853728346	-0.006499451454414608	-0.0072700266717248855	-0.00016865827188442765
2
234400
Ar	-0.00037894866718479726	-0.00028617633825803705	0.0031756379144724477	-0.01543499467534891	0.020679464608234242	-0.000161407829498952
Xe	5.285110128926362e-05	-0.00016943035503204536	0.0028007225298027428	-0.009291989927135163	-0.0029570132060326433	-0.0002025389090515627
2
234600
Ar	-0.00047188113374701894	-4.861517409200905e-05	0.0031738556343063338	-0.002668602001179125	0.025664351022108175	-0.00018269610971770575
Xe	-4.318022341093014e-05	-0.0001733172905718071	0.0027984601505164648	-0.009459288417356966	0.0021729623685854812	-0.00021663354963083426
2
234800
Ar	-0.000430006693201051	0.00020262114714039256	0.0031727397002947796	0.010849733508788725	0.023359471895318472	-3.576807693056387e-05
Xe	-0.0001267603734348535	-0.00012773413692484503	0.0027969071810066896	-0.00686180102888206	0.00671961067654068	-6.122357708928682e-05
2
235000
Ar	-0.00026512857627880804	0.0003958564303825435	0.0031732795396360457	0.02132354456733423	0.01432912066947436	0.0001326291915033888
Xe	-0.00017379907205918867	-4.543254116644868e-05	0.0027970759668079497	-0.0023551433769553164	0.009343245863040122	0.00012395270788522782
2
235200
Ar	-2.43688268390099e-05	0.00047572172853642495	0.003175148980305079	0.025666434386279996	0.0012341251675514937	0.00018100959790431405
Xe	-0.00017172809575365992	5.014915243389431e-05	0.0027990901757411297	0.0028044640877510035	0.009296969099058796	0.00026081366734278334
2
235400
Ar	0.00022361738977199724	0.0004195930557651335	0.0031767958727023644	0.022721121649047743	-0.012178084695387673	0.00012145109015964743
Xe	-0.0001203117529126044	0.00013149846557670468	0.0028019864319145074	0.007204330376291533	0.006572165828050308	0.0002724441821624468
2
235600
Ar	0.00040796184096529613	0.00024373859252241337	0.003177417270896444	0.013267529779800776	-0.022113674252196416	-9.877280128214382e-07
Xe	-3.454999461304018e-05	0.0001754614277095855	0.0028040529680339247	0.009502769455604885	0.0019815656094637514	9.137754846667967e-05
2
235800
Ar	0.0004761470863180541	-1.6711457636745536e-06	0.0031768157668561935	2.1472104247999258e-05	-0.025754686568137394	-7.94537226236139e-05
Xe	6.104653219802194e-05	0.00016941683031877094	0.0028038936025986524	0.009138334906302984	-0.003171707748283185	-0.00013280112855610445
2
236000
Ar	0.0004084463186314692	-0.0002463269414908069	0.003175658356376891	-0.013250479512434655	-0.02199164100808366	-0.00015371167156777817
Xe	0.00013896877941281798	0.00011521836409467056	0.0028019274358333976	0.006119517064685562	-0.007406910824860502	-0.000234234217724262
2
236200
Ar	0.00022400947525014195	-0.00042059827178519776	0.0031739464305943193	-0.022739143868864557	-0.011985209920702813	-0.00014900314490693187
Xe	0.0001773828697916871	2.8373213212714696e-05	0.0027998079824537686	0.0013743916085915096	-0.009553588836742021	-0.0001810604554429376
2
236400
Ar	-2.4582141028647927e-05	-0.0004747150857766068	0.003172908605737984	-0.02576389535409038	0.001398952918878448	-4.928916269028292e-05
Xe	0.00016515577636833992	-6.660567399458467e-05	0.0027984252009347166	-0.003747310918413111	-0.008973511411378591	-9.067586755304685e-05
2
236600
Ar	-0.00026641922524553636	-0.00039381933799254075	0.003172760148763192	-0.02143270297255177	0.014375421744226062	3.911152510909802e-05
Xe	0.0001059772087639651	-0.00014262616141049288	0.0027978169898400084	-0.007789758636888634	-0.005875269132681012	9.053177434989996e-06
2
236800
Ar	-0.00043250597478930463	-0.00020083330437676162	0.003173827645363283	-0.010959706613038151	0.023262161155856834	0.00013736660380127941
Xe	1.67155353962169e-05	-0.0001781534395499438	0.00279865604617145	-0.009637109554656326	-0.001027675965211494	0.00016064170760066553
2
237000
Ar	-0.00047522541966561727	4.925325018801265e-05	0.0031753455473813234	0.002637044240539812	0.025533014647569168	0.00015483169381967995
Xe	-7.761505941117782e-05	-0.00016244721385886158	0.0028005552295054855	-0.008748942451233675	0.004085818867453479	0.00021513576383611828
2
237200
Ar	-0.0003822761448882028	0.000285325865672575	0.003176506585026067	0.01550606661040559	0.02051789724034809	4.660445766440752e-05
Xe	-0.00014978309887175961	-0.00010041870312989358	0.0028025359525190073	-0.005352683936602003	0.008005082401540778	0.00019087567017196113
2
237400
Ar	-0.00018037569406069933	0.0004400734909558553	0.0031765332440215972	0.023920732119685262	0.009678205543388867	-4.842828821975071e-05
Xe	-0.00017930669237226738	-9.75391428537002e-06	0.0028038133762036863	-0.000418875141937307	0.00963557573349333	2.77323227003241e-05
2
237600
Ar	7.33186343644607e-05	0.00046953755830366124	0.0031755812657796464	0.025573222040923653	-0.0039495281324944355	-9.796046036187886e-05
Xe	-0.00015763665088315099	8.328011409498402e-05	0.0028033511608848783	0.004620366644916973	0.008519745507106179	-0.00011301298497453581
2
237800
Ar	0.0003063662863689155	0.0003646619465229742	0.003174498471312009	0.01988518242949888	-0.016505026999238427	-0.00011439398783340794
Xe	-9.109327217549092e-05	0.00015224434874706633	0.0028017580448031	0.008329390889086814	0.004967111939244123	-0.00018865274352110006
2
238000
Ar	0.0004518528869104527	0.00015545144151906084	0.0031737634995962047	0.008495107176186865	-0.024308656598233898	-2.4094869655474695e-05
Xe	1.1109756415637708e-06	0.0001777352349545056	0.0027997387584681303	0.009656123072112768	2.44579662140231e-05	-0.00018958333126479744
2
238200
Ar	0.0004681022523231315	-9.813197533475838e-05	0.003173632960049794	-0.005309771502451988	-0.02517017141832738	2.165214282183403e-06
Xe	9.26818992755554e-05	0.0001525961177707716	0.0027983070466707644	0.00822712946751039	-0.004915791361456819	-6.900647243814765e-05
2
238400
Ar	0.0003505893380204992	-0.0003237726055415828	0.003174033600430794	-0.01761475465711577	-0.018841879371865298	7.256329357886913e-05
Xe	0.00015776257640877494	8.376807154705329e-05	0.0027981776106630924	0.004458580836496464	-0.008519525770065926	4.639973847032614e-05
2
238600
Ar	0.00013291013747267308	-0.0004567383381990597	0.003174975194206567	-0.024877817664680803	-0.007107863701159315	0.0001022940421133986
Xe	0.0001777095375736561	-9.431024054229684e-06	0.002799287810617094	-0.0005629375279071423	-0.009663189810181941	0.00014998268927843042
2
238800
Ar	-0.00012267192118377746	-0.0004592321506381157	0.0031759155398792256	-0.02499005490206828	0.006610927105549501	7.587475725725721e-05
Xe	0.00014686617485132474	-9.979967363102044e-05	0.0028010277108103257	-0.005444428703722865	-0.00795285363154066	0.0001765916466296642
2
239000
Ar	-0.000343341866289905	-0.00033055733720848074	0.0031762793170402154	-0.018055448496213426	0.01847430503822107	-1.3086413824624566e-05
Xe	7.421210461308177e-05	-0.0001610539963108751	0.0028026433814913663	-0.00870520951922357	-0.004005064477292571	0.00011894627722005616
2
239200
Ar	-0.00046630018297823424	-0.00010739046806681102	0.0031756221519623528	-0.005937401332415382	0.025059956813626175	-9.776359318528399e-05
Xe	-1.913726236589633e-05	-0.00017623944315006769	0.0028032033503484367	-0.009530571117140531	0.0010455548927223702	6.4188829114081064e-06
2
239400
Ar	-0.0004561764717488493	0.00014647793744351214	0.003174506908227885	0.007917096628978536	0.02446855862595369	-0.00010975607540249109
Xe	-0.00010714706274562052	-0.00014117751109442078	0.002802725879984262	-0.0076293153942854795	0.0058192132594651926	-0.00010043057457282764
2
239600
Ar	-0.0003159799299669511	0.0003583195616318608	0.0031737732195137626	0.01943146609726679	0.016872588984919112	-4.3758532219323175e-05
Xe	-0.0001642801214194941	-6.598721110541897e-05	0.002801500823964402	-0.0035444216118893047	0.00886205779377884	-0.00015149868775808577
2
239800
Ar	-8.605387424754203e-05	0.00046805995048955685	0.0031739126862023355	0.025424054339822005	0.004542881831301094	6.725497172893097e-05
Xe	-0.00017427754763866556	2.7730754344694904e-05	0.002799779558238004	0.0015985486655398099	0.009423406095340505	-0.0001578695366564005
2
240000
Ar	0.00016826293949811363	0.0004443784307757468	0.00317486682773835	0.024185029834398734	-0.009155552163032644	0.00010049068010121626
Xe	-0.00013435219274895549	0.0001131829577517113	0.002798745669324163	0.0062136173906508965	0.007266475930895977	-5.768452400771494e-05
2
240200
Ar	0.00037438542924403835	0.0002938530656971591	0.003175894820639377	0.016039025655832494	-0.020209536352288424	9.424755567040607e-05
Xe	-5.5858846502445945e-05	0.00016628256093712573	0.0027983795387937663	0.009088542505114807	0.0030684823603581036	1.6825310470261278e-05
2
240400
Ar	0.0004734820099890053	5.9542930819727374e-05	0.00317663727954882	0.003272255058183654	-0.02550137973020078	3.300844524665428e-05
Xe	3.877212167526628e-05	0.00017157342081582102	0.0027990824317652638	0.009364481133281841	-0.002043488099904775	9.574841104684904e-05
2
240600
Ar	0.00043692646039530936	-0.00019163445334881497	0.003176428391739675	-0.01041589494796399	-0.023509458346933194	-7.20902391213907e-05
Xe	0.00012272419218786716	0.0001275900391035631	0.0028004771646604515	0.006994659956706709	-0.006515856266847763	0.000154024403924935
2
240800
Ar	0.00027544903556381165	-0.0003882118134142787	0.003175458143443181	-0.021099341917086647	-0.014816628690407797	-0.00011843704183447225
Xe	0.00017168634005189693	4.755357559647948e-05	0.0028018931581412806	0.002590719892412278	-0.009124697779521846	0.00010028579713202741
2
241000
Ar	3.532966258315642e-05	-0.0004740876372507507	0.0031745257324556973	-0.025746465662011282	-0.0019327917412983924	-6.586132437033571e-05
Xe	0.00017172141801396386	-4.582114332310507e-05	0.002802239613443225	-0.0025838670082120006	-0.009103029385482197	-1.546277742866275e-05
2
241200
Ar	-0.00021455430025498666	-0.0004251065826467874	0.0031741637035302673	-0.023001579475756012	0.011500262002495366	-1.3979825623028843e-05
Xe	0.0001227002959140403	-0.0001257102794963431	0.0028015998804533414	-0.0070006844149889365	-0.006497821776291679	-0.00010314030693517514
2
241400
Ar	-0.0004028915370992898	-0.00025491281268076187	0.0031740066341573578	-0.013716550308919894	0.02169286877264584	-3.7893416283800336e-05
Xe	3.8670205726566425e-05	-0.0001695848780977872	0.002800468640814065	-0.009378424361549292	-0.002084076766933945	-0.00011851304553837272
2
241600
Ar	-0.00047611790512960795	-1.2155427238831767e-05	0.0031739049373025246	-0.0005715939290375897	0.02565974540310853	3.1968175605674834e-05
Xe	-5.606154384045483e-05	-0.00016514170295091682	0.0027995701641969012	-0.009100915363414558	0.0029383428036379644	-6.125395497760682e-05
2
241800
Ar	-0.0004137260890416131	0.00023390270796555591	0.0031745236684301856	0.012759421464511027	0.02235286830238406	8.056071011941592e-05
Xe	-0.00013494000418789285	-0.00011369521817030498	0.00279929405473445	-0.006271641920661257	0.0071186097195639	5.044064136452693e-06
2
242000
Ar	-0.00023310091931791482	0.0004132170724048544	0.0031755130464186073	0.022461553611394326	0.012629254005612798	8.33191823382111e-05
Xe	-0.00017519245361586862	-2.9689611015985258e-05	0.002799372779985179	-0.0016066255159425398	0.009285732871101921	3.228042779150916e-05
2
242200
Ar	1.3971744390522832e-05	0.00047434902200868865	0.00317618812693076	0.025733363250439446	-0.0006819593308135635	7.906824720524295e-05
Xe	-0.0001653334710683053	6.305621428797678e-05	0.002799870586987372	0.0035234617534324283	0.008820775631441683	6.035083617699197e-05
2
242400
Ar	0.00025697107374945526	0.0003999878270049011	0.003176445833557667	0.021671630304865068	-0.013841938367464111	-4.504361799588222e-06
Xe	-0.00010817471803165217	0.00013812062713813343	0.0028004072596937643	0.007649365810161824	0.005818249035297795	6.022986520111555e-05
2
242600
Ar	0.00042675456616975843	0.0002111437227342308	0.0031760127031516213	0.0114434111764545	-0.02300291563643135	-6.996790733501064e-05
Xe	-1.971941914365309e-05	0.00017394338572265106	0.002801025850289152	0.00958633594791184	0.0011781191885765912	5.800974972171772e-05
2
242800
Ar	0.0004747782922106895	-3.7877318543607226e-05	0.0031752384346368403	-0.002068619157185183	-0.025586521826780426	-8.206921485808047e-05
Xe	7.432032174888581e-05	0.00016042877078089883	0.0028011612087774436	0.00874621248100021	-0.00381486321667593	-1.524223850313413e-05
2
243000
Ar	0.00038758231977125947	-0.000276143210504939	0.003174692455240652	-0.014953397982466633	-0.02090726004158914	-2.9919935281223033e-05
Xe	0.0001469589012213141	0.0001011837710711465	0.002800678279343957	0.005434787755449177	-0.0077340355849744484	-8.0457689325085e-05
2
243200
Ar	0.00018981248034677958	-0.00043589043484336523	0.0031746846707304335	-0.023617039417598882	-0.010285040262634888	5.8237884384605105e-06
Xe	0.00017770963980190377	1.3127142737366643e-05	0.00279976583240267	0.000551978227904832	-0.00946951620760752	-6.385509116980987e-05
2
243400
Ar	-6.211464415303107e-05	-0.0004715073891100922	0.003174716428831493	-0.025535731685170496	0.003354452371949412	-3.572993553847188e-07
Xe	0.00015772869444173572	-7.891727568095309e-05	0.002799539581201136	-0.004441760061725779	-0.008492677952455658	1.0228947022243268e-05
2
243600
Ar	-0.00029647560751135723	-0.00037225916565684073	0.0031747035405123346	-0.020181404589686862	0.015992545672299612	-2.2999458229368232e-05
Xe	9.257399518697327e-05	-0.0001484601025964135	0.002799932617135954	-0.008251591877938435	-0.005072114478891261	5.7393221549115775e-05
2
243800
Ar	-0.000445996024248112	-0.00016706492207420169	0.0031746967730780337	-0.008992426872500955	0.02404376327811423	9.215243709449901e-06
Xe	8.166288373920646e-07	-0.0001754859855588779	0.00280040801490219	-0.009645398098814774	-0.00022751178436777628	6.0272621800597815e-05
2
244000
Ar	-0.00046803812038027687	8.554349348889781e-05	0.0031750253198122073	0.004708863890008967	0.025264938857736053	5.4353252805982555e-05
Xe	-9.105600095209832e-05	-0.0001527775161450205	0.0028007258772542324	-0.008282451192832642	0.004656878711823144	3.4715137420818215e-06
2
244200
Ar	-0.000356624366222811	0.0003137791143884614	0.0031759311929479518	0.017037435744889664	0.019269449753684803	9.233844546139314e-05
Xe	-0.00015651954481126702	-8.666941880152343e-05	0.002800450972253631	-0.004491820653820933	0.008265434506744513	-6.326679641811376e-05
2
244400
Ar	-0.00014359582858967105	0.0004525417022474886	0.0031762706760785978	0.024485403795080754	0.007784489790280763	-1.023491577412975e-05
Xe	-0.00017697588315278558	4.6731908130167645e-06	0.002799916104148936	0.0005266661427122515	0.009535735086890552	-2.5303152555871793e-05
2
244600
Ar	0.00011038586802444678	0.00046204695145621956	0.0031756242158192728	0.025037965065077945	-0.005922473567231306	-0.00010592798113797992
Xe	-0.00014694639055252604	9.502908543662415e-05	0.002799773146919014	0.005323291462586306	0.008072684652025793	2.1425546727035862e-05
2
244800
Ar	0.000332949547502393	0.0003398802333441183	0.0031746156735618703	0.018388047517460093	-0.01790715177787396	-8.322258632268124e-05
Xe	-7.5074764523462e-05	0.00015823193309434525	0.002800094397211636	0.008683068655047265	0.00427286914150526	4.939637242345887e-05
2
245000
Ar	0.0004604236528882195	0.0001210652034832117	0.0031742145298590888	0.006492031893215317	-0.02479414814514231	2.077318255136102e-05
Xe	1.8140234707174586e-05	0.00017622823386438563	0.0028005449958332105	0.00951351707551314	-0.0007599347281526683	4.009645335265687e-05
2
245200
Ar	0.0004565104122408872	-0.00013232724920610742	0.003174613849161613	-0.007241954532196072	-0.024661188162577577	7.105423649798262e-05
Xe	0.00010581468260953438	0.00014427434328457146	0.002800791518898709	0.007615019852687156	-0.005495384094132133	3.5092804088360098e-06
2
245400
Ar	0.0003225614932436338	-0.0003481176882799037	0.0031754397264422097	-0.018900631033576077	-0.017435981280544462	9.044384760010721e-05
Xe	0.00016309180275418425	7.159724984470887e-05	0.0028007082258109926	0.003594043565625266	-0.00870849455619407	4.670844632581203e-06
2
245600
Ar	9.659837185064995e-05	-0.0004643035067944234	0.0031761776381860358	-0.02518774129122386	-0.005231054894561186	3.687227508072923e-05
Xe	0.00017415443107889132	-2.182912537456944e-05	0.0028008057701085017	-0.0014388030045757718	-0.009521157208168613	1.1282707264533492e-05
2
245800
Ar	-0.00015711074926937952	-0.0004480906379536234	0.0031763007866884552	-0.024310630704532567	0.008374629263799232	-1.0623076188289066e-05
Xe	0.00013559910452782222	-0.00010950185476559991	0.0028011555589536425	-0.006091783346325443	-0.007578631283498184	3.931603071706447e-05
2
246000
Ar	-0.00036607098927677305	-0.00030456640443629076	0.003176111309992355	-0.016454162843251904	0.019639981491060995	-3.1483693628858414e-05
Xe	5.8415795924774895e-05	-0.00016582316956438188	0.0028013211347528728	-0.008975442995113764	-0.003419840007634555	-9.385230803251605e-06
2
246200
Ar	-0.0004705243190266586	-7.431449173207091e-05	0.0031759027862309614	-0.00393912529827878	0.025289818144394315	-1.6621141749128483e-05
Xe	-3.555063475401656e-05	-0.00017463937911397595	0.002800996051107855	-0.009343776358427022	0.00168350461109947	-7.061660820225831e-05
2
246400
Ar	-0.00044099404406904507	0.00017715400997863237	0.003175682322500466	0.009720446433506877	0.02378731642946073	-3.3822721338901915e-05
Xe	-0.00011908342904284182	-0.00013351771740396657	0.0028000171452187157	-0.006981166798083737	0.00632962021772502	-0.00012246884981555927
2
246600
Ar	-0.00028551224769648217	0.00037824944705799516	0.003175184634146527	0.020625522901623252	0.015409699489980987	-6.356137620823147e-05
Xe	-0.000168550946861214	-5.4192646307478224e-05	0.0027988360768233357	-0.002694128317638825	0.00912978506646403	-6.436461945176668e-05
2
246800
Ar	-4.8530723417535326e-05	0.00047106058010273964	0.0031745569007651385	0.025610950285671407	0.002705764668407867	-5.167609265231144e-05
Xe	-0.00017022860544114237	4.048764520935879e-05	0.002798458235113535	0.0023709130770878527	0.009326702939190532	-4.674885447727193e-06
2
247000
Ar	0.00020195583008251553	0.0004294781833035456	0.003174458429312452	0.023270254072970186	-0.01078900896373406	1.646408535367131e-05
Xe	-0.00012330460536676846	0.0001236399408353335	0.0027985080912866257	0.006772435434689352	0.006884119999237287	2.6244248473480477e-05
2
247200
Ar	0.00039470981303499754	0.0002657385306108033	0.0031748972497099392	0.014358388435683255	-0.02117411246641325	8.390858227133354e-05
Xe	-4.1224062620377e-05	0.00017138442066609482	0.0027993019756640918	0.009238823717534605	0.0024494433039174797	0.00013142008209222447
2
247400
Ar	0.0004751206683876697	2.6264642198160394e-05	0.0031759088697022805	0.0013433676518454245	-0.02555304685906676	9.29924561797518e-05
Xe	5.2600179686909765e-05	0.00017051737492354517	0.002800527230873354	0.009037205281508077	-0.0026166158691818585	9.485594765810842e-05
2
247600
Ar	0.00042007359300886004	-0.00022053765824004673	0.0031765560306863962	-0.012064622570548394	-0.022621416518550562	2.452070965313402e-05
Xe	0.00013132895918568213	0.00012116444996670111	0.00280131808108774	0.0063148439282741265	-0.00702646591068848	6.046057795382617e-05
2
247800
Ar	0.00024532727778515766	-0.00040461051640421525	0.003176472435117634	-0.0220461931573046	-0.013285027494883469	-4.5099388806674705e-05
Xe	0.00017257900671932902	3.688126759878073e-05	0.0028017306963172284	0.0017413518597627102	-0.00940746540165718	7.297505006430786e-06
2
248000
Ar	6.415859835032737e-07	-0.00047354266564519166	0.0031755297574532966	-0.02572011828284105	-0.00018426083965185472	-0.00011935423138714903
Xe	0.00016455160959412952	-5.8215397013784584e-05	0.0028013025417673297	-0.0033095514007686275	-0.009130514812233079	-6.733898828042757e-05
2
248200
Ar	-0.00024428185640268754	-0.0004078873170093301	0.0031746381589451227	-0.02204675751540166	0.012981172668435247	-6.560179688424015e-05
Xe	0.00010970329785129178	-0.00013665804805275083	0.0028004475576391945	-0.007394699805461058	-0.00618644081404308	-0.00011259721019999842
2
248400
Ar	-0.0004195752624645464	-0.00022635390902773237	0.0031745257725865213	-0.012117327001442515	0.022447494851331854	2.317235990322072e-05
Xe	2.364776101661578e-05	-0.00017602295940013794	0.0027992801924113042	-0.00939696900933576	-0.0015051973796676016	-0.0001115744788370487
2
248600
Ar	-0.0004751292452731862	1.9605042367003853e-05	0.0031749364247835262	0.0012658328586328872	0.025546670695226353	6.118304004936148e-05
Xe	-6.923937387004e-05	-0.0001651699152171769	0.002798407038927599	-0.008732510797477989	0.003643742290272836	-4.263383473298522e-05
2
248800
Ar	-0.00039537567703006846	0.00026001888190253054	0.0031756921271295694	0.014293880861062563	0.021348620819790057	5.4834140019245795e-05
Xe	-0.0001426570566390294	-0.00010665433749755154	0.0027982705710267158	-0.005590458321759745	0.007771428108963777	3.218009710615317e-05
2
249000
Ar	-0.000203005159463564	0.0004263000846008191	0.0031762005613042528	0.023229568914495527	0.011098595243033228	3.082280670755653e-05
Xe	-0.00017552946657168554	-1.749355152949529e-05	0.0027993682065959474	-0.0008268253010977598	0.00962613512807067	0.00014987104608704118
2
249200
Ar	4.702639287181671e-05	0.000471497777960717	0.003176340995641903	0.025541357772663927	-0.0022883041515016586	1.292698589865707e-05
Xe	-0.00015845292002168718	7.655691172811109e-05	0.0028008573605124852	0.004169826719842738	0.008720310275791393	0.00012573378038746534
2
249400
Ar	0.0002835816512711859	0.0003828351536169963	0.003176167294173081	0.020612432281625764	-0.015030957740525666	-4.2748090481658785e-05
Xe	-9.616057092014081e-05	0.00014838952781637648	0.0028017537166858736	0.007988060765719064	0.005325615237627841	5.388623171329453e-05
2
249600
Ar	0.0004394497631904963	0.00018505189798336257	0.0031757696684482587	0.00983110598231038	-0.02356816935447044	-4.824406800025853e-05
Xe	-6.455530777157482e-06	0.00017789994640799827	0.002802071755344505	0.009514354348495516	0.0004620644230219508	-8.554283962742319e-06
2
249800
Ar	0.00047073773192093086	-6.588812509947845e-05	0.0031752948583573296	-0.0037310369202748985	-0.025401512004535592	-4.1433110165175316e-05
Xe	8.490451376777253e-05	0.0001569503626628011	0.0028010974164362134	0.008317212309719622	-0.004566649338149778	-0.00015404826204620136
2
250000
Ar	0.0003680971308107086	-0.00029828109538189765	0.0031750156329931104	-0.016293297984422455	-0.019957801459160384	-2.172329578565532e-05
Xe	0.0001519122924745686	9.119343872461234e-05	0.00279943259568542	0.004782267102617783	-0.008281066378244693	-0.0001577538006939164
2
250200
Ar	0.00016066185794815296	-0.00044584752852403403	0.003174837608715286	-0.024196545600690227	-0.008829955957402253	-1.0063300372757978e-05
Xe	0.00017589673212090186	-4.241696177008123e-07	0.002797862283282928	-0.00011044404677674075	-0.009625942070941118	-0.00012588341616115897
2
250400
Ar	-9.254942441149618e-05	-0.0004662646849519582	0.0031750504018297474	-0.025212705891918902	0.004828151869100342	2.4161134422003244e-05
Xe	0.00014977093256308993	-9.216169228057774e-05	0.0027971088815257946	-0.004971984472423707	-0.008250772156634731	5.432857244966275e-07
2
250600
Ar	-0.00031938856880711527	-0.00035385666913581083	0.003175313180282776	-0.019022150353732847	0.01709273742318189	4.261210779940249e-05
Xe	8.087587068923359e-05	-0.0001577698596839047	0.0027978270911290003	-0.008459211028244047	-0.0045430017481037045	0.0001359740337096484
2
250800
Ar	-0.0004548649076953803	-0.00014064843379387175	0.0031756402672617643	-0.007429843029608429	0.024511146607311327	4.2934065982861996e-05
Xe	-1.1138855244413462e-05	-0.00017827658255935777	0.0027996780566130145	-0.009495930848820024	0.0005334326713702745	0.00020005300867760928
2
251000
Ar	-0.00046072218086216395	0.00011281636867007392	0.003175992257862366	0.006273624554743214	0.02491771341912137	2.6576863845521717e-05
Xe	-0.00010006360294476514	-0.0001477455384123436	0.002801578538897595	-0.007851171920024675	0.005430275790945975	0.00014008038628917114
2
251200
Ar	-0.00033522835369506377	0.00033411966316934763	0.0031761149488850225	0.01819500273119717	0.01825564843534776	-1.1540538966198263e-05
Xe	-0.000160351320324046	-7.510436859631613e-05	0.002802302272775374	-0.0038894265310152965	0.008748566489120695	-9.767558225607145e-06
2
251400
Ar	-0.00011436411919202121	0.000460353780202721	0.003176080533634238	0.024893199489952663	0.006389084419321048	1.3774707338029143e-05
Xe	-0.0001743078976948753	1.8535193060147656e-05	0.0028016028782171555	0.0011535508513180156	0.009530402904962675	-0.0001388343927356335
2
251600
Ar	0.00013890925435692468	0.00045543338178741444	0.003176217034668836	0.02453617432484007	-0.007349539872105829	-7.092284115657378e-06
Xe	-0.00013855861044959004	0.00010669204147778121	0.002800098090303039	0.005834495704934259	0.007658435178069659	-0.00015210888996084225
2
251800
Ar	0.0003525575852489188	0.0003204874360988754	0.003175980083698192	0.017160169181995484	-0.01899060138024789	-4.6746819771779426e-05
Xe	-6.333822351561972e-05	0.00016431826338983026	0.0027985862108055423	0.008855602712895806	0.00359355578542366	-0.00014307600688484207
2
252000
Ar	0.00046565673775266305	9.402085688543378e-05	0.0031755734962837815	0.004894644601510682	-0.025205793314908194	-3.498380624525238e-05
Xe	3.022316156618414e-05	0.00017517764936284826	0.002797519818633137	0.00938036033827489	-0.0015050059106255411	-7.486508070374014e-05
2
252200
Ar	0.0004460089785047778	-0.00015930014465934567	0.0031755736494661524	-0.008745342760886173	-0.024234463603427615	1.6814518582744813e-05
Xe	0.00011502750998922218	0.00013572701135023917	0.002797459435109794	0.00717762986111602	-0.006198346906060321	5.0035275920502474e-05
2
252400
Ar	0.00029924268186588696	-0.00036712844250654035	0.0031759431158789177	-0.019898176690724783	-0.016317244490403917	4.06178453752759e-05
Xe	0.00016714310530580446	5.7334702231776746e-05	0.0027984401265563467	0.0029803030364384236	-0.00908868421873006	0.00012906604042200762
2
252600
Ar	6.718724493608185e-05	-0.0004702640209882445	0.003176167594461574	-0.025371839838094257	-0.0037871576149094443	-3.2193227983383208e-06
Xe	0.00017176704169343004	-3.7276606944679445e-05	0.002799749923286505	-0.0020895606239032267	-0.009361186136080961	0.0001307309837353665
2
252800
Ar	-0.00018409393837302674	-0.000439197317025803	0.0031759393194679395	-0.023650381036659916	0.009860817346687336	-2.6725832933920867e-05
Xe	0.00012757429542707805	-0.00012095868129269152	0.00280111489213176	-0.006557004804917989	-0.006954297629625814	0.00014354443117174025
2
253000
Ar	-0.0003828770886360546	-0.0002830320606347731	0.003175516232166215	-0.015155598837433046	0.02061034886702255	-2.4289407006711263e-05
Xe	4.716433862423084e-05	-0.00016988581931413972	0.0028022388576908934	-0.009126088460352195	-0.0025784133710385314	4.384597881425704e-05
2
253200
Ar	-0.0004723760626389834	-4.6446260323687224e-05	0.0031754232102013855	-0.0023137687257540943	0.025555080051995593	6.782026584164466e-06
Xe	-4.6344333006507496e-05	-0.00017032207340650233	0.002802107150091208	-0.009104485784371657	0.0025174960141496065	-4.950233176550058e-05
2
253400
Ar	-0.0004273755736808229	0.00020362947780246812	0.0031755666381828676	0.011118390897212659	0.023225670189675834	1.101334527903143e-05
Xe	-0.00012629869262929024	-0.00012202094979895251	0.0028009216065990475	-0.006493306860355348	0.0068932285704784	-0.0001717906160348484
2
253600
Ar	-0.00026091625142606544	0.0003958947505205141	0.003175795045751949	0.021367765789002974	0.014263222993015589	1.626807780258346e-05
Xe	-0.0001699089287619263	-3.9126814115251624e-05	0.0027990156745967836	-0.002061485742629262	0.009269265645621439	-0.00019556009214241474
2
253800
Ar	-2.0309376131440198e-05	0.00047535590708061755	0.0031757832088131327	0.025575710783135332	0.0012446744234188125	2.291205263099337e-06
Xe	-0.00016541704454896085	5.497479766350473e-05	0.0027974546272111402	0.0029505176306805284	0.009070559918455191	-0.00010299319342216253
2
254000
Ar	0.00022574470930531484	0.00041941462370242717	0.003175947599088891	0.02244839873221558	-0.012141479004376218	2.5296535833938594e-05
Xe	-0.00011354461761463634	0.00013368111476775497	0.00279688209535841	0.007156198019760757	0.006284270124377035	3.340508540589865e-06
2
254200
Ar	0.00040706209522504847	0.00024384862703323676	0.0031765124702829864	0.012924233829953793	-0.022120937486463762	4.908426118961365e-05
Xe	-2.9058709441313386e-05	0.0001745280102552578	0.0027977068721889383	0.009329616238661678	0.0016687341578356099	0.00012031828532573845
2
254400
Ar	0.00047198850212301906	-1.3962095651389383e-06	0.0031766955212814054	-0.00025865384925876104	-0.025734302604011817	-2.565973711051363e-05
Xe	6.380725709475073e-05	0.00016536605399248945	0.0027993816656198835	0.008808892727720827	-0.0034243423506391344	0.0001599689982157074
2
254600
Ar	0.0004025599725632863	-0.0002463168300422719	0.0031763002748700676	-0.013300107246709087	-0.022064199150009397	-4.084286655463701e-05
Xe	0.00013868023443696807	0.0001093372633604677	0.0028008303122652833	0.005801576508077862	-0.007531248523565535	0.00011524524183813289
2
254800
Ar	0.00021867899425305956	-0.00042128935323993045	0.003175586983191743	-0.022584189304865256	-0.012069124909324642	-0.00011796208968148345
Xe	0.00017419675097425912	2.2176654571882814e-05	0.0028015595934233178	0.0011187496194716943	-0.00946427991562636	2.8928175900052805e-05
2
255000
Ar	-2.735538034458439e-05	-0.00047617180927846104	0.0031744305134983135	-0.025420886080663053	0.0013555433720009655	-9.42685692862436e-05
Xe	0.00016012154086520304	-7.088089500912114e-05	0.0028014678733915385	-0.003846362243622725	-0.008698919441751317	-4.042047485474526e-05
2
255200
Ar	-0.0002658013779270229	-0.0003953805026361942	0.003173944535876077	-0.021085793556692843	0.014401145556243852	-2.591448978602027e-05
Xe	0.00010079267255588968	-0.0001434862659080927	0.0028005260332563003	-0.007726083412924998	-0.005472252462096458	-0.0001605311294168794
2
255400
Ar	-0.0004288030143998115	-0.0002021496446782449	0.0031742357233931146	-0.010711752151267958	0.0233150424856516	8.66528485376551e-05
Xe	1.2910073169571637e-05	-0.00017534712632682027	0.0027988173977376426	-0.009404701644147088	-0.0007287890711632221	-0.0001772991263552119
2
255600
Ar	-0.0004699119380478838	4.881287922305675e-05	0.0031754759928668756	0.0026970759190432436	0.025639593742530022	0.00013316743183674386
Xe	-7.894228071190221e-05	-0.00015723190177979035	0.0027973577531624923	-0.008500388487128524	0.004251737280314883	-8.986000740750871e-05
2
255800
Ar	-0.00037742436585316776	0.0002858127883475127	0.003176601713404831	0.01537219393163095	0.02058960178006185	7.359261502698363e-05
Xe	-0.00014851021656769105	-9.43012918647752e-05	0.0027969447082405252	-0.0050896695206293545	0.008024237360994144	1.3853588408031811e-05
2
256000
Ar	-0.00017739781208575808	0.00044111266055454635	0.003176788438872636	0.02367199270289918	0.009687959861352256	-4.2574076856459154e-05
Xe	-0.00017573821698252325	-4.2758802061216166e-06	0.0027979747522589122	-0.00021058715375656034	0.009551644927725629	0.0001742413656984341
2
256200
Ar	7.311611086780822e-05	0.000470313974567142	0.0031761835672675627	0.02520362451843253	-0.0039800514932834255	-8.719641268042064e-05
Xe	-0.00015260020571825468	8.749106028282542e-05	0.0028000298376454386	0.004703123948424751	0.008350761950206651	0.00021706750901248932
2
256400
Ar	0.00030261749314802473	0.0003654482117294327	0.00317514765649136	0.019593285692185824	-0.016476194191535908	-7.712890191648732e-05
Xe	-8.592055442824267e-05	0.00015452428784322033	0.0028019137982884116	0.00829124078447789	0.0047145647507236925	0.00014819200255327482
2
256600
Ar	0.0004462058121511669	0.00015669793300379862	0.0031747255848046715	0.00844843874036612	-0.02426660628334147	1.1529317864882454e-05
Xe	4.7997493586618754e-06	0.00017715794672074994	0.0028025991136645533	0.009408691354066506	-0.00028773809131059635	-2.3003396435033567e-05
2
256800
Ar	0.00046317934053959276	-9.64053932377885e-05	0.003175643839596738	-0.00514255827583773	-0.02512703341205354	0.0001342007904562187
Xe	9.350849146866387e-05	0.0001492076244639304	0.002801526679161361	0.007874447820839871	-0.005161081269685819	-0.00016120266466898255
2
257000
Ar	0.0003482688305047808	-0.0003219764717371896	0.003177041324034945	-0.01727302034917449	-0.01888771602867828	9.47948004856844e-05
Xe	0.00015524903218760676	7.869094137795044e-05	0.0027995473830240525	0.004177653029039413	-0.008585313307286995	-0.00022004016109634274
2
257200
Ar	0.00013423597303534963	-0.000455512394314879	0.003177598381206568	-0.024492987064261895	-0.007171957158490472	1.4934371141926314e-05
Xe	0.00017285394090005006	-1.418806434681307e-05	0.002797570822518425	-0.0007302990768802147	-0.009536979254924822	-0.00017006802278708716
2
257400
Ar	-0.00011814687393194651	-0.00045881189089056444	0.0031773502022901085	-0.02472755471142632	0.006525411044035424	-5.538289690907467e-05
Xe	0.00014107698057787082	-0.00010318186969174713	0.0027964425207868343	-0.00548906390428815	-0.007826703838467234	-3.329204439783493e-05
2
257600
Ar	-0.00033660066577302937	-0.0003312897102272747	0.003176740980100371	-0.01791808842234503	0.018349151062636168	-5.420990586940935e-05
Xe	6.863229114327974e-05	-0.00016324196932669167	0.0027968916188039236	-0.008634153816169202	-0.003876864886159737	9.620550343670044e-05
2
257800
Ar	-0.00045934587094827395	-0.0001094170319040656	0.0031763535640283824	-0.0060404221175285105	0.02494750005037215	-1.495041177934949e-05
Xe	-2.3434190999632837e-05	-0.00017703725610797457	0.0027982875201957146	-0.009305646857302473	0.0012064691748264042	0.00019093910654864891
2
258000
Ar	-0.00045122655612635286	0.00014399903196837517	0.003176153645459576	0.00761961403282821	0.024493393732282938	-4.3803221859002104e-05
Xe	-0.00010892435004765853	-0.00014036039939553722	0.0028004734459926624	-0.007354314360229893	0.005962654076718042	0.00022535937874122242
2
258200
Ar	-0.0003143432811841811	0.0003568347479036162	0.003175912530502793	0.01909423445915405	0.01702848244854161	-2.9808931291811294e-05
Xe	-0.00016330777022939154	-6.362108553127728e-05	0.0028024703398323524	-0.0032663429169903723	0.009007345905343389	0.00014558420936981647
2
258400
Ar	-8.794087449724792e-05	0.00046834174044565856	0.003175465035200728	0.02507639397329962	0.004726490396591727	-4.691144017719543e-05
Xe	-0.00017144338691437832	3.109464008215216e-05	0.0028031408888049203	0.0017095336062017638	0.009471180004852165	-3.269102918689004e-05
2
258600
Ar	0.0001635077409771895	0.000446504050963635	0.0031753867508569782	0.023988937769013813	-0.00899171284325759	1.7532288048191257e-05
Xe	-0.00013085701797349223	0.00011660191126032987	0.0028020224035222585	0.006214671390131403	0.007225419317866559	-0.00018682095787975108
2
258800
Ar	0.00036862676001881046	0.000297390147819951	0.0031760050934671255	0.01604184974315168	-0.020121433062284862	0.00010422856532832924
Xe	-5.298739882831686e-05	0.00016873699982809822	0.0027997418819819824	0.008985721906733257	0.0029511641317148396	-0.00026750928351918277
2
259000
Ar	0.00046894613867759575	6.357987327064487e-05	0.0031771474130538172	0.0035100224376662472	-0.02551777942451973	9.972112167784566e-05
Xe	4.007875243931439e-05	0.00017287604859774137	0.002797102007717589	0.009195386892421588	-0.0021389905346068916	-0.00022742486770409114
2
259200
Ar	0.000435364430009671	-0.00018815437533850979	0.0031774155607626384	-0.01005830909245539	-0.023610990403130874	-4.57427314056607e-05
Xe	0.00012244503143818194	0.00012765887158197023	0.002795728530276337	0.006868525373939705	-0.0066849864360566304	-3.8277075890180045e-05
2
259400
Ar	0.0002773437442738482	-0.00038592823409190093	0.0031763333059816384	-0.020762132373156064	-0.014981841680452244	-0.00013823439575998809
Xe	0.00017046783144924313	4.5554349683254e-05	0.0027963097987861573	0.002484525677005563	-0.009323117554300105	0.00012776799089482337
2
259600
Ar	4.0187931950565005e-05	-0.00047345688075584334	0.003174977273642465	-0.025504630355238422	-0.002104833847604527	-0.00011656100533043714
Xe	0.00016995405048667733	-4.990552347969678e-05	0.002798292089556657	-0.0025898738387500767	-0.009305841262439342	0.00025776676843315753
2
259800
Ar	-0.00020846715944314211	-0.0004261487721655666	0.0031741843426214837	-0.023011231463211886	0.011337418768351398	-3.177322672312239e-05
Xe	0.00012110514080180281	-0.00013095542056224576	0.002800825931701722	-0.0069293809986322695	-0.0065231111568518525	0.00021887364353513066
2
260000
Ar	-0.0003980550364353643	-0.0002574761871832083	0.0031744391814284697	-0.01397316436990522	0.021567995824223633	9.830735423310949e-05
Xe	3.806174480324224e-05	-0.0001743328657981487	0.0028025407486217905	-0.009265738730380986	-0.0019332485783631653	0.00011053150973532086
2
260200
Ar	-0.00047445734406186137	-1.539673422741868e-05	0.0031755727110488563	-0.000956653197464305	0.025663006977018243	0.00013071483919377722
Xe	-5.5342687888699025e-05	-0.00016773783844687345	0.002802825940106542	-0.008964686744927284	0.0032253987100560265	-3.890589072982197e-05
2
260400
Ar	-0.00041619586544346235	0.00023091640851014656	0.0031768044915712235	0.012303229941965997	0.022397599917645505	0.00010115682868999159
Xe	-0.0001324776220491005	-0.00011300149790939195	0.0028017581233270006	-0.006097593485171011	0.007458281601368698	-0.0001794514670210415
2
260600
Ar	-0.00023989699491071067	0.0004112499979967995	0.003177288240956368	0.022103279152834162	0.012779829062924014	-4.8088791436190185e-06
Xe	-0.0001717299067687951	-2.586353248403995e-05	0.002799582278325167	-0.0015392232834991644	0.009536909703031149	-0.0002631683263343844
2
260800
Ar	4.737570637937593e-06	0.0004741032359596973	0.0031769217554719954	0.02564037453407683	-0.0005092820485892135	-5.663739317518142e-05
Xe	-0.0001620194401125335	6.890405480815484e-05	0.0027972687276459963	0.00345616594522376	0.008954421290831484	-0.00019834558154982013
2
261000
Ar	0.00024796876480379554	0.00040178680154582	0.0031765105540028237	0.02180915580611234	-0.013595447477606375	-4.605707736942333e-05
Xe	-0.00010585525602241168	0.00014448625232258273	0.0027959484372911954	0.007529973434533585	0.0057953621981999635	-6.950457585610923e-05
2
261200
Ar	0.0004203627023459404	0.00021473989372043696	0.0031760859886680987	0.01179579674536219	-0.022897389064452038	-4.9732125977029045e-05
Xe	-1.8860146596637833e-05	0.000179282572879148	0.002795845464441725	0.009443831578766063	0.0009768763481063064	4.392481163859073e-05
2
261400
Ar	0.0004727103910166877	-3.381666362683564e-05	0.003175526616240883	-0.001590701800657735	-0.02561259103538703	-5.8600339401689575e-05
Xe	7.391838705646852e-05	0.00016290960882437905	0.0027970125488528015	0.008660571154163927	-0.004176303750486595	0.00018126965155465337
2
261600
Ar	0.0003899761244537826	-0.00027303858938000625	0.00317490655233664	-0.014551581515896193	-0.021044725906672297	-6.61033366899661e-05
Xe	0.00014583928010499994	9.982754298308337e-05	0.002799318096945086	0.0053674152196662986	-0.008126344545598511	0.0002696709343621725
2
261800
Ar	0.00019599863401899392	-0.0004345091977258809	0.0031747060475167395	-0.023301670424753736	-0.010475793353603881	2.3097596298368643e-05
Xe	0.00017624422488209582	8.354877011157608e-06	0.0028019983509027574	0.0005654674484908968	-0.009730378711424703	0.00023012211465993037
2
262000
Ar	-5.3879638651406435e-05	-0.000472410631078438	0.0031756897249321033	-0.02544208121976668	0.0030627637439621085	0.00014164968294702308
Xe	0.0001563282017581071	-8.529218012125813e-05	0.002803406674697599	-0.004413196700421504	-0.008545654828900451	1.2739731180962183e-05
2
262200
Ar	-0.00028881813817095795	-0.00037611327351099144	0.0031774935714879438	-0.02037400785087442	0.015751728009367767	0.00015672282770027955
Xe	9.24528303036657e-05	-0.0001544777153935032	0.0028024307975471597	-0.008070517539312063	-0.0049595782147637615	-0.00019250376621179972
2
262400
Ar	-0.000441922419209152	-0.000172525379749909	0.003178356420792308	-0.009504462944751366	0.023957527138098036	1.7728826565454896e-05
Xe	2.646234304872342e-06	-0.00017979511432503821	0.0028001450084152867	-0.009472469433491316	2.822847642373435e-05	-0.000262038271115548
2
262600
Ar	-0.0004690586665060982	8.020308706799064e-05	0.0031775188958998494	0.004206620507887827	0.02536465894729313	-0.00019451344369422014
Xe	-8.811082146091678e-05	-0.00015374488949091388	0.002797785989495968	-0.00823412865727327	0.005051736229841239	-0.0001930134943911468
2
262800
Ar	-0.0003620547066104778	0.0003101140765975745	0.003175048816711268	0.016681035664791604	0.01950709456077619	-0.000260129842709891
Xe	-0.0001542124120329604	-8.375328294259448e-05	0.002796564032799704	-0.004637825977573327	0.008605660302275341	-2.6695869815954365e-05
2
263000
Ar	-0.0001517862718591534	0.0004516729546292246	0.00317307502350186	0.024368558587208867	0.008124716037949975	-0.00013336196717315696
Xe	-0.00017644550667788358	1.0123517379902324e-05	0.002796973623451912	0.0002917140228168529	0.009710460657763393	7.895450362904404e-05
2
263200
Ar	0.00010212171650262682	0.00046489138458757613	0.003172991648415235	0.025174933619346057	-0.00554765019845908	9.149152658482161e-05
Xe	-0.00014849648827964938	0.00010096305779524441	0.0027985614309694426	0.005156540297191077	0.008043875888768075	0.00021180478198722978
2
263400
Ar	0.00032752964980787386	0.0003456977246943601	0.0031747744216997433	0.018787557222068672	-0.0176886598097345	0.0002549899461464837
Xe	-7.826034417446745e-05	0.00016291056750737705	0.002800720668487409	0.008555086528020351	0.004058032786990519	0.00019035427202946422
2
263600
Ar	0.000459884641721172	0.00012770658673314718	0.003177333011884901	0.007034536607164775	-0.024833498899011725	0.0002082905656643973
Xe	1.4448926629547153e-05	0.00017827848116656138	0.0028024391744634336	0.009528653249542017	-0.0010242137697786292	0.00013713043805661101
2
263800
Ar	0.0004612787936683493	-0.0001269744633243062	0.003178589449386384	-0.006769954131223888	-0.024850735718336875	2.4527950416379482e-05
Xe	0.0001032142892104145	0.00014323463224091802	0.0028029821800351884	0.00779094274173598	-0.0058270139329721395	-3.316834879290847e-05
2
264000
Ar	0.0003309528421031134	-0.0003454819162866899	0.0031778658696789545	-0.018667176281952396	-0.017759709212855253	-0.00015214619280018375
Xe	0.00016291363317701388	6.764796470972698e-05	0.002801967166044383	0.0038539467879463835	-0.008924676229971009	-0.00016633230606581017
2
264200
Ar	0.00010609904132884341	-0.00046520054255641763	0.0031761415720269848	-0.025212066723722903	-0.0056144957531754315	-0.00017320909952091176
Xe	0.00017657472795905188	-2.6972993085888106e-05	0.0027998353027509698	-0.0011982491864562686	-0.009530878707069913	-0.0002460664030531724
2
264400
Ar	-0.0001492130156546676	-0.00045205353853546997	0.0031745771615515482	-0.024599732461562173	0.00815090306032735	-0.00012141317493700889
Xe	0.00013954139327198903	-0.00011384588974499973	0.0027976266484750806	-0.006021302026516332	-0.0074151923874237425	-0.00016121489140660198
2
264600
Ar	-0.0003619906962669344	-0.00030980004721673247	0.003173876059034311	-0.01690098373049388	0.019586319683779538	-2.1052128643263418e-05
Xe	6.210706976429363e-05	-0.00016843481815475488	0.0027967809518205594	-0.00909676938340861	-0.0032371520437696594	1.944295310317303e-05
2
264800
Ar	-0.00047114340745218255	-7.917171075809347e-05	0.0031742645506672032	-0.004377804323345928	0.025410115324702477	8.857182941625978e-05
Xe	-3.333965503222166e-05	-0.00017510017637988365	0.002797786123439381	-0.009527627081894356	0.0019312157702801416	0.00016208562399823667
2
265000
Ar	-0.0004454288002733274	0.00017380927596185485	0.003175295815491988	0.009394790868751522	0.023960066511027476	0.00010563781386882385
Xe	-0.00011940140217038996	-0.00013150779219663693	0.0027997655138786116	-0.007245895978690882	0.006555646803521258	0.00022921288133459546
2
265200
Ar	-0.0002926187191072314	0.00037726389244035965	0.003176474905397794	0.02041843775198315	0.015731703226128047	9.132218259319677e-05
Xe	-0.00017163195374317848	-5.0407547868861e-05	0.0028019875255725075	-0.0029318116536327706	0.009235177717250926	0.00019899077333828774
2
265400
Ar	-5.654353152237463e-05	0.0004733158495281774	0.003177188134263719	0.025637158527969783	0.003012410033530632	4.016964639932076e-05
Xe	-0.00017500887398530908	4.450615605511155e-05	0.00280325847096145	0.002263133368983942	0.009260436443019144	2.9381590198828143e-05
2
265600
Ar	0.00019547857434256557	0.00043472289574392615	0.0031767340676081596	0.023543495447210096	-0.010548259228953175	-9.541248675882333e-05
Xe	-0.00012835298079207812	0.00012619849744571843	0.002802604309029769	0.00682583104138499	0.006670144596895356	-0.00014254253592742915
2
265800
Ar	0.0003918095674217847	0.0002719025457033642	0.003175500729382345	0.014763997170656707	-0.021213909685743552	-0.00015277208096735177
Xe	-4.5335745238367164e-05	0.0001717250139268933	0.0028005950249462104	0.009393450906287185	0.0022180946128661587	-0.00022669414673136086
2
266000
Ar	0.0004762006884184915	3.1396454556789936e-05	0.0031740435728345234	0.0017166410543787917	-0.025707998332820982	-0.00011490026781435808
Xe	5.0597297059055445e-05	0.00016854579720418229	0.0027986065888967464	0.009342689273218543	-0.002828159692661215	-0.0001646471165147698
2
266200
Ar	0.00042457814149291434	-0.0002181310260511339	0.0031737271504825144	-0.011799760875123187	-0.022944494822056107	4.399852995981582e-05
Xe	0.00013232890892735447	0.00011752383763244129	0.002797644060843426	0.006636221632688897	-0.007137945608723358	-3.4683139860415614e-05
2
266400
Ar	0.00025177263735264195	-0.00040518716395166306	0.0031748498352174247	-0.021931088883151775	-0.013562186023490304	0.00014921979189490875
Xe	0.00017657412397159702	3.276740005824697e-05	0.002797737830256852	0.0019952433045025302	-0.009389385435087194	7.162652687228569e-05
2
266600
Ar	7.018914302354948e-06	-0.0004767364486360731	0.003176294700427415	-0.025819632871929357	-0.000399211358152361	0.00011409112741754977
Xe	0.00017020750534916585	-6.147742885232103e-05	0.0027986611382162688	-0.003215405278032066	-0.008992085343200965	0.00011530673834592936
2
266800
Ar	-0.00023967375509943505	-0.00041250184648464894	0.0031769418999402724	-0.02230926864500107	0.012929934953779539	-7.568500496680974e-06
Xe	0.00011515160396891445	-0.00013836561016810945	0.0028001333472824747	-0.007527656944919198	-0.006021002940803796	0.00016645447984317658
2
267000
Ar	-0.00041771684939741443	-0.000230647129259019	0.0031763760303527046	-0.012409366402680082	0.022543059402766227	-0.0001075284443199371
Xe	2.6931363156240987e-05	-0.00017596104836812776	0.00280166374288251	-0.00968904147972546	-0.0013220082920370841	0.0001270871941059181
2
267200
Ar	-0.0004763538972246987	1.678160829703829e-05	0.003175062940657035	0.0009532432269264274	0.025734474764139523	-0.00012158149930734525
Xe	-6.918723410318585e-05	-0.0001635809644573506	0.0028024640574210442	-0.009051894880916884	0.0037504734735666957	4.0543157802338004e-05
2
267400
Ar	-0.0003991942829993998	0.000259634858196465	0.0031743531429197194	0.014092783021972569	0.02164091582469866	-3.0435575621454316e-05
Xe	-0.000145190433895076	-0.00010472117061948226	0.0028019709486846794	-0.005765909212996905	0.007713517289182947	-0.00013836789254455655
2
267600
Ar	-0.0002080339858982213	0.0004289278370277446	0.003174522395329549	0.023190827267090756	0.011384802382494112	5.240838196824495e-05
Xe	-0.0001794426818033089	-1.643252337698776e-05	0.002800035453973104	-0.0009097602345343493	0.009526485498513768	-0.00021934985213368537
2
267800
Ar	4.232870443273441e-05	0.000475911096876678	0.003175268755932463	0.02565157586283684	-0.0022126231900441193	9.48030047965882e-05
Xe	-0.00016230737649227775	7.67646905103257e-05	0.0027981915871800904	0.004244059594554356	0.008652941253840911	-0.00013482864592118777
2
268000
Ar	0.00028036237813479646	0.00038681832588620364	0.0031761103863235172	0.02078965850854756	-0.015171379537316114	4.7920167064434066e-05
Xe	-9.850763788264449e-05	0.00014854735740753866	0.00279777812794395	0.008200515533174982	0.005324985496021795	4.2144989607257016e-05
2
268200
Ar	0.00043816429350822527	0.00018694868715447765	0.0031763996896581365	0.009995370087364817	-0.023783353394930137	3.3678829049049893e-06
Xe	-6.313227235366311e-06	0.00017795835016205244	0.0027988081909436574	0.00980087007599718	0.0004301347502511703	0.00016650469196274043
2
268400
Ar	0.00047110859810479673	-6.622623815663117e-05	0.003176247773384112	-0.0035789645186175443	-0.025599292281815265	-1.9948858703962604e-05
Xe	8.778989352195134e-05	0.00015672792383417648	0.002800546599420797	0.008552330323869291	-0.004589483471957834	0.00015499928047467727
2
268600
Ar	0.00036970929850073354	-0.00030078213312761026	0.003175959213970859	-0.01619564912351633	-0.02013824872697471	-4.037615665430887e-05
Xe	0.0001566588358513762	9.04263723845955e-05	0.0028015814857421445	0.004874083795535097	-0.00834234043399783	5.457992636425294e-05
2
268800
Ar	0.000162668613603245	-0.000449539324794867	0.003175532760284762	-0.02423160172364539	-0.008888903878415899	-3.848218931231595e-05
Xe	0.00018087651832104375	-1.8223051896943946e-06	0.0028017968834955064	-0.0001482591477191745	-0.009662145890719282	-1.6058076485847845e-05
2
269000
Ar	-9.115095021985177e-05	-0.00046993407107608786	0.0031753161313801304	-0.02529222464467947	0.004903478709873256	-1.090402294303472e-05
Xe	0.0001536993922454112	-9.334353285549168e-05	0.0028014368616515527	-0.005127154041547186	-0.008197545706047978	-5.154452962885846e-05
2
269200
Ar	-0.00031886818304804	-0.00035614798246894313	0.0031751787981215535	-0.019158470101303813	0.017303747492780235	-1.7987209028235576e-05
Xe	8.296570721423917e-05	-0.00015797653048319363	0.002800869429496151	-0.0086750278747755	-0.0044132140684065265	-6.48942704336817e-05
2
269400
Ar	-0.0004557103274182711	-0.00014049421472269122	0.0031749051226156256	-0.007559983566029419	0.024748375596384185	9.838750383947299e-06
Xe	-1.141593905976331e-05	-0.00017777110790586688	0.00279999390820703	-0.009737078370737869	0.0005614475226479138	-0.00010249079275413694
2
269600
Ar	-0.00046293412434957184	0.00011502157414834956	0.0031751205100729388	0.006161016532285987	0.02510831607712699	2.3400521135049644e-05
Xe	-0.00010239606574712614	-0.00014702870827453576	0.00279932357694989	-0.008024626202275943	0.005420690906924185	-6.152012200465286e-05
2
269800
Ar	-0.0003381906219651742	0.00033765662156757506	0.003175416487623282	0.018168389632972008	0.018308002293641396	2.440585441859357e-05
Xe	-0.0001641101824720144	-7.45758440533452e-05	0.0027990894085601925	-0.0040229266012025726	0.008743393533612767	3.3270489550343996e-06
2
270000
Ar	-0.00011695817655464055	0.0004632909927755363	0.0031755532021250244	0.02497454600334516	0.006208882772639154	6.758493805886443e-06
Xe	-0.0001790328956714931	1.9198648482295252e-05	0.0027995428162328373	0.0011028516148551388	0.009566707914690626	6.724117573676737e-05
2
270200
Ar	0.0001375586647629725	0.0004561225888874989	0.0031754230999617617	0.024673806315909222	-0.007596253656014221	-1.793595874197224e-05
Xe	-0.00014283247305548017	0.00010758231861403774	0.002800422326122207	0.005949984384744636	0.0076663241259297575	8.195365634515834e-05
2
270400
Ar	0.00035308713239068324	0.0003188210858724677	0.003175331159855985	0.017386960802673827	-0.019207265329976415	-1.8547066723060437e-05
Xe	-6.598491427163439e-05	0.0001651481119390598	0.0028011915807356715	0.009066702415605043	0.003559015679871637	5.09169705819001e-05
2
270600
Ar	0.0004684746089437863	9.064971248358959e-05	0.003175248670544483	0.005122830323902522	-0.025314974372472453	2.2587765363706046e-05
Xe	2.953785063443737e-05	0.00017558138819470252	0.002801166491399331	0.009605536028645943	-0.001539676604494021	-4.0347509700226414e-05
2
270800
Ar	0.000450488892043912	-0.00016324551804029644	0.0031757567171692143	-0.008633235263038877	-0.024203133700890566	4.7222483430820145e-05
Xe	0.00011679914799474832	0.00013597895182670866	0.002800540745900054	0.007431832341480621	-0.006198681921073581	-6.629010743067344e-05
2
271000
Ar	0.0003041732736789492	-0.00037004579402278383	0.003176263808688713	-0.01991699713614419	-0.01615831652239055	1.9701660271354498e-05
Xe	0.00017079182371958795	5.74217441285801e-05	0.0028001246925856865	0.0031214156496435497	-0.009120040015981816	-3.3811144871938914e-05
2
271200
Ar	7.097995245124942e-05	-0.0004709081307262201	0.0031762619100135876	-0.025565529782390597	-0.0035360566298382684	-3.7270099471671264e-05
Xe	0.00017621529233413486	-3.762612949817251e-05	0.0027998786695009915	-0.00206962875714595	-0.009410034618827065	-2.808604345029781e-05
2
271400
Ar	-0.00018258534567513823	-0.000437281783959342	0.0031758777683242464	-0.023894892705455834	0.010058156245127363	-4.5384853503657816e-05
Xe	0.00013131938866482336	-0.00012175057951462255	0.0027993911698678733	-0.006673282765303636	-0.00702381121237663	-4.6162084065445986e-05
2
271600
Ar	-0.0003840171923412404	-0.0002793458890234637	0.0031755552320836848	-0.015421381089203887	0.0207406385077181	-2.1400572476805586e-05
Xe	4.909679326631382e-05	-0.00017135000820742122	0.002799398346299253	-0.009379499765355258	-0.002629300099901185	1.693884980798989e-05
2
271800
Ar	-0.0004760431437313232	-4.1870742737486075e-05	0.0031752827744783263	-0.0025382020667495298	0.025575825492131037	-6.472163445450211e-05
Xe	-4.737386229397127e-05	-0.00017188953448990188	0.002799676095608684	-0.009440113436908606	0.0025235504580331143	3.0252372556731753e-05
2
272000
Ar	-0.0004323065789200648	0.00020749875157189649	0.003174775611002946	0.011073041699192786	0.023070067393608052	-3.647092572374129e-05
Xe	-0.00013056394233919852	-0.00012335607169515234	0.0028002760991683684	-0.006791778469253369	0.006943301527287166	9.753834031360256e-05
2
272200
Ar	-0.00026521241365923975	0.0003977350236744799	0.0031745216427742306	0.021535496052341736	0.014014830509635333	-7.722293909431384e-06
Xe	-0.00017663619260573353	-4.003257727701687e-05	0.0028012087570665626	-0.002184587999781882	0.009326627904679696	5.959130435532223e-05
2
272400
Ar	-2.229976515301139e-05	0.0004746570014526542	0.0031746745161767833	0.02588343293485175	0.0010006910827075697	3.4645228593731486e-05
Xe	-0.0001721237550312476	5.4359635645390475e-05	0.002801481411240313	0.003051918820395394	0.009089387664344592	-8.041002382435462e-06
2
272600
Ar	0.0002272387528218965	0.00041656992453010323	0.0031752287042830446	0.022807789387662956	-0.012328985475184486	6.438557829096679e-05
Xe	-0.00011855117147231308	0.00013311406892481913	0.0028008919037552705	0.007388440136226482	0.006271803912944057	-9.032220955178899e-05
2
272800
Ar	0.0004119758692166169	0.00023959542704231882	0.003175994278751075	0.013220147036091916	-0.022192255793866727	6.896843535954015e-05
Xe	-3.106810765767978e-05	0.00017378094871248027	0.002799942213426607	0.009673252824622254	0.001673416515748246	-0.00011045870385021907
2
273000
Ar	0.0004790153903870704	-5.817702621473652e-06	0.0031763766413564856	-0.00016106602268323639	-0.025682492995713006	1.37804275069422e-05
Xe	6.551108202140725e-05	0.00016508649665972517	0.0027990182432186027	0.009188862395509782	-0.0033526336958048146	-4.476837690709451e-05
2
273200
Ar	0.00040894321326605135	-0.00024952267612306586	0.0031761061102427352	-0.013500643153957876	-0.021861425654174142	-6.422123985872112e-05
Xe	0.00014360751584889406	0.00010950293168990891	0.002798847301586145	0.006051484099100408	-0.007499946308107737	2.2060219042865235e-05
2
273400
Ar	0.0002221211508648039	-0.0004217087934792278	0.003175303432574703	-0.02296498911193927	-0.011760063783801494	-8.71443584699545e-05
Xe	0.00018080148406206777	2.245135279623034e-05	0.002799205615882143	0.0012194561777933903	-0.009493835142803362	5.448059951493672e-05
2
273600
Ar	-2.8685702217994416e-05	-0.00047339691667164317	0.003174833162198862	-0.025923213825888712	0.0016708219378916793	5.1668570808058966e-06
Xe	0.00016664315716098058	-7.11116976747584e-05	0.002799620549220073	-0.004017859063375571	-0.008764763769473912	3.5425705888201685e-05
2
273800
Ar	-0.0002716189687882158	-0.00038977683995760075	0.0031752318133410717	-0.021460132573922774	0.014659481100332626	6.335098585539443e-05
Xe	0.00010451964141511939	-0.00014441574162605647	0.002799812540084627	-0.008109089221638667	-0.005522680946547433	1.7704032638131193e-05
2
274000
Ar	-0.00043730899478233227	-0.00019438154004907	0.003175916478742291	-0.01086805459306914	0.02345169616021923	1.699893496449828e-05
Xe	1.2423842901018129e-05	-0.000176273531055727	0.0028001810987583757	-0.009855055658019184	-0.0006971477188896392	4.744155186606387e-05
2
274200
Ar	-0.0004782132305288656	5.658439874780752e-05	0.0031756614023381686	0.002884859550796278	0.02552249351308321	-4.794406165777662e-05
Xe	-8.31110499497525e-05	-0.00015779368157351126	0.002800320763166371	-0.008790301104751303	0.0043050971746049355	1.7143183748103665e-05
2
274400
Ar	-0.0003824508061135405	0.00029151244639845353	0.0031752215088824724	0.015799668009012807	0.02032151970592274	-2.987169778333403e-05
Xe	-0.00015502803006948413	-9.406122649245865e-05	0.0028007223074174924	-0.0052257084034533505	0.00812742473726926	4.033620124661797e-05
2
274600
Ar	-0.00017751509209116615	0.0004434242681609208	0.003174967048903067	0.024166095299613163	0.009322090267764418	-8.893007098860998e-06
Xe	-0.00018254673328709357	-3.357162899228652e-06	0.0028010424427658814	-0.00014647266649739303	0.00957495001626174	-9.312731436784369e-06
2
274800
Ar	7.79068568673046e-05	0.00046902755934187496	0.003174994797399319	0.025653520628934626	-0.004329621583120301	3.2888758891994684e-05
Xe	-0.0001579502009562795	8.835472312472434e-05	0.002800922025728994	0.004959902607370995	0.00829533048164728	-2.806469675832194e-05
2
275000
Ar	0.00031105577572276594	0.00036048170690682936	0.0031754911973013544	0.019816082086548354	-0.01682993851849113	5.3007676142977154e-05
Xe	-8.830142473246108e-05	0.00015441207706243397	0.0028006058529503465	0.00863742689277607	0.00460727048216553	-3.10733629457547e-05
2
275200
Ar	0.00045532907480881347	0.00014904440357088036	0.0031758538993253817	0.008317760099811848	-0.024447480676090472	1.38547305096378e-05
Xe	6.9279405064848226e-06	0.00017616899693095636	0.0028004302235729852	0.009943418134497612	-0.00033524034316207514	4.0442870524675575e-06
2
275400
Ar	0.00046957466365863667	-0.00010504760578249009	0.003175745126212215	-0.00553687947160823	-0.025106522526660048	-2.393177000647224e-05
Xe	0.00010047204941183542	0.00014783144041067986	0.0028008431243171194	0.008319236453435127	-0.0051829673696211	3.196731809603021e-05
2
275600
Ar	0.0003497124587020837	-0.0003290826406182049	0.003175561868660077	-0.017857422980084477	-0.018585384459418614	-2.194276748239734e-05
Xe	0.00016545058447138967	7.726726446709844e-05	0.0028009709650809243	0.004353789666335254	-0.008565502942585367	8.860981061937497e-07
2
275800
Ar	0.00012962700230283487	-0.0004592111568132538	0.0031753168828063676	-0.02507177223601974	-0.006772802475555285	-2.895316581285406e-05
Xe	0.00018324152690450424	-1.5110521578156844e-05	0.002800860614819198	-0.0008707830345937374	-0.009465551988577401	-4.8555214716632866e-05
2
276000
Ar	-0.00012792314413718111	-0.000458226272688898	0.0031750159918071314	-0.02515809570472674	0.0069804534784869655	-7.491815960026709e-06
Xe	0.00014857057045718612	-0.00010317064327874303	0.00280026710187102	-0.005877875217441041	-0.0077123125313719515	-4.927410047443686e-05
2
276200
Ar	-0.0003491956289252737	-0.00032655607555905325	0.0031748438271891398	-0.017995432742229936	0.018715954985321415	-2.6418152978281132e-05
Xe	7.143852081896726e-05	-0.0001619836686038195	0.0027997566289557274	-0.009182708365049724	-0.003780358590359609	-4.3640881978493e-05
2
276400
Ar	-0.0004705937201413222	-0.00010184365614969203	0.0031746231652637707	-0.005690831683631866	0.0251195356991021	-8.209968102451332e-06
Xe	-2.6172872721411027e-05	-0.00017498368659739675	0.002799522517121285	-0.00989284330252168	0.0012761941634429079	-3.14438550695736e-05
2
276600
Ar	-0.0004574201673004444	0.0001518031212196064	0.0031746899813057425	0.00826198770938294	0.024363016277062322	-2.2597630613617505e-06
Xe	-0.00011663462880581309	-0.0001378425922066647	0.002799587709891867	-0.0077568035320864336	0.005996214502216624	2.3001026936684944e-05
2
276800
Ar	-0.00031311963653610886	0.00036212920151428143	0.0031749936684340617	0.019870293882712026	0.016680505237025894	5.237325207527191e-05
Xe	-0.00017402499303558966	-6.113435291855983e-05	0.002799941091278895	-0.0034177447375233626	0.008931937334596827	5.875481645569401e-05
2
277000
Ar	-7.944902060983879e-05	0.0004693464521072705	0.003175474309818428	0.02573321627443143	0.004236865176981731	4.099100796824461e-05
Xe	-0.00018183098196878362	3.262804300094303e-05	0.002800596915294382	0.0019038913441539198	0.009344213656887678	8.392705852993715e-05
2
277200
Ar	0.00017700599499802827	0.000442735023741771	0.003175628513130953	0.02427054100239319	-0.009431302992426158	-1.942434136621919e-05
Xe	-0.00013770975442198684	0.00011687031155374561	0.002801048946532059	0.006687522273061736	0.007108965564499199	3.7302555671939176e-05
2
277400
Ar	0.0003826778976598813	0.00028960023705211827	0.003175110472457894	0.01584418458116999	-0.020435992543591717	-9.453184506454828e-05
Xe	-5.4520779367645344e-05	0.00016770243641330416	0.0028013808474325053	0.009552061655898508	0.0028098483396947023	2.7392391691881113e-05
2
277600
Ar	0.0004788075862689069	5.343407381499711e-05	0.003174133891763404	0.0029040332515180606	-0.02561962719521745	-8.731384397768331e-05
Xe	4.430484716261917e-05	0.00017063427272140922	0.0028014508567379827	0.009726144870596186	-0.0022529360765177163	3.5231359863895658e-06
2
277800
Ar	0.000438070540585268	-0.00019788985815597247	0.0031736567287976754	-0.010849743647181526	-0.02345653123484024	2.0200044376792432e-05
Xe	0.00013040448605715075	0.00012499398809372525	0.0028010265277783634	0.007100126514075192	-0.006640863369452208	-5.108766471486239e-05
2
278000
Ar	0.0002722196337313391	-0.00039301029682744506	0.0031744208371133364	-0.021506037134504313	-0.014607146896437358	0.00013663668991171672
Xe	0.00017924876151997925	4.416134193172011e-05	0.002800314375925453	0.0024181168295231217	-0.009127255526430443	-7.206254908550909e-05
2
278200
Ar	2.8843207556042165e-05	-0.0004756749681797849	0.0031758334876147184	-0.025977504609678785	-0.0015663898652290855	0.00012449152425652893
Xe	0.00017655689385121675	-4.906115992716381e-05	0.0027995727572887453	-0.002960847644675864	-0.00905321402411034	-6.408077217440456e-05
2
278400
Ar	-0.00022235975124291717	-0.00042244192826282497	0.003176499841590381	-0.02304454956739998	0.011951471064088007	-1.7767845361273416e-05
Xe	0.0001232340922631067	-0.00012841925059696007	0.002799469975499965	-0.007470585946582952	-0.006422461577393266	5.0793756345199144e-05
2
278600
Ar	-0.00040973494462084696	-0.00024817328653643913	0.0031757371987554406	-0.013522192157039562	0.02201759144600217	-0.00012759237798521325
Xe	3.447948924659752e-05	-0.0001711399844268403	0.0028001638938128263	-0.00983505754561309	-0.0019310770153816662	7.560710582235069e-05
2
278800
Ar	-0.00048023169235789353	-3.198274098984765e-06	0.003174623771496638	-0.00021838831965198508	0.0257639984215947	-8.953577823441664e-05
Xe	-6.394212937769773e-05	-0.0001651493428803036	0.0028012928566822693	-0.009364177683719301	0.0030792884196693955	7.900593888462604e-05
2
279000
Ar	-0.00041373198433052554	0.00024258868723833307	0.0031739125242782407	0.013185431166372585	0.0221835473990247	-2.8203101995189347e-05
Xe	-0.00014361346643012012	-0.00011228055647298868	0.002801626795204631	-0.00620178366426368	0.007246677810171027	-6.150360348288157e-06
2
279200
Ar	-0.00022905334619834568	0.0004192874979232829	0.003174141038992383	0.0228414611911265	0.012293651413856554	6.025739131812951e-05
Xe	-0.00018193833200097056	-2.73476580400519e-05	0.002801272180957851	-0.001286822220604573	0.009322045577421988	-5.414813111968891e-05
2
279400
Ar	2.121522270716295e-05	0.0004764274665341312	0.003175156602500351	0.02597195752585031	-0.001168620152585537	0.00011598057413214815
Xe	-0.0001683422768395448	6.548258771228114e-05	0.0028004718823643145	0.003943610525642066	0.008772344478203867	-9.674904179827657e-05
2
279600
Ar	0.0002652215712029584	0.00039711192740009494	0.003175933191280439	0.021615973214904823	-0.014308619507104384	2.087737625219189e-05
Xe	-0.00010663148365838728	0.00013978642819601947	0.0027997711780862896	0.008075263968552448	0.005712143256941307	-6.795713012246708e-05
2
279800
Ar	0.0004330967895179378	0.00020439678525548902	0.0031758557068292622	0.011132209493833992	-0.023284056155222603	-2.5592638569788286e-05
Xe	-1.4487611098940978e-05	0.00017448987374681186	0.002799422072578609	0.009882657786065025	0.0010400714747811196	-3.455601958681441e-05
2
280000
Ar	0.0004770747062081667	-4.6216457336493626e-05	0.0031757060407502005	-0.002519086470893597	-0.025604003980074737	-2.1623032905328347e-05
Xe	8.14433667656474e-05	0.00015945418561295565	0.0027992923505483274	0.008844379563367949	-0.003975910678802469	1.6377261620383136e-05
2
280200
Ar	0.0003850181638076932	-0.00028340474348621575	0.0031755481505956907	-0.015451870732029784	-0.02066803170431414	-2.6113481955571137e-05
Xe	0.00015418818857562252	9.882768999540294e-05	0.0027995149109748298	0.005337567702551345	-0.007830884419940681	2.0162386757659588e-05
2
280400
Ar	0.0001829184627539699	-0.00043984595590151757	0.003175231567591171	-0.02398159054828059	-0.0098440311228886	-3.241635468409944e-05
Xe	0.0001834171075540753	1.0161008948872266e-05	0.0027998250581170833	0.0003235987897921892	-0.009473771581852726	6.327454035686631e-05
2
280600
Ar	-7.169169251903264e-05	-0.0004706443027202103	0.003174849086387008	-0.025683577321257554	0.0038403112508417184	-4.8583198328057806e-05
Xe	0.00016037421532340786	-8.152268197249593e-05	0.0028004825081114227	-0.004810324214395154	-0.00843419267261058	7.374625169700194e-05
2
280800
Ar	-0.0003059713887332685	-0.00036681417448139247	0.003174413985077769	-0.02002609155616881	0.01639087560264693	-3.2529579882554524e-05
Xe	9.200085559993603e-05	-0.00015016106815755482	0.0028014198952106177	-0.008557639838792324	-0.004947717556224595	8.130375738593122e-05
2
281000
Ar	-0.000452660289443435	-0.00015834886548745408	0.0031741251583617693	-0.008593751384504102	0.024272794919160682	-5.958075014582251e-06
Xe	-2.4199300710465824e-06	-0.0001759744252134444	0.002801857738650058	-0.009870252236763506	-6.508101975555527e-05	1.1007186912925548e-05
2
281200
Ar	-0.0004697979386437056	9.513070634548245e-05	0.0031744614174187575	0.005245746823880652	0.025192347304809917	4.8732449551617734e-05
Xe	-9.58649860985994e-05	-0.0001512707650916815	0.002801712538983706	-0.008357204674065059	0.004876878942548153	-2.7545008300261023e-05
2
281400
Ar	-0.00035275601617023575	0.0003219653821988601	0.003175102635762342	0.017593728707554636	0.01905312352048737	7.605627958546215e-05
Xe	-0.00016168190109419172	-8.338152128415247e-05	0.002801432860359611	-0.0044899894811923574	0.008389324346382928	-5.4241929976292315e-05
2
281600
Ar	-0.0001347804689745053	0.00045731929885965114	0.003175951743769959	0.024932717536522875	0.007360085652834513	6.596511110586876e-05
Xe	-0.00018144208369553136	8.243205089308245e-06	0.0028006603795921836	0.0006287841742519826	0.00950231094060949	-0.0001117323930273136
2
281800
Ar	0.00012175343662341796	0.00046204856946154466	0.0031761367572450644	0.025116833898696494	-0.006458760965655754	-2.0503936910686244e-05
Xe	-0.00014937637614267823	9.758388290544894e-05	0.0027996996544021914	0.005612302298972178	0.007915181025022212	-7.287694025057188e-05
2
282000
Ar	0.00034347520913813735	0.00033467300333807885	0.0031755429483488785	0.01812148339452046	-0.01839793771743164	-9.727309993155197e-05
Xe	-7.45143879472847e-05	0.00015922623077210284	0.002799086063612246	0.008977648586845187	0.004099351054890001	-2.863501347405516e-05
2
282200
Ar	0.0004667983338743169	0.00011200012995380078	0.0031744221626494517	0.005928081357800315	-0.025062454598717802	-0.0001288514243382411
Xe	2.1495874698697323e-05	0.00017532619232957957	0.002799276791986528	0.00973690902220448	-0.0009665239483210152	6.23593216150131e-05
2
282400
Ar	0.000456589272108056	-0.0001427424283827625	0.003173609965682714	-0.007919907287867643	-0.02464462717303219	-4.640000365706867e-05
Xe	0.00011093675392629432	0.00014107067447320028	0.002799774812901582	0.00771340770584788	-0.005716950125005836	5.3809589736985916e-05
2
282600
Ar	0.0003159995394200604	-0.0003570448945553072	0.003173921035942369	-0.019511628112793333	-0.017174914737659322	6.578736582156916e-05
Xe	0.00016854602316872776	6.656442375442153e-05	0.002800405236018872	0.003521608978223397	-0.008825180566177112	5.932793203636613e-05
2
282800
Ar	8.516326179788176e-05	-0.00046965997656430765	0.0031748341213587846	-0.025537179192019314	-0.004776868322300475	0.00011779623081435192
Xe	0.00017792760626506545	-2.692376843183502e-05	0.002801073407372141	-0.0017071828066789467	-0.00942016256101302	4.401093847174869e-05
2
283000
Ar	-0.00016997903884165464	-0.0004478763407472491	0.0031756334654074506	-0.024230886881046135	0.00902323881850642	6.775855913886596e-05
Xe	0.00013649680827000792	-0.00011295617182773808	0.0028017145202925823	-0.006374558084536105	-0.00734852339896511	6.935602316344766e-05
2
283200
Ar	-0.00037628778112566377	-0.00029804996635138074	0.0031756480758205496	-0.016021841845745902	0.02021349598688176	-2.6858278289999158e-05
Xe	5.612847067334416e-05	-0.00016670074959395664	0.002802152702925335	-0.009282530797328893	-0.0031762838902570285	2.352108839294694e-05
2
283400
Ar	-0.00047499018000321736	-6.331227309965765e-05	0.003175188282217757	-0.0032390541063557522	0.025614825359443025	-5.2746410959604854e-05
Xe	-4.0372867387476296e-05	-0.00017306110422511488	0.0028017602194074574	-0.009560165681589431	0.00193163445744717	-0.00011901488845567281
2
283600
Ar	-0.0004381223741256314	0.00018949212317416296	0.0031745447229570177	0.01043790161917205	0.023737546888939486	-5.2046613085039e-05
Xe	-0.00012565219134400097	-0.00013028162491058093	0.0028000234989529202	-0.007083956434603171	0.006425310079778997	-0.00019059067620575223
2
283800
Ar	-0.0002760406120161613	0.00038836289683113936	0.00317400761563924	0.021177278113860394	0.015082581486434302	-3.650357417988994e-05
Xe	-0.00017536952989532283	-5.0705631955510196e-05	0.002798256391295055	-0.002590762271675453	0.009109368360576159	-0.0001377425218455504
2
284000
Ar	-3.49386367772128e-05	0.0004762735042739778	0.0031739078482468553	0.02584759050768124	0.0020750326704406944	-6.238045574394229e-07
Xe	-0.00017495540701769775	4.344034846365636e-05	0.002797787817754785	0.002687406266651701	0.009239047872968942	3.406323756466659e-05
2
284200
Ar	0.00021613301956979633	0.00042771558068035266	0.0031738830632742805	0.023129242715142995	-0.011503072358682363	-1.3428319559965806e-05
Xe	-0.00012409826309968218	0.0001255759178818333	0.0027991472311370276	0.007236714240006788	0.0067803382842523035	0.00022292647414766427
2
284400
Ar	0.0004051641059026039	0.00025699210344623947	0.00317394298678481	0.013773641000879614	-0.021779826485966564	4.5087278821539225e-05
Xe	-3.7531608871058766e-05	0.00017247197036697346	0.0028011755745625064	0.009643314149063687	0.0023395487970987493	0.00020952314306306387
2
284600
Ar	0.0004785215715007628	1.2792824867142309e-05	0.003174731539527411	0.0005307198839508908	-0.025861058023593706	0.00013435957565386512
Xe	5.938274822621483e-05	0.00017030954072870836	0.0028027968915341323	0.009273527275915882	-0.002765756308724686	0.00010416668980160077
2
284800
Ar	0.00041550451145054	-0.00023533973639319077	0.003176179320426004	-0.01284195450434425	-0.022564415458587322	0.00012006752696744672
Xe	0.00013892210399414458	0.00011957798305768246	0.002803063576583315	0.006246994124626952	-0.0071209450397546874	-4.042232432512089e-05
2
285000
Ar	0.00023406342642315323	-0.00041679638091678036	0.0031769200044603004	-0.022553147110390536	-0.012812625623903916	6.044953738688536e-06
Xe	0.0001787257711310982	3.492717885332282e-05	0.002802369544862946	0.0015160980544294408	-0.009393900144591124	-9.739383981478185e-05
2
285200
Ar	-1.4086539645528993e-05	-0.00047940577491885556	0.003176192829441575	-0.025855081034226124	0.0006239654328890179	-0.00014851989945831906
Xe	0.0001674492968140301	-5.969837814441045e-05	0.0028012321952808374	-0.0036924862053831524	-0.009052426921097475	-0.00011498798689132062
2
285400
Ar	-0.00025833833176217274	-0.000404959323920024	0.0031743825064644393	-0.02178727366533127	0.013887553241697922	-0.00018620496559494141
Xe	0.00010849087923201203	-0.00013733388223643325	0.0028004756803848467	-0.007818926868583697	-0.0060713600813423465	-3.59533584189878e-05
2
285600
Ar	-0.00042854697198402097	-0.00021515496095123447	0.0031727755532485915	-0.011450536717237393	0.02314806145500499	-0.00011959185849794407
Xe	1.8847262955361808e-05	-0.0001754253894486194	0.0028000902127748727	-0.009669030235899783	-0.0013573815218055436	-4.154965065464254e-05
2
285800
Ar	-0.0004765070762105456	3.5807802607500824e-05	0.003172744295149749	0.002092333423235169	0.02583414390117306	8.392636496736314e-05
Xe	-7.561031033518423e-05	-0.0001633498877819675	0.002799773520525731	-0.008773464336242839	0.0037209222596505205	-5.758135270304133e-06
2
286000
Ar	-0.00038874605357387833	0.00027685497505612014	0.003174396541736728	0.015033668949145354	0.02118650112610762	0.00022413030624602592
Xe	-0.00014841097569281986	-0.00010463040534906045	0.0027998972445802037	-0.005428300468382062	0.007726484925455727	4.619303741677806e-05
2
286200
Ar	-0.00019017323814587552	0.00043888216082857906	0.0031764533163560257	0.023715324127906248	0.010410908979543824	0.00015587159744017025
Xe	-0.0001790624272724301	-1.5977230753352095e-05	0.0028006460509133984	-0.0005504703132845224	0.00954654949618265	0.00010618043210911836
2
286400
Ar	6.268172689256263e-05	0.0004752133459059079	0.003177065970138209	0.02558664034174707	-0.0033361064301045944	-2.2114886500830025e-05
Xe	-0.00015872278092043883	7.747637646982266e-05	0.0028016000670129815	0.004514974825327137	0.008660731033908554	9.405001702370583e-05
2
286600
Ar	0.00029717016281839286	0.00037551296755112114	0.0031760087761178286	0.02015952342396703	-0.01610397390039446	-0.00017364136277183583
Xe	-9.299150606603416e-05	0.00014904952038518763	0.0028024463208743302	0.008309395112012768	0.00530105665835276	7.181869874196912e-05
2
286800
Ar	0.0004466110702880489	0.0001688463377871461	0.003174266291800738	0.009017603387695057	-0.02422011351055058	-0.00014539711877570175
Xe	-9.018805254299128e-07	0.00017822221887926428	0.0028025298954161715	0.009663836534743649	0.00039520066475516775	-6.586111415005302e-05
2
287000
Ar	0.00046870890290790857	-8.601250679960722e-05	0.003173196182933188	-0.004708273058468192	-0.025491096851035105	-7.240903173428277e-05
Xe	9.105947910763601e-05	0.00015676185226696363	0.002801155182545627	0.008295938293973494	-0.004616111427579237	-0.0001916753358991164
2
287200
Ar	0.0003570833257311729	-0.0003166076007692127	0.003173085620886696	-0.01707329699491599	-0.019485488028716965	2.9697360153940522e-05
Xe	0.00015663842679054525	9.06099961981452e-05	0.0027992438278839796	0.00453784284183331	-0.008306638486396331	-0.00017180935020225804
2
287400
Ar	0.0001435693017472799	-0.00045673586094578845	0.0031736278554672	-0.024581746674297827	-0.007861347145720834	8.227700968101494e-05
Xe	0.00017747559504770947	-1.260551608403206e-06	0.002798211410225537	-0.0004940824868091273	-0.009637188670737179	-1.7294837641905203e-05
2
287600
Ar	-0.00011097753384854932	-0.0004658471451462032	0.003174520809565561	-0.02505261968575903	0.0060673635010304134	8.357797130042388e-05
Xe	0.00014735184242174482	-9.319469112156978e-05	0.002798737100780557	-0.00539632110198222	-0.008286985381994317	0.00010019400747094416
2
287800
Ar	-0.000333515946906132	-0.00034163358265001443	0.003175598267475614	-0.018361861612783675	0.018163211100092443	0.0001197370052026973
Xe	7.470999509760156e-05	-0.00015887518078542127	0.002799923120728405	-0.008758244426186118	-0.004543892029500106	0.00014882922334220647
2
288000
Ar	-0.000460933131573337	-0.00011984100743500936	0.003176677542870113	-0.006499353245937978	0.025098257301961458	9.855022335571028e-05
Xe	-1.9390795627493717e-05	-0.0001795485932450652	0.0028012995365677687	-0.00960172906498558	0.000506212521743323	0.00011074456927220234
2
288200
Ar	-0.000457137176119747	0.000136357408883511	0.0031770628590780344	0.0072454059565133745	0.02487157018878198	-3.2364815034637407e-05
Xe	-0.0001079897737019862	-0.00014910803629667114	0.0028019713527775458	-0.007711433548991896	0.005430451128075158	3.008267156031606e-05
2
288400
Ar	-0.0003224074645571702	0.0003537417352200519	0.003176071200389441	0.019032089375602846	0.017539362864999287	-0.00017450572211094958
Xe	-0.00016632181967287713	-7.604836271943827e-05	0.0028019694294694622	-0.003656370528238995	0.00881603040566046	-6.976485315712248e-06
2
288600
Ar	-9.528902724483539e-05	0.00046978910363737307	0.0031740537273604896	0.025280477355607955	0.005119009188115395	-0.00021807127277250515
Xe	-0.00017739318546109088	1.893493278673689e-05	0.0028016577692360064	0.0015093699117118297	0.009686639545035486	-2.4472336037055314e-05
2
288800
Ar	0.00015877382831608442	0.0004513654137294439	0.0031722841203812983	0.024282299656807216	-0.008712903784058947	-9.874774263345572e-05
Xe	-0.0001373890522798275	0.00010833565945424665	0.002801296223226103	0.006249924516217917	0.007766901229128576	-4.136131499961978e-05
2
289000
Ar	0.00036718781488038273	0.0003041722558830493	0.003172148240832137	0.016372391698493145	-0.0199939620834403	7.121549281013374e-05
Xe	-5.828705313581516e-05	0.00016677506841149321	0.002800815472322077	0.00916971373599095	0.0036421765719699623	-6.677721100466779e-05
2
289200
Ar	0.0004705639397448191	7.03527555086186e-05	0.003173958949428318	0.003833576854795169	-0.025627740872103396	0.00023366552623543972
Xe	3.687724040966535e-05	0.00017761667546671017	0.0028000808542632642	0.009439758892538072	-0.0015172913739101076	-7.148929025876772e-05
2
289400
Ar	0.0004399329884785304	-0.00018376906245070026	0.003176269388077719	-0.009821446361526327	-0.02395617563219973	0.00018679949419104385
Xe	0.00012123272324026915	0.00013775815211806386	0.0027995515718695274	0.007043638985729522	-0.00625489796543368	-2.6629988201218875e-05
2
289600
Ar	0.0002835294460103423	-0.00038566712605415536	0.0031771776919683435	-0.020675144480877598	-0.015393778412201551	1.1703706547394647e-05
Xe	0.00017126529583649263	5.8084374779460424e-05	0.002799643226430975	0.0026942415951523467	-0.00928137298418676	7.270091114155892e-05
2
289800
Ar	4.616449421955254e-05	-0.0004766804761120901	0.0031765416314452383	-0.025600801172447243	-0.0023884032505427696	-0.00013398467691095556
Xe	0.00017246058784945812	-3.861564814278979e-05	0.002800759519492311	-0.0024591005435576096	-0.009603779154428203	0.0001499158513341581
2
290000
Ar	-0.00020388731869205482	-0.000431260910550059	0.003174771619574558	-0.02321562387012689	0.011211499065937287	-0.00021161329317432597
Xe	0.00012441646845511416	-0.0001245365661672091	0.002802202216976004	-0.006887051098749565	-0.007161445491323127	0.00011033711842069832
2
290200
Ar	-0.0003957956708485661	-0.00026306306716658735	0.0031732648314082507	-0.01424933843644923	0.02162892500633163	-6.53473807178567e-05
Xe	4.132246136969316e-05	-0.00017487653744801342	0.0028028731233464494	-0.009370235644702272	-0.002663472480388774	-5.953556152120029e-06
2
290400
Ar	-0.00047534067376932683	-1.9601255864448553e-05	0.0031735818921025836	-0.0012551724704279055	0.025867206444391326	0.00012524927732504446
Xe	-5.347541978626295e-05	-0.00017526439298907572	0.00280202369007083	-0.009108766054147087	0.002602610211064397	-0.0001659646509250581
2
290600
Ar	-0.0004192383751193911	0.00022966060617409653	0.0031751436320733477	0.012239123717889301	0.022738488951722	0.0001694756532929077
Xe	-0.00013233118346882535	-0.00012535369478237647	0.0027999162281022983	-0.006278934248654609	0.007145117646273195	-0.00022821230657778626
2
290800
Ar	-0.00024261634079312703	0.00041300054415981715	0.0031764307260242065	0.022218354313980854	0.013030627216645583	6.725714783730575e-05
Xe	-0.0001735135121241138	-3.9403502673070834e-05	0.002798490178513014	-0.0017439333753532062	0.00962903203932995	-5.6491561554758096e-05
2
291000
Ar	3.467671243577518e-06	0.0004776935590805226	0.0031758678520266777	0.025788131605956076	-0.00041329495639448876	-0.0001503668080023761
Xe	-0.00016555335917600082	5.8050022870352796e-05	0.002798595868781137	0.003294377021299346	0.009369853638981062	8.737147139825814e-05
2
291200
Ar	0.000248408953291504	0.0004056927541511182	0.0031742817664885577	0.02200421007812047	-0.013626076533152374	-0.00014027381618158792
Xe	-0.00011047978850023495	0.00013891559195356335	0.0027998899997964807	0.00746741961471706	0.0064071597750319405	0.00015595946056262921
2
291400
Ar	0.0004226800136072492	0.00021822747609575422	0.003173410030760918	0.011983800721183832	-0.022959488127655726	-2.6550962285495172e-05
Xe	-2.358820707273823e-05	0.00017968425100162703	0.0028014671813529953	0.009474543088575224	0.001575927577374008	0.00015703488720633137
2
291600
Ar	0.0004763478464110558	-3.1798704169250365e-05	0.0031734985043489613	-0.0015107861656721532	-0.02579963906029712	3.1072116330857284e-05
Xe	6.975300061922422e-05	0.0001690344334555904	0.0028025889748803726	0.008728060308042454	-0.0036446741617849215	5.4957726773266144e-05
2
291800
Ar	0.0003938395674226375	-0.00027293213379376565	0.003173972957759672	-0.014580345827759921	-0.021252617114269554	4.3336424041902374e-05
Xe	0.00014290937538569585	0.00011038873670154904	0.0028028637460993807	0.005541026111676042	-0.007805552363601281	-3.067564125116001e-05
2
292000
Ar	0.00019875832269790317	-0.0004361846462267338	0.003174043165405743	-0.023471559764765844	-0.010585497700167893	5.539049898608429e-06
Xe	0.000175541605006641	2.0605768043376575e-05	0.002802331028497064	0.0007937004677610305	-0.009736747698596573	-5.546683401981063e-05
2
292200
Ar	-5.2959293359209916e-05	-0.0004746987723360959	0.0031741560903632104	-0.025613022162442718	0.0030757183085178656	1.2792128531431353e-05
Xe	0.00015800952711238296	-7.510325331204184e-05	0.0028016723632010793	-0.004194063627943788	-0.00891849416566333	-6.746385078374706e-05
2
292400
Ar	-0.0002889300606721251	-0.00037786573328798623	0.003174480205890479	-0.02044809761483809	0.015829703186427645	9.694893349368819e-05
Xe	9.55936100308888e-05	-0.00014907486075167167	0.002800853511212813	-0.007976622678750399	-0.005495782932830523	-0.00010986454488824155
2
292600
Ar	-0.0004424423473242663	-0.0001731492557665779	0.0031753841044778563	-0.009489245115943984	0.024103837003363358	9.067099790429613e-05
Xe	5.964196383829883e-06	-0.0001799887902312166	0.002799722489985204	-0.009514452897438698	-0.0005458396251328654	-0.00010249131198184222
2
292800
Ar	-0.00046968482510546415	8.10900112412035e-05	0.003175967723728275	0.00419740461766249	0.02550247978750274	1.562097031201569e-05
Xe	-8.552631447783195e-05	-0.0001594291260923026	0.002799011920855806	-0.008352500453289446	0.004535910034169306	-2.9285843797380466e-05
2
293000
Ar	-0.00036254834789287876	0.0003122635616918046	0.0031756586102207793	0.016727933866795452	0.019578149739956384	-9.325945677349577e-05
Xe	-0.00015292068572585912	-9.330534867929883e-05	0.0027993868624014255	-0.004813441426708929	0.008356846108696499	0.00011401568402684676
2
293200
Ar	-0.0001514516883137226	0.00045393929399989826	0.003174480903924499	0.02446046664011475	0.00807305593523259	-0.00012430037740707273
Xe	-0.00017697820417879862	-2.786778896924896e-07	0.0028011118103853515	0.00013806290054405645	0.009773565664822528	0.00021103764375854668
2
293400
Ar	0.00010310141442011632	0.0004661104084817773	0.003173681260321889	0.025191884927603426	-0.005681809619810615	-2.5108536393161744e-05
Xe	-0.00015039010704214175	9.260055559908699e-05	0.002803196691388567	0.005033959399181912	0.00833802782615576	0.00020181055177737858
2
293600
Ar	0.00032825270701245565	0.0003457463858574466	0.003173974694157909	0.01874782120496198	-0.01778699123099588	9.207626144310132e-05
Xe	-8.114238487650732e-05	0.00015852848882064605	0.002804229975135973	0.0084735679705623	0.0045239599745123815	1.5542124359984695e-06
2
293800
Ar	0.00046026453510370364	0.00012712291631226158	0.0031750192065457873	0.006997601561603568	-0.024874670763939295	0.00013138223454402543
Xe	1.0894216708627954e-05	0.00017876647421756822	0.0028032924655101593	0.00949668161125918	-0.0005657693455296819	-0.00015606822649631903
2
294000
Ar	0.0004610083459611625	-0.00012763613582297674	0.0031759243933906192	-0.006842107422507524	-0.024834942058014186	4.1845556470986535e-05
Xe	9.975708826097417e-05	0.0001477498895707136	0.002801267045936862	0.00784314934956541	-0.00547823175220462	-0.0002175876907775649
2
294200
Ar	0.00033002805764011865	-0.00034572338822443473	0.0031757115067597473	-0.018722795675933334	-0.017713652557803678	-6.65152090147569e-05
Xe	0.00016025937849437421	7.412432737685923e-05	0.0027991100108893507	0.003958157671834627	-0.008875667930942034	-0.0001866129934457114
2
294400
Ar	0.0001046984424858994	-0.00046481192953839643	0.0031748145927650334	-0.025247312579855092	-0.005521402954247695	-8.003548928293734e-05
Xe	0.00017496340021972586	-2.1337937233993318e-05	0.002797942452465345	-0.001067089300051987	-0.0097341380946838	-3.3244629396872974e-05
2
294600
Ar	-0.00015067668495128087	-0.00045109704846612247	0.0031743077462828076	-0.02455971109103561	0.008184564221137959	-3.5367750989231175e-06
Xe	0.0001395568101507178	-0.0001109171626631001	0.0027983866651427377	-0.005832118595352602	-0.007745770879949077	9.95538501737457e-05
2
294800
Ar	-0.00036310914498471664	-0.0003085840748205542	0.003174904314374269	-0.016867269911105636	0.01960959427458629	0.00010576579693535933
Xe	6.421006528632501e-05	-0.0001688653008512075	0.0027997299202962575	-0.008873514240141728	-0.0035555367330882565	0.00016473999749032196
2
295000
Ar	-0.0004718192344313635	-7.774173353628396e-05	0.0031757002409814185	-0.004330233918086926	0.025402491223741573	3.820563486975255e-05
Xe	-2.9494071262035707e-05	-0.0001787290473591188	0.0028011573930258236	-0.00940993414397956	0.0016475680220798632	0.00013759592974271225
2
295200
Ar	-0.00044548897133926945	0.0001750867058651795	0.00317578503550084	0.00946326118695686	0.023950198158515325	-1.413169141350336e-05
Xe	-0.0001149799220671627	-0.00013749647966515512	0.002802512843549496	-0.0072809686510351915	0.006396268226172664	0.00013789692427401457
2
295400
Ar	-0.0002918420641448679	0.0003780294242924782	0.0031752258239565907	0.02050774824218229	0.015640605462134555	-7.664463323641699e-05
Xe	-0.00016807963651396742	-5.713722441595235e-05	0.0028032223277701723	-0.003064211742355206	0.0092754328187354	-6.3642768169493935e-06
2
295600
Ar	-5.493535624599452e-05	0.0004731135373796301	0.0031745074922662165	0.02570520422123306	0.002902616955987207	-4.8325840867578734e-05
Xe	-0.00017324374797780706	3.9167637971705784e-05	0.0028029246004853	0.0020525862272039405	0.009535211013813856	-9.366883815188658e-05
2
295800
Ar	0.00019763112486670224	0.00043315532075296787	0.0031745334838731683	0.02358688886349028	-0.010682594057222562	1.6810357918891492e-05
Xe	-0.00012917659910397758	0.00012406151575623537	0.0028014826156159407	0.0065432729134917355	0.007022881790529397	-0.00018693941801649707
2
296000
Ar	0.0003941209246957411	0.0002693813339487654	0.003175008716317017	0.014725269846694733	-0.021231777992087232	4.339714357408968e-05
Xe	-4.8498755910877596e-05	0.0001732186658428172	0.0027994596571944254	0.009178893649255011	0.002564170603953324	-0.00018244594024414103
2
296200
Ar	0.00047794829102842246	2.9007513396106286e-05	0.0031752808415919085	0.0016194569173504265	-0.025657946456475424	-7.46592125725324e-06
Xe	4.61208363501295e-05	0.00017300309838029748	0.002798119558701987	0.009266964658148599	-0.0026151912399985165	-6.632890323515681e-05
2
296400
Ar	0.0004248527080066126	-0.00021942645667972287	0.0031750076969814596	-0.011956774551062982	-0.022820008935791985	-4.771247132239668e-05
Xe	0.00012770211562162137	0.00012369073949340388	0.002798295677672564	0.006667252928982944	-0.007002932258460608	8.817304677517406e-05
2
296600
Ar	0.000250277803349827	-0.0004052018019961733	0.003174558540482289	-0.022092615748549673	-0.013417446502128045	-2.8703957592337337e-05
Xe	0.0001726866735375966	3.9296512871483195e-05	0.0027999218246091352	0.002117333567813895	-0.009444535665071278	0.00021470387809378552
2
296800
Ar	4.427689426536212e-06	-0.0004751013741307377	0.0031743579720573865	-0.025884411621806165	-0.0002303989849629906	9.258744020206161e-06
Xe	0.00016798846543375444	-5.599910184762897e-05	0.002802078398738044	-0.0030086048971045562	-0.009173854450125274	0.00019270619565038384
2
297000
Ar	-0.00024287017061902193	-0.0004095566823204472	0.0031744641475095724	-0.022349495669710773	0.013036941853965091	3.902686321177591e-05
Xe	0.00011528689013812164	-0.0001350884216837737	0.0028032758582286245	-0.007267591109343516	-0.006272809627029619	4.226970907083902e-05
2
297200
Ar	-0.0004210885779885449	-0.00022703396836697923	0.0031748796486242175	-0.012417752235846824	0.02257525735779022	3.777217480249606e-05
Xe	2.9614598374873574e-05	-0.0001755037504189722	0.0028031804260044073	-0.009457189638481195	-0.0016307038343805794	-7.625442504377553e-05
2
297400
Ar	-0.00047893317740863565	2.0519428355434644e-05	0.003175129508379487	0.0011219484797502744	0.025710458015411143	7.925993806142922e-06
Xe	-6.470079008732856e-05	-0.00016597530389181992	0.0028017478367247527	-0.008925020695673138	0.0034715405037382056	-0.00017522101023570587
2
297600
Ar	-0.000400075349350466	0.00026255567261203295	0.003174955685449668	0.014293919369692687	0.021497414018513433	-4.8842062236229236e-05
Xe	-0.0001405330091500084	-0.00010915809337769944	0.002800001162780353	-0.0058450849169462546	0.007628029442358887	-0.0001594467236252887
2
297800
Ar	-0.0002066788086261314	0.0004297277722640562	0.003174393388584862	0.023430895359102775	0.011110975721106149	-4.942507106987252e-05
Xe	-0.00017618500959779856	-2.112051810312894e-05	0.0027989725292988463	-0.001117492960417345	0.009573538755507156	-7.670850956945179e-05
2
298000
Ar	4.5850773727377364e-05	0.00047413786634417854	0.003173846835136849	0.025837326954732582	-0.0024331089517946303	-4.836252493458363e-05
Xe	-0.00016158276095760816	7.31688659970552e-05	0.002798916826199511	0.003949873784292633	0.008831694307205684	5.616120837316589e-05
2
298200
Ar	0.00028520909395653735	0.0003833813240291641	0.0031737584327340774	0.02089240768368906	-0.015297977448000547	1.4620161896337396e-05
Xe	-0.00010084587839479814	0.00014675399761096634	0.0027999238466757327	0.007926027707050308	0.005515325062683583	0.000133734241920166
2
298400
Ar	0.0004433369679115169	0.00018308969984115263	0.003174035703062693	0.009943827096684293	-0.023771216718713704	5.9250026933482724e-05
Xe	-1.0927025461512993e-05	0.00017838673779618935	0.0028016365984964175	0.009610118965403442	0.0006340782963531694	0.0001744065151662234
2
298600
Ar	0.0004744119667012671	-6.919765518388147e-05	0.003174626923120022	-0.00385890072111647	-0.02545440025556488	5.560028211439514e-05
Xe	8.190692412141973e-05	0.00015875370183385623	0.0028030330322213926	0.008492876236714249	-0.00445604624629041	0.00010960036983614398
2
298800
Ar	0.0003698425292045299	-0.00030160422724493616	0.003174993693729682	-0.01651142871989722	-0.019911398273050416	3.6435232179432526e-05
Xe	0.00015102909987325299	9.396863484581809e-05	0.0028035065768636748	0.005005426671567572	-0.008172400045882797	-1.189882645645334e-05
2
299000
Ar	0.0001602047461293747	-0.0004481505349675165	0.0031752821366575583	-0.02439017482474775	-0.008680426920637857	2.6901146681168133e-05
Xe	0.00017705100754235081	2.8129555248950225e-06	0.002802770566841696	8.191931502136979e-05	-0.009604462199820397	-0.0001447540305810648
2
299200
Ar	-9.486893561154566e-05	-0.0004669408666011022	0.003175119207691761	-0.02536568013935875	0.0050271408208515484	-6.609562570338165e-05
Xe	0.00015280010330272103	-8.896091381146235e-05	0.0028007964430151293	-0.004808236715382421	-0.008308508998015884	-0.0002205403120933117
2
299400
Ar	-0.00032248144862623697	-0.00035246744502064547	0.0031743889095445822	-0.01905222361201314	0.01730933551730147	-7.846723243102109e-05
Xe	8.52817211198003e-05	-0.00015531954500330885	0.0027990404562752147	-0.008355099203598339	-0.0046218915386059605	-0.00012040296956258998
2
299600
Ar	-0.0004575967096199953	-0.00013740579210659272	0.003173845774449058	-0.007308492069576902	0.024655658676028713	-2.0397207773038142e-05
Xe	-6.715854084205539e-06	-0.00017717811257709161	0.002798532323869044	-0.009567003527523573	0.00036310088944112957	1.0732987160383618e-05
2
299800
Ar	-0.0004618600776993982	0.00011687485154396481	0.0031738420887043655	0.0064856945050461	0.024964999658470904	3.924256082797007e-05
Xe	-9.704622963566783e-05	-0.00014833566374742772	0.002799148054202917	-0.008037086781600922	0.005234331383541045	0.00011214401278811296
