2
0
Ar	-0.0002959368067716166	0.0001704842972754292	0.003186368471342482	0.01203952550961166	0.021034569106165038	-7.796093694490205e-05
Xe	-5.3164907853831975e-05	-0.00011674216598805021	0.002788668237591934	-0.00821459385635493	0.0036681107512882964	0.00012566867955747407
2
200
Ar	-0.00014159101953090605	0.00034860466446295024	0.0031852542552303774	0.018191592246423745	0.013694878035044612	-0.00018894780222744045
Xe	-0.00012332868503092722	-6.432485182848763e-05	0.0027897798155121206	-0.005453037384735598	0.006590945737156852	0.00017479152343160867
2
400
Ar	5.1924745570709005e-05	0.00042987904831385485	0.0031809561228501727	0.01958811773504057	0.0021051391959966545	-0.000708000853341057
Xe	-0.00015673717501258545	8.864394223263324e-06	0.0027934352348689307	-0.0010252895231459204	0.007715772104131967	0.0005800098967225861
2
600
Ar	0.00023154088087590517	0.00038819442773540034	0.003171666783928304	0.015457479473725255	-0.010236649533707634	-0.0010849633325275532
Xe	-0.0001428165165115567	8.18245433125897e-05	0.0028014753354459665	0.0037499923857509526	0.006487660849359426	0.0009550497731569644
2
800
Ar	0.0003471579391057679	0.00023583605763321115	0.003162171866949878	0.007211815284810887	-0.019427658979990665	-0.0006596411589551559
Xe	-8.633551789320302e-05	0.00013184942379980053	0.0028108116316004823	0.007200969821170047	0.003246247280513924	0.0008001928509817839
2
1000
Ar	0.00037108056485278605	1.800558617467358e-05	0.0031615271459033614	-0.0024383245897258194	-0.02316583083108237	0.0006014697991162765
Xe	-7.233300711225197e-06	0.00014355562468280398	0.0028145233282535916	0.008172210328358156	-0.0009613112062370135	-0.00018517120209788368
2
1200
Ar	0.0003007740531965392	-0.000207159882920342	0.003174162625715152	-0.011398951260828632	-0.020850221361962906	0.0018060887687536044
Xe	6.94902490783981e-05	0.00011468212399170617	0.0028068715413246893	0.0068298583220138594	-0.004652712586537193	-0.0012654457402852507
2
1400
Ar	0.00015147618290760602	-0.0003782821512418011	0.0031924005207715233	-0.017835382272638457	-0.012440273626443371	0.0015506589411424436
Xe	0.00012387174175215916	5.3781068710822174e-05	0.002792373036467666	0.003771876167302975	-0.007308573325434411	-0.0014471686416489154
2
1600
Ar	-3.996217843297651e-05	-0.00044228990070698746	0.003200834328972189	-0.019503673889115107	-1.0237810395259e-05	2.788600149068431e-05
Xe	0.0001415842475659719	-2.543202608817849e-05	0.0027812382083724266	-0.00037977301096021567	-0.008181817867887495	-0.0006732463431912949
2
1800
Ar	-0.0002195810578859002	-0.00037857815773986096	0.0031926907005976396	-0.015573227556958103	0.012397734442233573	-0.0014958959855649152
Xe	0.0001157754970636866	-0.00010192629045177533	0.002780060238416507	-0.004657111640177876	-0.006693509094325192	0.00041480734122828174
2
2000
Ar	-0.0003379724442911917	-0.00020708750335170657	0.0031754200574618556	-0.0076383222310722415	0.021024941040347966	-0.0016973138864095252
Xe	5.3189058875323645e-05	-0.00015146872663394196	0.002787752287895981	-0.00747656339900708	-0.002925896137645674	0.0009884390773425126
2
2200
Ar	-0.00036686032474484375	2.2927975023314642e-05	0.0031637603056235844	0.001968587838464546	0.023947990789472778	-0.0004921034521635446
Xe	-2.5331274494194575e-05	-0.00015758639237753718	0.0027973222489906177	-0.007760516544696758	0.0017187214440183892	0.0007911618599173066
2
2400
Ar	-0.00029928426226188525	0.0002502032888299975	0.003165816410168427	0.01133659901649123	0.02039831681339911	0.0008059901697285783
Xe	-9.42799398284584e-05	-0.00011932106918281465	0.0028029476635916674	-0.0056974693995893	0.00574723675330976	0.0003583884427307065
2
2600
Ar	-0.00014956313400612512	0.0004104350400515589	0.0031764704955983625	0.01793368160020362	0.010791163554069883	0.0011276829725822748
Xe	-0.00013431338287870026	-4.766494497042933e-05	0.0028053610645106418	-0.0021495129956956775	0.008242946775139745	0.00014951682956412755
2
2800
Ar	4.234813853508889e-05	0.0004548439108530554	0.0031855154461264373	0.01951641066288447	-0.002110841259690338	0.0005868986061762913
Xe	-0.00013515943979330012	3.7911597441477255e-05	0.0028059145285938064	0.001993855595712403	0.00845071085688085	-7.803282463695201e-05
2
3000
Ar	0.00022276246848775444	0.0003710850999445016	0.0031878487166729108	0.01571701582046405	-0.014181037643495556	-7.085746119480603e-05
Xe	-9.626160968397703e-05	0.0001132132645886395	0.0028034383079671996	0.005582931775081321	0.006228829472821397	-0.00046718376048808806
2
3200
Ar	0.00034328156099374557	0.00018499113554211596	0.003186083053721219	0.007861788156822912	-0.022167218268500665	-0.00017847844684134155
Xe	-2.9331197439350487e-05	0.00015611423405850614	0.002796385702244539	0.007469183781215626	0.0021398211702319697	-0.0009207861939101338
2
3400
Ar	0.0003727416740483668	-5.258038152136269e-05	0.003184811334392499	-0.0021687940339816672	-0.024274203502799713	-8.999765900850984e-05
Xe	4.584696935881384e-05	0.00015364677707194654	0.002786118512475575	0.0072143613439228935	-0.0026426283406121203	-0.001035579161193356
2
3600
Ar	0.00030032763208675736	-0.0002770789564007309	0.0031832700101842217	-0.012041535234105023	-0.01949233678903736	-0.00027190004250651073
Xe	0.00010870003329885597	0.00010551153434594236	0.002778440501002963	0.005025451938369707	-0.006787784963677331	-0.00038759410257338425
2
3800
Ar	0.0001430715673862581	-0.00042291690242676533	0.0031785719486761006	-0.018659724341312744	-0.008940753676913564	-0.0006376554388816173
Xe	0.0001413081044406118	2.4106725065426762e-05	0.0027801276726658413	0.0012700384659219363	-0.00907449772470787	0.0007468427486409883
2
4000
Ar	-5.5226140921638646e-05	-0.0004478841635393549	0.0031722195576620723	-0.02004418405123512	0.004009247108706797	-0.0005292949904184512
Xe	0.0001329751276176232	-6.703050868698476e-05	0.0027916236359675187	-0.002908850792623515	-0.008638824087402755	0.001415463006285761
2
4200
Ar	-0.00024007906610682488	-0.00034802898588777404	0.003170272142662526	-0.01613426991365724	0.015435697946994299	0.00024286118396877194
Xe	8.66159957217991e-05	-0.00013906341531389304	0.002805090245388594	-0.006108134573487387	-0.0053930946503041215	0.0011106694225420104
2
4400
Ar	-0.0003639074177188808	-0.00015297750453947386	0.0031776170261901926	-0.008056337410658065	0.022710756308782862	0.0011509740231918468
Xe	1.7453671931492923e-05	-0.00016956969919678283	0.0028109565122446745	-0.0073560909881011174	-0.000627590588072484	2.3647172783185145e-05
2
4600
Ar	-0.00039235737898498475	8.601827007485009e-05	0.003189988957884546	0.0026176972609860526	0.023951985970870872	0.0011104215742365755
Xe	-5.424652521478369e-05	-0.00015122483001211716	0.0028059075683959196	-0.006690445917771209	0.004210951109482477	-0.0009150432447216872
2
4800
Ar	-0.00031245484503976135	0.0003022670655911713	0.0031961939429420005	0.013003744743398467	0.018165251244810214	-3.1213771641884166e-07
Xe	-0.0001101891931224102	-8.921783140243046e-05	0.0027952375429058556	-0.004261858731759224	0.007937262693825482	-0.0010825567599779468
2
5000
Ar	-0.00014436501278118817	0.000431531235559216	0.0031900488776779264	0.019793700733615652	0.007059851033526173	-0.0011546793269647752
Xe	-0.00013544670728962737	6.126070861766084e-07	0.0027864564943873224	-0.000632775339585394	0.009594905943660588	-0.0005950354892171561
2
5200
Ar	6.433920690794162e-05	0.00043800162752020234	0.0031766257592959223	0.020970102451530453	-0.005759756716165553	-0.0013116396696151676
Xe	-0.0001221107502623453	9.274991636296099e-05	0.0027833236121427916	0.0032468485096196326	0.00833846306703943	-4.4883592169253076e-05
2
5400
Ar	0.0002563698079936331	0.00032262985838821674	0.003167921914171506	0.016617938510420874	-0.016746444495523285	-0.000275010652938127
Xe	-7.359883868308204e-05	0.00015870556544113516	0.00278439262825429	0.0061822310573873725	0.004505705905244826	0.00022179482616328114
2
5600
Ar	0.0003815014095766238	0.00011765540399704197	0.0031717500315798248	0.007758997579594631	-0.023312354243494024	0.0009338911690201079
Xe	-4.803095018544406e-06	0.00017864991985957156	0.002787168565391484	0.007275820120349348	-0.0005841910151279268	0.00037177943423723334
2
5800
Ar	0.0004028273037072123	-0.00012207020073289808	0.003182892359487594	-0.0036828320538085453	-0.023455748038612206	0.0011105472601291397
Xe	6.539202122953801e-05	0.000147615263679735	0.002791830806917578	0.0064522556018045355	-0.005508325357066533	0.0005887840084641616
2
6000
Ar	0.0003104663841710032	-0.00032803806886881105	0.0031902443696719025	-0.014357242124488042	-0.016694854373364047	0.0002858142769325442
Xe	0.0001179035894524643	7.36739828175231e-05	0.002798959073532294	0.00378932160392506	-0.008923944101606053	0.0007730225607123061
2
6200
Ar	0.00012986966908989532	-0.0004400044027006032	0.003188538939778031	-0.020868798341114388	-0.005232727437888887	-0.0005743870295614519
Xe	0.0001374280431187326	-2.2521558205432862e-05	0.0028056928700654956	1.0374408027474515e-05	-0.009796558141201134	0.0004912900793082524
2
6400
Ar	-8.739002890909192e-05	-0.0004290662794734345	0.00318171418626868	-0.021606278289800954	0.007298806612218538	-0.0006464008412016125
Xe	0.00011785835353166562	-0.00011196960060495189	0.0028068953112125837	-0.003806554537689585	-0.007606947861020633	-0.0003176091466495018
2
6600
Ar	-0.0002830789142907445	-0.0003010567437316455	0.003178399270892865	-0.01664012618185059	0.017766916935708074	-8.471625830939955e-06
Xe	6.567893807108288e-05	-0.00016733247393398845	0.00279899283166454	-0.006364580412111487	-0.0031978681983715037	-0.0011894958219465118
2
6800
Ar	-0.00040398434166477343	-8.914145794131538e-05	0.0031806479380256953	-0.006866721242619694	0.02363279268769861	0.00035868134852666864
Xe	-4.053516941597883e-06	-0.0001738565849139176	0.0027856524025631412	-0.007321668861142267	0.0018964648983956348	-0.001281986692943306
2
7000
Ar	-0.0004122409909696869	0.000148667969003226	0.003183396394459795	0.005311659798448133	0.022735362291812992	9.978347423383791e-05
Xe	-7.424973460833064e-05	-0.0001309246742807077	0.0027769666552101696	-0.006390040658754906	0.006534708858893017	-0.0003362424777186691
2
7200
Ar	-0.0003028349974893066	0.0003429290774026848	0.003181816567318012	0.016011969539372138	0.015193874287832695	-0.0003580804844424831
Xe	-0.0001259993769117109	-4.8766077852919885e-05	0.0027795726037666726	-0.0036397821701578013	0.009479535253857828	0.0008239086277959899
2
7400
Ar	-0.0001078558635475228	0.0004387717830298846	0.0031776095257209152	0.022040698128142997	0.003586668553733998	-0.0003270393678326013
Xe	-0.0001430104195515381	4.8949160405604233e-05	0.0027908219927400453	0.0003480046818777336	0.009561088081219249	0.001260064190915177
2
7600
Ar	0.00011786814287287648	0.00041290899989814803	0.0031776234493594395	0.022117583008524556	-0.008623881410732705	0.00035558441614993855
Xe	-0.00011936756445005626	0.00013188122725501736	0.0028017595742487354	0.004230417951604937	0.006596344232191525	0.0007684128103751372
2
7800
Ar	0.00031449169322053823	0.00027414618391751616	0.0031839191107441316	0.01624796474178394	-0.018578986399242967	0.0007839669205817926
Xe	-6.306573887607643e-05	0.0001751366735326252	0.002804841422483106	0.006794161414116407	0.0019146181433139496	-0.00011920163733206092
2
8000
Ar	0.00042644347083983016	5.797139870777921e-05	0.0031903153898812883	0.005530228620121918	-0.023619454993311004	0.00034806096465835767
Xe	1.0611397146881222e-05	0.00016844719890881415	0.002800687972729998	0.007617586779977035	-0.00320708213512244	-0.0006031718948490265
2
8200
Ar	0.00041853022657785177	-0.00017519976410253115	0.003189225709598455	-0.007094803696038237	-0.021830891124152905	-0.0005792247066746431
Xe	8.231004680531158e-05	0.000113773733944848	0.0027948335872948924	0.006404476781983506	-0.0074807471664055354	-0.0005031697008999707
2
8400
Ar	0.00029155629658257723	-0.00035766848837866705	0.003180460508233587	-0.017629119052314145	-0.013786646828024895	-0.0010230388617447558
Xe	0.0001323024811846506	2.597136953928096e-05	0.0027914039991890787	0.003306532855003232	-0.009636306384354998	-0.00021108445206987432
2
8600
Ar	8.285130234705634e-05	-0.0004390539191607564	0.003172263695195775	-0.02313606582450084	-0.0021748389369690146	-0.0004599336803950432
Xe	0.00014507145283449728	-6.916745402999199e-05	0.0027899325961272983	-0.0008088076822003325	-0.008883081158030309	-0.0001435467926114602
2
8800
Ar	-0.00015035056952702604	-0.00039981283414832917	0.003173064809887997	-0.02242644915060994	0.00989132583495009	0.000615623842040221
Xe	0.00011696380006092685	-0.00014304795682549672	0.002787788502260029	-0.004666297839297506	-0.0055563216155293665	-0.00025367450411664725
2
9000
Ar	-0.00034466623674338914	-0.00024947748915049074	0.0031823769962775017	-0.01544446320393598	0.019510772246591698	0.0010448809037326516
Xe	5.593417313716086e-05	-0.0001755472616150555	0.0027857161371145694	-0.007315833791872843	-0.0007802099524125003	-8.218458256854363e-05
2
9200
Ar	-0.00044289428400856676	-2.7616507746912045e-05	0.003190589029773633	-0.003651082656626608	0.023744012167511833	0.0004402451523957927
Xe	-2.308511883414182e-05	-0.00015846377767185531	0.0027873418804182756	-0.008113596954935505	0.004144873696795427	0.0004288531888305195
2
9400
Ar	-0.0004139948022983962	0.00020200806753864486	0.0031897662172850456	0.009256597510003664	0.021039496278331293	-0.0005854557365177493
Xe	-9.862156891014625e-05	-9.60925323585572e-05	0.002794044192776391	-0.00657280393778512	0.008015279049201853	0.0008583132513144296
2
9600
Ar	-0.00026743544112187487	0.00037340048415139646	0.0031812194290958893	0.01930127432480874	0.012464544135885797	-0.0009720641989616058
Xe	-0.0001477431718620575	-6.0563081926841875e-06	0.0028025220987133717	-0.0029749350965929296	0.009493370744051235	0.0007009362158900398
2
9800
Ar	-4.596674732758785e-05	0.0004413920495163878	0.0031741292384177625	0.023990965429674372	0.0008526750987525297	-0.00031724651225361423
Xe	-0.00015449531299393423	8.402342597080594e-05	0.0028057019301312215	0.0016144416842906024	0.008030714456023358	-0.00014565520122495113
2
10000
Ar	0.00019102595557997818	0.00038945695676236567	0.003175770291893049	0.0222775746816176	-0.011087006349340905	0.0005547309184306784
Xe	-0.00011783656515202568	0.00014717007933716898	0.002799857214697714	0.005536171518570881	0.004341796924234813	-0.0009138527730600458
2
10200
Ar	0.000377643271148969	0.00022896260640860284	0.0031824627225541047	0.014048451039114694	-0.020278748418879628	0.0006163452936240327
Xe	-4.8303368631399834e-05	0.0001675894096917426	0.0027900998440889254	0.008094145116331001	-0.0003348237796255579	-0.0009025777287943633
2
10400
Ar	0.000457258018671489	3.288245560491022e-06	0.0031860572892814503	0.0014656746147243109	-0.023730925250102536	4.282068956888645e-05
Xe	3.684101311274915e-05	0.00014091022178637776	0.002784193929643008	0.00854391753622777	-0.004908703836520431	-0.0001784521451892258
2
10600
Ar	0.0004055379389316075	-0.00022222727379195859	0.0031834454433839424	-0.011490611579574098	-0.02027361909249925	-0.0004663509918319373
Xe	0.00011440671549486377	7.404525072581397e-05	0.0027860819543427066	0.006533939881244234	-0.008157750810564374	0.0005045199819588438
2
10800
Ar	0.00023934463689481985	-0.00038359290038229865	0.0031787976191674917	-0.020937129853514765	-0.011304844515277319	-0.00030902161319957346
Xe	0.0001604748977200889	-1.4405544663887493e-05	0.0027922629100048304	0.002432563814875359	-0.009049055109431832	0.0006476907514970365
2
11000
Ar	6.015565814029887e-06	-0.0004387728456510106	0.003178754164453176	-0.02468099449162302	0.000526203999768622	0.00032968994556722514
Xe	0.00016051281885705594	-9.771768385195504e-05	0.0027970012303039134	-0.0023899213331027244	-0.007214095559725694	0.000242338695526892
2
11200
Ar	-0.0002318092496929731	-0.0003726110058199681	0.0031835802132941194	-0.021723273475183984	0.012461749876621785	0.0005163684278088079
Xe	0.00011500034623920516	-0.00015209287902807789	0.0027972816241772997	-0.0065262622563721446	-0.003451257152324616	-0.00010906516894317156
2
11400
Ar	-0.00040630759675748393	-0.00020075110350358633	0.003186714829433173	-0.012274475533222263	0.02107206298089891	2.7493020966838985e-05
Xe	3.6042778474822174e-05	-0.0001639033914966453	0.0027960957608759327	-0.008895389468148192	0.0011519862402081197	-6.348574373487168e-05
2
11600
Ar	-0.0004650275418965853	2.8370716400568724e-05	0.003183469025761426	0.0007916769134091149	0.023604920327281426	-0.0006248925049480894
Xe	-5.472557274909332e-05	-0.00013007342911765216	0.0027965939994597797	-0.008800285256069252	0.005449641050368396	0.0001466479615088542
2
11800
Ar	-0.0003919370276613899	0.00024850392502907386	0.0031762795559081665	0.013438339886863585	0.01937567005884308	-0.0006508018661318848
Xe	-0.0001309446136461291	-5.98763527293108e-05	0.0027982523645660763	-0.006012484695553937	0.008230597697528546	0.00011057808838273818
2
12000
Ar	-0.00020963906882085604	0.00039901448446190917	0.0031733188928795243	0.02219465033689241	0.010062377120042707	0.00012475640655120094
Xe	-0.00016914131531806407	2.6045251223661596e-05	0.0027975435253751436	-0.001436515030009174	0.008523310748819922	-0.00031376703510033996
2
12200
Ar	3.1672639778851754e-05	0.00044058075166096094	0.0031787672865233084	0.024972279525207395	-0.0019875173155927423	0.0008845454486384917
Xe	-0.0001587041750455758	0.00010240178559499101	0.0027923372901138394	0.003477913662328752	0.006443776328544894	-0.0006518941272845643
2
12400
Ar	0.0002659533463384208	0.00035962840556339176	0.003187751143575283	0.020670203179888432	-0.013876292597638316	0.0007573706701602887
Xe	-0.00010277213046941844	0.00014938768356496723	0.002786518488230377	0.007480698041453194	0.002756557331814596	-0.00040002879044511396
2
12600
Ar	0.00042444024410290385	0.0001759165400714979	0.003191139937887183	0.010205554901549858	-0.02193445690950313	-0.0001382425638974431
Xe	-1.5688067410439504e-05	0.00015513643683443774	0.0027857696149648516	0.00955980405048932	-0.0016371119336166114	0.000279529890450018
2
12800
Ar	0.00046059728626981496	-5.722243541770515e-05	0.003185276753604108	-0.0030983267634859452	-0.023544252800191977	-0.0009212056094470519
Xe	7.874040727970892e-05	0.00011763212153582508	0.002791375906831837	0.00883870758069775	-0.005690887581062866	0.0007414397924805459
2
13000
Ar	0.00036639945927044383	-0.00027297794500674694	0.0031761041695603097	-0.015241036812184071	-0.01864655521821772	-0.0007364586859469489
Xe	0.0001518855196294754	4.686389146027674e-05	0.0027987259463637905	0.005381945682206873	-0.00808660526716386	0.0006149071982961692
2
13200
Ar	0.00017027066836236692	-0.00041375944359576644	0.003173030377540937	-0.023110555599448857	-0.00886802037982474	0.00015246681446092654
Xe	0.00018092075527727792	-3.566044424799217e-05	0.002801366993079426	0.0003117416231669341	-0.00798191240485515	-0.00011446998511758407
2
13400
Ar	-7.518236087744038e-05	-0.00044128504615280475	0.003178205190902724	-0.024816861897916424	0.0035821468585079752	0.0007466673692061843
Xe	0.00015801054096056946	-0.00010570558979015251	0.0027971723330434627	-0.004777722095666571	-0.005735467796155281	-0.0006164864921650489
2
13600
Ar	-0.0003013135916080344	-0.0003446588344069072	0.003184803883892306	-0.01924958924819584	0.015326946450735068	0.00045545311768361543
Xe	8.996629374653447e-05	-0.00014560882350438134	0.002791351998652766	-0.008530845369135514	-0.0020855594197332935	-0.0004491188164037099
2
13800
Ar	-0.00044107679732978774	-0.00014969067298992297	0.003186178019712972	-0.008039296610894576	0.022693223430044436	-0.00021270413072288543
Xe	-4.960992095975782e-06	-0.0001454196283612443	0.002789104041775512	-0.010006733250812654	0.002139038348474971	1.2702114057050884e-05
2
14000
Ar	-0.0004547445845645212	8.706788884336142e-05	0.003181951156801611	0.005314325768230297	0.023509466908121317	-0.0005317665652819099
Xe	-0.00010035496491308823	-0.00010479030137051878	0.0027911919213619834	-0.008578849979993008	0.0058145331616977335	0.0003610541662873647
2
14200
Ar	-0.00034078711956207216	0.00029866678204171194	0.0031780297343693875	0.01694630177529095	0.01787020290254575	-0.00014480321526278575
Xe	-0.00016748686042974	-3.493648132431421e-05	0.0027943706308376204	-0.0044972658457771725	0.007790697815024987	0.00021251305569034023
2
14400
Ar	-0.00013129377830492877	0.00042814465223234716	0.0031795180322158048	0.02399522584457997	0.0073958096304169545	0.0003921358780472457
Xe	-0.00018594750059672081	4.3488120250038755e-05	0.002794751444642418	0.0008794734779969487	0.007536883969751295	-0.0001360856881824023
2
14600
Ar	0.00011675939295399521	0.00043826801264161487	0.003183965915082039	0.024351934452407964	-0.005464440333109644	0.00039172245539168194
Xe	-0.0001509571028243131	0.00010909403770647706	0.0027929817873850885	0.00595612040342004	0.005316100936033924	-0.00015273915556584467
2
14800
Ar	0.00033210705952916984	0.0003235705500740129	0.0031851830185972894	0.01760992445188875	-0.016924763851473644	-0.00019065318678206932
Xe	-7.225782467544636e-05	0.00014502336988656895	0.0027928889198940545	0.00940371888388793	0.0017034957224054683	0.0001682833840537698
2
15000
Ar	0.0004521652090000057	0.00011678490549617485	0.0031807196349759466	0.005820134970278867	-0.02339649671372883	-0.0006108568720106297
Xe	2.795181109708581e-05	0.00014125217582084982	0.0027960367416623635	0.010134384277642381	-0.0024587248199591932	0.0004017195734720514
2
15200
Ar	0.00044438059878795875	-0.00012235263509129222	0.0031754928138724055	-0.007298259155892948	-0.0233065060617789	-0.0003181107722743726
Xe	0.00012004175771096224	9.8208704031396e-05	0.002799510216383766	0.007816595726144234	-0.005942838707901881	0.00018027381920810362
2
15400
Ar	0.00031326258106594864	-0.0003280828773997454	0.0031757239273945627	-0.01831506491521751	-0.016880863006334325	0.00037713350137901647
Xe	0.00017661741826307024	2.8645693429316257e-05	0.0027987358465766604	0.0032409625692733065	-0.007620404257561367	-0.0003447362371249466
2
15600
Ar	9.412378604129272e-05	-0.0004437944335286042	0.0031818927395937152	-0.02447674645460894	-0.005637876950113627	0.0007260277701391088
Xe	0.00018191569453135216	-4.750109300485245e-05	0.002793327733768403	-0.0021829738002983362	-0.007288425414965671	-0.0006187750538397919
2
15800
Ar	-0.00015274886978152864	-0.0004344255285016267	0.0031874611416287807	-0.02368730252131923	0.007526518587140093	0.0002835010798962495
Xe	0.00013505169369008635	-0.00011090373098782256	0.002788214787468753	-0.006944583593995673	-0.0051185307180260705	-0.00029471883877183445
2
16000
Ar	-0.0003559723360830411	-0.00030064380265098004	0.0031867411152719616	-0.015939779725748126	0.018555133076261773	-0.0004053486453946659
Xe	4.890008325952889e-05	-0.00014496740733854378	0.002788141297767269	-0.00988342911211532	-0.001535502583169933	0.0002824076116221376
2
16200
Ar	-0.00045684945841872757	-8.153322155348069e-05	0.003180488841609389	-0.003770485549529451	0.024155170322444058	-0.000718041709819161
Xe	-5.2833369823307714e-05	-0.00013944228941700407	0.00279287589510989	-0.009939747265050076	0.0026185982420419977	0.000580860945664763
2
16400
Ar	-0.00042882329444924943	0.00015985547233205688	0.0031748936606619226	0.009193065551937529	0.02300031268550924	-0.00028306301468252994
Xe	-0.0001395513280195686	-9.504885394749299e-05	0.0027979329827655	-0.006943252748400111	0.006027823112858844	0.0003518981789730206
2
16600
Ar	-0.0002814418578028568	0.0003574641347620385	0.0031758325767354038	0.01963703635275711	0.01561215594971523	0.00042764205184874735
Xe	-0.0001851939522686447	-2.4984444363437075e-05	0.0027991990191215304	-0.00197492718854475	0.007659143397220191	-9.725578679805745e-05
2
16800
Ar	-5.3888034590907344e-05	0.0004563189759386954	0.0031815258698416624	0.024776514037118884	0.0036338232306747705	0.0005803886554551516
Xe	-0.00017749438357149875	5.1360627820911906e-05	0.002796876897204779	0.0034756357115310527	0.0072743190088021435	-0.00031974960991318287
2
17000
Ar	0.000189799483855667	0.0004257689817044417	0.003185569267805494	0.022740228103345687	-0.009601968065179666	0.0001419040359009516
Xe	-0.00011893953590528874	0.00011414664339426754	0.0027942200131517536	0.007944182314343328	0.0049921831436559195	-0.00017724505388309016
2
17200
Ar	0.000378705086069991	0.0002740805474703169	0.0031841739932713447	0.014117445826487756	-0.019983657264970173	-0.00038756077965022476
Xe	-2.6011705906074116e-05	0.00014633791488944347	0.002793810499738425	0.010181788778317321	0.001256864014730644	5.577495177016466e-05
2
17400
Ar	0.00045966087641347524	4.558228533821396e-05	0.0031795260054554753	0.0017370597864536748	-0.024617600786625074	-0.000410510046836096
Xe	7.447377062623003e-05	0.00013759698463647172	0.0027943614826977194	0.009394219834366386	-0.0029784352983538986	3.1600942375859045e-05
2
17600
Ar	0.0004121064112700295	-0.00019539006484322943	0.0031774699954924285	-0.011031130316906706	-0.022438116463754428	4.090297762501115e-05
Xe	0.00015307132517156872	8.987458548434475e-05	0.002793736069962206	0.0059248781409264	-0.006314733624979441	-0.00018180371923562914
2
17800
Ar	0.00024888762430239476	-0.00038229146480322216	0.0031797999997812856	-0.02085530614006936	-0.014026874880217277	0.00035823615492393854
Xe	0.00018738610388032242	1.7089683596192983e-05	0.00279115373067944	0.0007888746133838946	-0.007893231840244439	-0.00027481238060063763
2
18000
Ar	1.4576111455046825e-05	-0.00046175562669825476	0.003182994778713327	-0.024888885351211247	-0.0014407223377010984	0.00022807777412837697
Xe	0.00016819984347766633	-6.126431502438677e-05	0.0027896099581108088	-0.004524292710836031	-0.007415216569264792	2.8269447076282682e-05
2
18200
Ar	-0.00022444195267625033	-0.00040926523448600144	0.0031831143897589806	-0.0217059707897009	0.011660518276707443	-0.00020796352043882577
Xe	0.00010091490525543831	-0.00012410522516189014	0.002791797003455306	-0.008608812683283654	-0.004838098180766968	0.00039226410535707574
2
18400
Ar	-0.00039864367977494815	-0.0002402912472996078	0.0031797819674140686	-0.012334479724342623	0.02126542581332657	-0.00037389926561816057
Xe	4.6480945819415645e-06	-0.00015306710957234412	0.002796660752209334	-0.010142636832612335	-0.0007879743603303991	0.0005249291726498746
2
18600
Ar	-0.0004606135630243076	-3.96887882115895e-06	0.003177226533897392	0.0002167080645463101	0.02488183170715093	-4.1324423199784406e-05
Xe	-9.205734923754236e-05	-0.00013909819061598268	0.0028004948205632616	-0.00870192426636451	0.0035049122036698815	0.00017645226764132852
2
18800
Ar	-0.0003944616943531794	0.00023415513145305054	0.003179097580489685	0.012732207606327005	0.021631039151735573	0.0003939081383766028
Xe	-0.00016113175819078336	-8.660021899430216e-05	0.002799637569377039	-0.0047832421640324205	0.006756445760056575	-0.00034105597829411574
2
19000
Ar	-0.00021699778211172315	0.00040775022345124917	0.003183490942317445	0.021905065088367783	0.012206040102859462	0.0003954574643942515
Xe	-0.00018382359982746697	-9.717530413674163e-06	0.0027951317568236027	0.0003528854623491918	0.008258354940578283	-0.0004800899310108459
2
19200
Ar	2.2966817292608397e-05	0.0004655927812898876	0.0031853313842616035	0.024875209596364873	-0.0009238043524152545	-6.207283709932146e-05
Xe	-0.00015422707294410356	7.090670873335605e-05	0.0027911375320410752	0.005423523888095692	0.0075057114605962556	-0.0002394277882461112
2
19400
Ar	0.0002561721919751932	0.00039042602227035866	0.0031822253357107005	0.020617924087298057	-0.013711833538448124	-0.00048570283704878187
Xe	-8.038575184024623e-05	0.00013326528256958522	0.0027905365046813693	0.008980008918228793	0.004647021982695343	0.00010859878490197706
2
19600
Ar	0.00041591114341225726	0.00020494027686664265	0.003177399074091959	0.010603532111668831	-0.022466408383688567	-0.0004102983292437209
Xe	1.6388328243481918e-05	0.00015884490552684188	0.002792662987783873	0.009900707353868325	0.00034421620752997476	0.0002945108878760298
2
19800
Ar	0.00045886597178581196	-3.798041208316644e-05	0.0031755271884460552	-0.0022180918852265047	-0.024952828224664596	6.386239352676267e-05
Xe	0.00010787841404105185	0.00013979208621213709	0.002795024805034462	0.007951045459796543	-0.004067322453107479	0.00014694960807244185
2
20000
Ar	0.00037337017406727273	-0.00027097690394714915	0.0031786923143407577	-0.014498946191538799	-0.020501918298625348	0.0005102831790460436
Xe	0.0001678845582031846	8.169902214872051e-05	0.0027955891611271566	0.0037928140282852234	-0.007277713727109052	-3.476848202795208e-05
2
20200
Ar	0.0001817907855905546	-0.0004283289268387228	0.003183678428665717	-0.02287984533069552	-0.010164998269085559	0.00038052521456066556
Xe	0.00018054491899124601	3.654132640014744e-07	0.002795185585998552	-0.0013251521726872974	-0.008632473871360423	-3.5314943745257284e-05
2
20400
Ar	-6.206213581546296e-05	-0.00046367878146156373	0.0031850024695635882	-0.024661501983655548	0.003262741435534817	-0.00015764360693990093
Xe	0.00014239570436676895	-8.2639460193069e-05	0.0027955439100389515	-0.006131138442032374	-0.007581129391063324	0.00010936304296239039
2
20600
Ar	-0.00028783027344613465	-0.0003667419739563287	0.0031813426289184384	-0.019408965464548653	0.015617575665442609	-0.0004866249969011645
Xe	6.404785803136303e-05	-0.00014338051853224164	0.002796785071208961	-0.00916769014130584	-0.004266130901333505	0.00010147245764424992
2
20800
Ar	-0.00043209822767572886	-0.00016660703176163693	0.0031770006946555147	-0.008771364264579019	0.023444109928056504	-0.00029767274242952895
Xe	-3.19760566478253e-05	-0.00016358232998247283	0.002796994216978286	-0.009555964221192143	0.0003134952423678352	-0.00010110142202820423
2
21000
Ar	-0.00045530324312672844	8.039161608781638e-05	0.003176004629520767	0.004266367905746184	0.0247826307707227	0.00013663618822773416
Xe	-0.00011763414259911973	-0.00013728033942014215	0.002794572761161672	-0.0071824877225467425	0.004813229190246232	-0.0003405184899380229
2
21200
Ar	-0.0003502009227161296	0.00030556590525626605	0.0031787371829797035	0.016259852973005987	0.019170362201908226	0.0003576400856363865
Xe	-0.00016934315597954728	-7.206079250160641e-05	0.002791613361069891	-0.0029308670803406345	0.007962171991920432	-0.00021145281995632806
2
21400
Ar	-0.0001453517590489772	0.0004450122736032254	0.003181860092567381	0.023736458333103873	0.00799923368333657	0.00019025372127590018
Xe	-0.00017351760607884243	1.4450828866375965e-05	0.0027907832757500597	0.0020995762156779904	0.00894773411297943	0.00010628534969527595
2
21600
Ar	0.00010079275947905383	0.00045778461461271064	0.0031823003127996125	0.024312431737595494	-0.005505860979272097	-9.512829968244936e-05
Xe	-0.00012876492077078396	9.850614892720424e-05	0.0027932110472223305	0.006632906390420723	0.007437297057783049	0.00036897212326960147
2
21800
Ar	0.00031783285273006244	0.00034059282765403875	0.003180727925938732	0.018049524647116396	-0.017332198701225866	-0.00016953385416683774
Xe	-4.738003392088103e-05	0.00015575615153018372	0.0027970821107016343	0.009235242086323838	0.0037026538157275742	0.0003557525367117037
2
22000
Ar	0.0004451896643310561	0.0001274627685739343	0.003179671683952002	0.006815410414227239	-0.024279216883716606	-2.4645991402506536e-05
Xe	4.6820955840051025e-05	0.00016874128916180914	0.002799224016299209	0.009165205464755743	-0.0011413924652303705	6.516172695188138e-05
2
22200
Ar	0.00044751517338324456	-0.00012225391810504493	0.003180264312033894	-0.006368961582431128	-0.02445672396292007	0.00011064901151211727
Xe	0.00012704197229252998	0.00013389461490145827	0.002798187780475639	0.0065078174014881005	-0.005625098142812292	-0.0002477521242566229
2
22400
Ar	0.0003230032889513831	-0.00033851621835348294	0.0031811901446141743	-0.017932091357177795	-0.0177132190563339	2.6275583852243856e-05
Xe	0.00017106497980225608	6.124522170529961e-05	0.002795390827617899	0.0021123771829093824	-0.00857337931662294	-0.00029235170481831894
2
22600
Ar	0.00010615684251413457	-0.00045894323556744496	0.0031804471932934423	-0.02436299035972859	-0.005772380902288824	-0.0002047521761190689
Xe	0.00016740144536878674	-2.9400097887402573e-05	0.002793521287644013	-0.002861419717655081	-0.0091330360952387	-7.622892609807177e-05
2
22800
Ar	-0.0001408196323425733	-0.0004485622010401621	0.0031776027918938854	-0.023823109495517344	0.007755722647072143	-0.0003357885299415648
Xe	0.00011633826704023286	-0.00011245031896074747	0.0027936186794686236	-0.007076419257629377	-0.007064251644142516	9.125684925900764e-05
2
23000
Ar	-0.00034782747813103595	-0.0003113191644203361	0.003175378776582376	-0.01659844422377051	0.019010838529771854	-7.350760363002827e-05
Xe	3.250447953619526e-05	-0.00016385837669076185	0.002795093603845269	-0.009271525903623817	-0.002953126501922267	0.00014072024282169325
2
23200
Ar	-0.00045727505049339754	-8.645556243934874e-05	0.0031766433830125135	-0.0047660956807794854	0.02490675354677444	0.000332933848438675
Xe	-6.0084889778327355e-05	-0.00016850781331968718	0.0027960828555593934	-0.00878220372680307	0.0020426931367519175	3.265528765866663e-05
2
23400
Ar	-0.00043812976093705105	0.0001635569468189542	0.00318084989562139	0.008517505382082813	0.023883471238175857	0.00045643270343566746
Xe	-0.0001350420221905955	-0.00012527457243683893	0.002795952198731834	-0.005875230706689697	0.006394157447971178	-3.406905996848934e-05
2
23600
Ar	-0.0002944143705064168	0.0003677749396007469	0.0031843341688403766	0.019541196541796695	0.01594293536399468	0.0001756096442569049
Xe	-0.00017213712614509634	-4.652696984529836e-05	0.00279576209084594	-0.0013617326135922341	0.008996132812349015	2.3240364277477538e-05
2
23800
Ar	-6.619957027417277e-05	0.0004668912749358794	0.0031836520285258058	0.024957998827434724	0.003422203490145239	-0.00028927523818066483
Xe	-0.0001607995123481577	4.6069223850769866e-05	0.002796610658515459	0.003580517888283899	0.009066472450665752	0.0001067588919979632
2
24000
Ar	0.0001806786470978999	0.00043304776019533267	0.003179400923138915	0.023209917298086195	-0.009992465967135813	-0.0004626649368174757
Xe	-0.00010394022252809787	0.00012617371554635547	0.0027976631370153528	0.007495582204780321	0.006546331903857922	7.634308581881321e-05
2
24200
Ar	0.0003763174931852385	0.00027699406849752045	0.0031757439094923	0.014992673710721058	-0.020507116619412194	-0.00022118207391419554
Xe	-1.8068818715859502e-05	0.00017034524029544478	0.0027975490075037536	0.009264205383778078	0.002076147516682732	-0.00012182923426984148
2
24400
Ar	0.0004662140024417877	4.260111650771687e-05	0.0031754732443078798	0.002517457006697739	-0.025267308160119413	0.00017391809240732716
Xe	7.214287088218672e-05	0.0001658765277340143	0.0027955764038975497	0.008355455814921958	-0.002944509834401679	-0.0002597499602479835
2
24600
Ar	0.0004240897723886937	-0.00020435214775470537	0.0031785493400178903	-0.010766496920005116	-0.022928366644901124	0.0003825187394558097
Xe	0.00014163682358554546	0.0001143865982921751	0.00279316691036862	0.005216175364968545	-0.007101346092588843	-0.00018179288554685233
2
24800
Ar	0.0002612681854446246	-0.0003935008037547375	0.003181628858678372	-0.021008614852310696	-0.013960998598447232	0.0001997375201692313
Xe	0.0001715481555899799	3.0142514734778456e-05	0.002792502177139048	0.0006229274505899147	-0.009380173845975103	7.104372427526485e-05
2
25000
Ar	2.4096804522093274e-05	-0.0004702566982409275	0.003182377632343429	-0.02524550253886166	-0.0010413319916991466	-5.9897083987046985e-05
Xe	0.0001534427525356322	-6.406767568937179e-05	0.0027946248142396066	-0.00414981474115805	-0.009006322451537109	0.0003175954710638042
2
25200
Ar	-0.0002195379408309709	-0.00041363999940774345	0.003180784965453642	-0.02230708168149924	0.012081581541434416	-0.0002283076844182149
Xe	9.232254929352915e-05	-0.00014089847295645103	0.0027977528924071275	-0.00778072978493219	-0.0059888925956504985	0.000260676007558715
2
25400
Ar	-0.00040122699053021603	-0.0002402611309822215	0.0031787378500957807	-0.013150304026368007	0.021748406743124428	-0.00013964205688527887
Xe	5.291194273427896e-06	-0.00017775365157869397	0.0027992431411189922	-0.009181897058937127	-0.0012053813901617134	3.477334331322023e-05
2
25600
Ar	-0.0004695850915286587	1.1380302255398967e-06	0.003178091995882473	-0.00020662405695478326	0.025401315300066372	-9.177986458993325e-06
Xe	-8.253792952975526e-05	-0.000163708769384811	0.002798502867018637	-0.007990128060726787	0.003935716322842096	-0.00016250288112744135
2
25800
Ar	-0.00040472952392575846	0.00024313195406755142	0.003178453574043729	0.012876231712723066	0.021806522606755342	4.3542257152711604e-05
Xe	-0.00014689925098401512	-0.00010305021131360078	0.002796492317888699	-0.004578297626842149	0.007903816762660368	-0.00019818700215100578
2
26000
Ar	-0.00022419538998651745	0.0004161836932738392	0.0031781754522339813	0.022315625748367932	0.011966066410834064	-9.242032454214416e-05
Xe	-0.00017002518068606003	-1.2950884041897912e-05	0.0027952581961860064	5.7506921390380986e-05	0.009673361941856895	-6.059735841321528e-05
2
26200
Ar	2.017285125535295e-05	0.0004709353723820854	0.003177304043472483	0.025376858792282096	-0.0012556629997038373	-6.582660924085182e-05
Xe	-0.00014540950750576944	8.101958139832048e-05	0.002795089318057402	0.004737128806002307	0.008663246715018896	1.4967217603377016e-05
2
26400
Ar	0.0002587592130671804	0.000392417208269027	0.0031772858525238217	0.021209327996505527	-0.014058445567751085	8.24625312414316e-05
Xe	-7.974839276986735e-05	0.000151938870011084	0.0027954761550464764	0.00806623226033553	0.00514631188065385	5.310577273090424e-05
2
26600
Ar	0.00042427198587637743	0.00020300820994843583	0.0031790904625363576	0.011087659419865373	-0.022930975212847128	0.00026908143683963544
Xe	8.264536878014978e-06	0.00017924530789570852	0.0027957487735045835	0.009102101443772392	0.00018124219755652585	1.4087323509038645e-05
2
26800
Ar	0.00046950213175324314	-4.447784314761626e-05	0.0031814548271539736	-0.0022695725850155335	-0.02535662755717102	0.00016666568300563914
Xe	9.404199571500863e-05	0.00015570753294430657	0.0027958726902537023	0.007640747866997681	-0.00478431502905353	2.0469038111970994e-05
2
27000
Ar	0.0003807832412415985	-0.0002796540396751813	0.0031821272590174957	-0.015015393715236748	-0.020521042431923854	-6.323386245651992e-05
Xe	0.0001540759295225297	8.782873594852766e-05	0.002796559018995924	0.004060162213031821	-0.008450776685632783	0.00011305993100263135
2
27200
Ar	0.00018344120740609456	-0.0004350569423596471	0.003180226981380222	-0.023465956822084546	-0.009798922335834773	-0.0002830103124334214
Xe	0.00017114346846562622	-5.207230204266333e-06	0.0027979823049901786	-0.0007705390549258539	-0.009697003701899829	0.00016350187526073748
2
27400
Ar	-6.592653527292823e-05	-0.0004663824709942711	0.0031770226415849937	-0.02521091755963732	0.0036411412772048538	-0.0003201072582347603
Xe	0.00013959692463777146	-9.650949712968114e-05	0.002799126363930037	-0.005388831403534233	-0.008117574246916094	4.192501515748139e-05
2
27600
Ar	-0.000296963067806584	-0.00036586389020594695	0.0031750966034512925	-0.019860427709397804	0.01598621952777988	-4.63461536860699e-05
Xe	6.868094374127557e-05	-0.00016011279868244032	0.0027987952802947013	-0.008428139983002932	-0.004278741142097097	-0.00011503593747499771
2
27800
Ar	-0.00044408666965119404	-0.00016160860742810287	0.0031759760834430117	-0.008842462114692447	0.023889625537695507	0.00020861989635773026
Xe	-2.121343365077399e-05	-0.0001782243729293097	0.002797166918455614	-0.00913835007430452	0.0007261293371661871	-0.00019414081022771872
2
28000
Ar	-0.00046524553590249256	8.918472510558031e-05	0.0031785967893013497	0.0047230335417177294	0.025034746845061535	0.00026603715370430807
Xe	-0.00010520142727359	-0.00014613341422774022	0.002795333304231907	-0.0072504948798962085	0.0055514519361459244	-0.00014464806181153307
2
28200
Ar	-0.000353883925526434	0.00031479922701465246	0.0031803590406669652	0.017003101842547365	0.018976633189805293	7.412933690013382e-05
Xe	-0.0001595690017859559	-7.253418177483065e-05	0.002794623617766361	-0.003344708171476704	0.00880823268357651	2.133229659438811e-05
2
28400
Ar	-0.00014150817661876694	0.00045056438885796783	0.0031800106744874997	0.02441292900705198	0.007506579478276119	-0.00013526213820098595
Xe	-0.0001691310836337456	2.2199175615798998e-05	0.0027955399692898737	0.0014881376379731115	0.009634032753567466	0.00016907492346627308
2
28600
Ar	0.00011103132385058	0.0004580090870846296	0.0031786188181893425	0.024859516901910177	-0.006031158646303077	-0.00011988100428781533
Xe	-0.0001309425596231508	0.00011075890033128103	0.002797428455235764	0.005950892913826322	0.007641554010529412	0.0002090704391831719
2
28800
Ar	0.00033223806779706554	0.000335501926529147	0.0031776094638162377	0.018303753483780466	-0.017894141107815058	-6.269505769990756e-05
Xe	-5.5933918571029985e-05	0.00016759068020536294	0.0027989269474775953	0.00868987487717896	0.003435469198936465	8.753595802751909e-05
2
29000
Ar	0.0004597059222287303	0.00011732782591361682	0.00317741174347497	0.006552436170433824	-0.024684322857800454	1.1642793860913527e-05
Xe	3.491988140119671e-05	0.00017632212490243003	0.002799240485128142	0.009033314164620715	-0.001719954993814612	-2.868692571019295e-05
2
29200
Ar	0.0004564371501679208	-0.00013463492292742352	0.0031776556732923938	-0.007210672562575248	-0.024480200006053315	3.855975417455425e-05
Xe	0.00011597110281497641	0.0001346689947205232	0.0027984996491067764	0.006771911088439267	-0.006363443366171444	-0.00011834046465943117
2
29400
Ar	0.0003228174859355749	-0.00034854147904700525	0.003177752456906411	-0.018872337288985633	-0.017263589733590764	-4.315275170620149e-07
Xe	0.0001642721459215819	5.5018664569100956e-05	0.002797556894259333	0.0026604174260660297	-0.009184444166943282	-7.853188376465556e-05
2
29600
Ar	9.725331008120937e-05	-0.0004634209728123754	0.003177815961698036	-0.025112962157050136	-0.0051594863813120345	-2.847719534490416e-06
Xe	0.00016634027284692502	-4.053244228072158e-05	0.0027969906850361225	-0.002265671126480579	-0.009460493135672486	-3.672047578206768e-05
2
29800
Ar	-0.00015550498277617744	-0.0004470034827105619	0.003178223598433475	-0.024226528606177796	0.008365464976839184	7.274703633763292e-05
Xe	0.0001212059076531725	-0.0001248992116287844	0.002796527390825747	-0.006568751504662933	-0.007015046064881822	-5.890816911080387e-05
2
30000
Ar	-0.00036403476589576104	-0.0003041685853094152	0.003179000227722874	-0.016474073762946396	0.019515154086694336	6.361931688049593e-05
Xe	4.159321161205116e-05	-0.0001739358388444506	0.002796023734942768	-0.008971054532868169	-0.0025737270080574384	-1.938441314888819e-05
2
30200
Ar	-0.0004691888650913838	-7.48267325767788e-05	0.0031793183069022167	-0.004038426544387804	0.025231724458307337	-7.568699634273565e-06
Xe	-5.023548302679034e-05	-0.00017370969255830392	0.002795931976552491	-0.008942117943514806	0.0026251692013419094	6.6661744675209935e-06
2
30400
Ar	-0.0004409074507038863	0.00017608465056222574	0.00317882945467467	0.009571959730589155	0.023722974043231513	-0.00010077333442950517
Xe	-0.00012846493287092575	-0.0001240078611365532	0.002796283118889023	-0.006322287454590529	0.00708009184512561	8.596613924612549e-05
2
30600
Ar	-0.00028704459315134637	0.0003768620194770519	0.00317747164556194	0.020426544964563448	0.015459239472048948	-0.00015105082078160475
Xe	-0.00017061512046924593	-3.920217578192602e-05	0.002797566462745645	-0.001924652260061333	0.009471456029887405	0.00014951957937660052
2
30800
Ar	-5.177834604889067e-05	0.0004705604580567558	0.0031763214897727148	0.025485956746780464	0.0028639291252595773	-6.387683041068245e-05
Xe	-0.0001647270213204055	5.6239786576775964e-05	0.002798982747514881	0.003065980136855619	0.009147168540162138	0.00012490060556938983
2
31000
Ar	0.00019844171994297166	0.0004311874671790267	0.0031762748231850923	0.023343112102232576	-0.010591463630361371	5.386446328675028e-05
Xe	-0.00011231999712213517	0.00013516922653105808	0.0027997565936066096	0.007173597131536244	0.0062364916409836	1.6628062118579883e-05
2
31200
Ar	0.00039275376665765086	0.000268900097022502	0.0031774206541032835	0.014570156701752712	-0.02106034910401432	0.00013763406523286252
Xe	-2.8331372938594683e-05	0.00017519377656259022	0.002799259974134151	0.009215529556946378	0.0016021453169287414	-0.00010200219748801771
2
31400
Ar	0.0004759466113231108	3.0038138052322862e-05	0.0031786909753446575	0.0016357013917189017	-0.02553088485465443	8.396805051185055e-05
Xe	6.36235778516824e-05	0.00016548804582007903	0.0027980826361059664	0.008730603625095758	-0.003505638682359377	-0.00011040427527627178
2
31600
Ar	0.00042359350155291676	-0.00021708714356765275	0.0031790460352188565	-0.011846958492861801	-0.022679481194756927	-4.5129956171895616e-05
Xe	0.00013780787743420558	0.00010847444183904329	0.0027968810543071198	0.005765606493776951	-0.0076127166946389525	-0.00010104416625850515
2
31800
Ar	0.0002504473305459681	-0.0004021990563841706	0.0031781754865673043	-0.021931392831767087	-0.013446007968061932	-9.877971620187631e-05
Xe	0.00017341568346561655	2.0833061268102183e-05	0.0027964581130697276	0.0011618747817270538	-0.00950704950956573	-9.440075859746915e-06
2
32000
Ar	6.221969659954873e-06	-0.0004731603151788243	0.0031772001661225673	-0.025727636251005367	-0.0003984585690050158	-0.00010109567223934463
Xe	0.000160115109873274	-7.253604072615574e-05	0.0027963524725051698	-0.003771389700923256	-0.008734439633269734	-3.2583179942048576e-05
2
32200
Ar	-0.00023984977158019962	-0.00040998478349016414	0.003176560856982911	-0.02225609373995819	0.012771340985741236	-3.840602006620626e-05
Xe	0.00010161350855714628	-0.00014567325442392957	0.0027962510398868794	-0.007652775797449493	-0.005517464345023746	2.2936810891560166e-05
2
32400
Ar	-0.00041751880007329594	-0.00023006501322350403	0.003176277739069612	-0.01240423505923118	0.022353203876713804	-2.2108129894474953e-05
Xe	1.4328693585677624e-05	-0.00017759654060283284	0.002796799710824695	-0.009390052326665831	-0.000699782538604444	9.975286669907993e-05
2
32600
Ar	-0.00047647562311382754	1.5510121432390844e-05	0.003176315918981184	0.0009138300998708417	0.02557531347262923	3.28892788258716e-05
Xe	-7.728779642208088e-05	-0.00015921441818696444	0.0027981470058567053	-0.008469508356155757	0.00428935070241681	0.00016804282596231233
2
32800
Ar	-0.00040002572231384245	0.00025693082021471895	0.0031769826811283027	0.013994688650305382	0.021557853421322378	0.00011000204545934459
Xe	-0.00014690600076974107	-9.585829950393336e-05	0.0027996760001468834	-0.00510713327660809	0.0080990965945602	0.0001263800772624625
2
33000
Ar	-0.0002100567294787632	0.00042552490454662997	0.0031779670544886548	0.02308415223039698	0.011372105236469773	9.679148252254131e-05
Xe	-0.00017458929569546497	-5.212439930459698e-06	0.002800405718940966	-0.00028668098826360093	0.009585062745440067	1.7221125388158447e-05
2
33200
Ar	3.988090380064915e-05	0.0004734417140470257	0.003178785848831197	0.02565958865249542	-0.002023294084096727	7.913411286226713e-05
Xe	-0.00015268500344374256	8.66535994468739e-05	0.0027999534913344735	0.004570110516437326	0.008342174480351192	-0.0001259789594001624
2
33400
Ar	0.0002786504211047949	0.0003868861877790497	0.0031789113293184718	0.02089168241096525	-0.014873814703006506	-2.03659876764246e-05
Xe	-8.763735530834885e-05	0.00015382599121558434	0.0027982126104485316	0.00813668278264178	0.004776744275242019	-0.00019685233819086598
2
33600
Ar	0.0004376626198011844	0.0001903335022467333	0.003178341738183689	0.010131993407173454	-0.023505470052206573	-0.00010993053244851117
Xe	2.4698550932859603e-06	0.00017751444314463748	0.002796527424538757	0.009442762031846815	-0.00017221546766348815	-0.00013519519006284435
2
33800
Ar	0.0004717300375494256	-6.050628392077602e-05	0.00317706042964567	-0.003469408464946261	-0.02543835999546546	-0.00012456314742243535
Xe	9.236848570978306e-05	0.00015053566419462693	0.002795563773158388	0.008092869288710348	-0.005079420211118846	-1.737582879260516e-05
2
34000
Ar	0.00037154620435096757	-0.0002939829874911994	0.0031761020925712585	-0.016080042185884692	-0.02011809618882723	-5.043988007377672e-05
Xe	0.00015657283207963778	8.072734094780969e-05	0.0027959925506762023	0.004431019937498529	-0.008535703676152103	9.00564501183374e-05
2
34200
Ar	0.00016561214074714578	-0.00044377780681113707	0.003176203011193956	-0.024087887647521438	-0.009092626623782928	6.63224386789075e-05
Xe	0.0001765118576010873	-1.1829632684133052e-05	0.002797132171036727	-0.0005412161409495395	-0.009541952512521977	0.0001375890858318446
2
34400
Ar	-8.733992511116858e-05	-0.0004672618610679844	0.0031771390626915475	-0.025250594434841466	0.004504685162795833	0.00011864519428649321
Xe	0.0001463760059029044	-0.00010099773879671915	0.0027982496228294313	-0.00536146070707997	-0.007839352655096584	8.278491013229631e-05
2
34600
Ar	-0.0003154803813138892	-0.0003577218187958694	0.0031781847049629154	-0.01925817677055642	0.0168711258530979	7.291354460035567e-05
Xe	7.441983039798323e-05	-0.00016135190247445487	0.002798794494447601	-0.008670396491853907	-0.0039588197851527195	3.068843905389285e-05
2
34800
Ar	-0.0004536490730654656	-0.00014613197048899746	0.0031782738184296987	-0.007707785722139562	0.024425801508497418	-5.743661435992806e-05
Xe	-1.8993467988398467e-05	-0.00017609796214877122	0.0027989685373604263	-0.009566255823077848	0.0010720767468105988	-9.73215736494368e-06
2
35000
Ar	-0.00046243848502571503	0.00010736586057332961	0.003177435433827609	0.005974910668947821	0.02503448276348632	-0.00012251639926520415
Xe	-0.0001075289379265979	-0.00014072192426675326	0.0027985089577107877	-0.0077246989685378735	0.0058358651802539845	-6.897581063342911e-05
2
35200
Ar	-0.0003398679400553538	0.0003302452941719174	0.0031765765319457574	0.017969863801164554	0.018506515779181613	-4.630270588066672e-05
Xe	-0.00016592319935580078	-6.513467188764298e-05	0.002797526677095969	-0.003674681607558402	0.008911505963285668	-0.00010635346880967926
2
35400
Ar	-0.00012019725360292027	0.0004598324631319463	0.0031765761807583896	0.024893105920315805	0.0067420762145348	4.66026389644688e-05
Xe	-0.00017744578044335228	2.9137751959817566e-05	0.002796678468115132	0.001437322665493144	0.009486065061908059	-5.047632193495454e-05
2
35600
Ar	0.00013405056090456038	0.00045825877464080524	0.003177437054291675	0.024689798708497804	-0.00705192435296226	0.00011659634106265294
Xe	-0.0001386141131614993	0.00011536754779998981	0.0027966764962891947	0.006162556922189326	0.007343926943087656	6.860650005408034e-05
2
35800
Ar	0.0003499355389007233	0.00032558453337380825	0.003178337698615869	0.01742511314512303	-0.01882781472083024	6.3609721460241e-05
Xe	-6.0142868773818986e-05	0.00016890984433910356	0.002797765240665793	0.009172782373247264	0.0031060484442767813	0.00013597978038261846
2
36000
Ar	0.00046608840880525644	9.971924694530951e-05	0.0031784175115691505	0.005255029937910151	-0.0252481964880048	-4.76722920728456e-05
Xe	3.5786254709632e-05	0.00017479702325545138	0.0027992406708920894	0.009568926400037389	-0.001975228712794056	0.00013966755535443386
2
36200
Ar	0.00044984881954424397	-0.00015451598988928847	0.0031777489262698145	-0.008429149391088533	-0.02435916844833244	-8.546541176637899e-05
Xe	0.00012166264076114187	0.00013097259229483376	0.0028002518535321643	0.007189418331401256	-0.006567059097750945	4.078193884898202e-05
2
36400
Ar	0.0003056322208687746	-0.00036484577914526424	0.003177146413092784	-0.0197084462412763	-0.016660510247266933	-5.537614380870568e-05
Xe	0.00017297498556691584	4.992838520328044e-05	0.002799824223004056	0.0028147792057371833	-0.009243282159949538	-0.0001199455694332846
2
36600
Ar	7.40989331591293e-05	-0.0004715268142655684	0.003176769815143126	-0.02546234139557634	-0.004150478375577126	-3.404500314764914e-05
Xe	0.00017505261900226733	-4.510562763016952e-05	0.0027984699422181685	-0.0023968401640437403	-0.00928537381620473	-0.00013366554763780862
2
36800
Ar	-0.00017906101135871694	-0.0004433940968071511	0.0031762489267330636	-0.023925575884327272	0.009654311839280729	-5.927070326886779e-05
Xe	0.00012728696537100238	-0.0001272085311057058	0.0027973466516651646	-0.006921643654840718	-0.006745853177028291	-0.00010674602458013205
2
37000
Ar	-0.0003814965375718049	-0.00028813351258355675	0.0031759687374427648	-0.015573950015312496	0.020615037493451015	-1.9550321129569307e-05
Xe	4.329722126216305e-05	-0.0001736569522698533	0.002796577598825661	-0.00951222902878681	-0.0022999991039776373	-1.1363537096778427e-05
2
37200
Ar	-0.00047533051035641386	-5.080380140484507e-05	0.0031759381823126365	-0.002758725938262819	0.025677821199850605	4.933169723354316e-05
Xe	-5.3509904860542084e-05	-0.0001706826079200883	0.002797186501897841	-0.00938605974648188	0.0028711489011182226	0.00013203487704264316
2
37400
Ar	-0.00043397543753323086	0.00020102515968017424	0.0031765900914205412	0.010837406614272226	0.02346948780694936	7.973586227535718e-05
Xe	-0.00013531694259624828	-0.00011933628943308467	0.0027988594372278593	-0.006562336494055796	0.007158306651367351	0.00018132946020932707
2
37600
Ar	-0.0002686953737869101	0.0003959515743524653	0.003177658937411635	0.02139841095626304	0.014587424875378112	0.00010281643144381272
Xe	-0.00017832722657062266	-3.4179080446517035e-05	0.002800408086773789	-0.0018415432343448558	0.009462491676793788	0.0001245697502198445
2
37800
Ar	-2.6593687233283025e-05	0.000478513839708587	0.0031779319079405003	0.025832600856178042	0.0015133093984177103	-3.974879881247817e-05
Xe	-0.00017043783022611565	6.083859685534763e-05	0.0028011560490730707	0.003363726610299019	0.009088411273525098	3.906216208962493e-05
2
38000
Ar	0.00022328797343783023	0.00042424267687171647	0.0031767644051346683	0.022902387196410953	-0.012070356574568083	-0.00016671278396888199
Xe	-0.00011413393409359139	0.0001387407739147844	0.0028012854206422456	0.007587479374345611	0.006118037640175641	-3.9774630998125735e-05
2
38200
Ar	0.00040954020771355964	0.00024873943207643956	0.0031751206657733987	0.013443307159617486	-0.02215660046519978	-0.00014202277908770958
Xe	-2.5829658830493602e-05	0.0001775322472700532	0.0028004507184293576	0.00965414687796585	0.001418544873686787	-0.0001325242214700818
2
38400
Ar	0.00047914749829923713	2.1332511862468315e-06	0.003174175393252096	0.0001456529687913697	-0.02596424810211858	-3.658996114492456e-05
Xe	6.964896688297971e-05	0.00016604875118732054	0.0027990366276949155	0.008963915082962412	-0.0036527103174081575	-0.00013319097354546442
2
38600
Ar	0.00041233593002748667	-0.00024525036805628903	0.003174410041964163	-0.013218640253329807	-0.022320058020209053	8.173988848205546e-05
Xe	0.00014513174773706275	0.00010755949113691222	0.0027979900000589266	0.0057769954090853524	-0.00777022155379131	-6.385773457500768e-05
2
38800
Ar	0.00022760441450562523	-0.00042267402605207304	0.003175578019901066	-0.022819769576928432	-0.012318277546542763	0.00014284073946656202
Xe	0.00017952040130145657	1.8345527807119047e-05	0.002797694551099326	0.0009335117459093998	-0.0096522514422786	1.752020677398518e-05
2
39000
Ar	-2.1986564267755587e-05	-0.0004793997876426576	0.0031771271970078255	-0.025877309891822124	0.0012474380103421122	0.00014072454030108878
Xe	0.00016288807876738343	-7.630083982013954e-05	0.002798067034157931	-0.004182321650629279	-0.008791842433226053	7.542621157859586e-05
2
39200
Ar	-0.00026514059187033684	-0.0003989973301111843	0.003177890158728101	-0.021568530604483677	0.014438758670865227	1.763081806297041e-05
Xe	9.975453607346487e-05	-0.00014949060209570736	0.0027988620118533218	-0.008144485885389123	-0.005445643912193432	0.00011209740755033102
2
39400
Ar	-0.00043260075329212903	-0.0002045076370426753	0.003177623850987914	-0.011105297717854129	0.02351521879890339	-5.4392134282467656e-05
Xe	7.863993672740887e-06	-0.00018012094317587679	0.002800222408904108	-0.009777512832955765	-0.0005300159362350138	0.00013859067833530274
2
39600
Ar	-0.0004765017719659379	4.8439265991796665e-05	0.0031767845134597406	0.0025470039426592084	0.02584048984767057	-0.0001040393799119341
Xe	-8.620907831537866e-05	-0.00015975650530808004	0.0028013218877419445	-0.008585455226930076	0.0044962064914811075	7.670391678961445e-05
2
39800
Ar	-0.0003841121180104729	0.0002876323256927671	0.0031756887915244843	0.015493385515937147	0.020835471268461962	-8.403460002766848e-05
Xe	-0.0001558177137646213	-9.452623180320572e-05	0.002801601702212767	-0.004995221438744732	0.008222724481111044	-3.540244994547141e-05
2
40000
Ar	-0.00018181098374576917	0.0004447694060189297	0.0031749623492462486	0.023980180807822663	0.009821233758386803	-5.265770682947118e-05
Xe	-0.00018112194501398624	-2.99497337839698e-06	0.002800954826077581	7.793962983061872e-05	0.009649492822300262	-6.490709725384387e-05
2
40200
Ar	7.237852826980849e-05	0.0004747004936035769	0.003174412294678911	0.025600218312084966	-0.003994247621288375	-3.9700542821846726e-05
Xe	-0.00015439135555809475	8.926521143799597e-05	0.002800463766897313	0.005109514572047079	0.008355138189530117	-4.5420550277151125e-05
2
40400
Ar	0.00030560004018632915	0.0003685776377390111	0.003174368837073084	0.019891086786634135	-0.016663927998840117	2.5563055110866875e-05
Xe	-8.38514602950515e-05	0.00015609510043546653	0.0028000490423237836	0.008635771774309645	0.0046889924297909	-4.255772092987098e-05
2
40600
Ar	0.0004515986311765456	0.00015755265427737955	0.003175183763323639	0.008583176996681366	-0.024522134650187252	0.0001095074013874028
Xe	1.0354207896629107e-05	0.0001785998721010998	0.0027994958014215757	0.00974706697970606	-0.00030531510876461517	-8.925622900785469e-05
2
40800
Ar	0.0004690171942097955	-9.833308808608634e-05	0.0031764795157647324	-0.005205576419005646	-0.025405929790667286	0.00011755503313865398
Xe	0.00010174252224434814	0.0001502102237527448	0.0027986453609111337	0.008083491290510536	-0.005209823821901825	-9.746204567378333e-05
2
41000
Ar	0.0003520997694905891	-0.00032595561715585404	0.0031772590197147277	-0.017576755472276766	-0.01899762429283335	3.32224629421219e-05
Xe	0.00016411368738677125	7.927224278287828e-05	0.0027978861064080715	0.004075591949257669	-0.008637767537670895	-4.448139553265925e-05
2
41200
Ar	0.0001342507247534799	-0.00046002536182552297	0.0031769878471882814	-0.024919777727339967	-0.007181686856746578	-7.936499898686593e-05
Xe	0.0001796107864914771	-1.4444142533235854e-05	0.002798230723841811	-0.0010502541720265833	-0.009637701425877136	8.963737936184171e-05
2
41400
Ar	-0.00012213881763612102	-0.0004624376897313507	0.003175860746338861	-0.02507840463049206	0.006679281244169486	-0.0001260333582023265
Xe	0.0001441131893968693	-0.0001040974431840241	0.00279937066524944	-0.005879534163793421	-0.007850471727458553	0.00013558309912485724
2
41600
Ar	-0.00034352295324636457	-0.00033310993771720293	0.0031747610168000005	-0.01810377996716287	0.01855561286172178	-0.00010266978923977144
Xe	6.762584590446356e-05	-0.00016400975554112666	0.0028008220275987225	-0.009035039540512844	-0.003837705589381339	0.00010821532457888606
2
41800
Ar	-0.0004669270762038584	-0.00010920504263349264	0.003174283214437477	-0.0059956278209634065	0.025135315510564263	-6.362945264610239e-06
Xe	-2.783072075533135e-05	-0.00017712786433301164	0.0028013844155585724	-0.00959124925870134	0.0012873576752276625	-1.9515576362844186e-06
2
42000
Ar	-0.0004576892962302929	0.0001456641576971666	0.003174594488872787	0.007824625121268412	0.024606733872331428	3.537233313831438e-05
Xe	-0.00011513727488106618	-0.00013993220395740877	0.0028010067402723334	-0.007460835250432542	0.005959667668932806	-7.613968460959475e-05
2
42200
Ar	-0.0003179690746802605	0.0003591199006882983	0.003175259010713144	0.01945379702600374	0.01703049965526596	6.521810602485629e-05
Xe	-0.00016979169151307881	-6.342858302652376e-05	0.0028001377149808313	-0.0032219284480038616	0.008980574203851222	-0.00010569170607347465
2
42400
Ar	-8.733359665605536e-05	0.0004699037553544445	0.003176070201046523	0.02553964596449102	0.004579688484954079	6.718301893995331e-05
Xe	-0.0001762412480217333	3.1220396163789656e-05	0.002799167211157865	0.0019511671393988327	0.00949584578704149	-9.14859350275659e-05
2
42600
Ar	0.00016818932229285073	0.0004463183072534631	0.003176545848159964	0.024314559911361673	-0.00919584176656172	2.441784902012469e-05
Xe	-0.00013267078863013476	0.00011721620836782207	0.002798441005592644	0.006577846067361709	0.007287214538758937	-3.274937624063196e-05
2
42800
Ar	0.00037549328769288093	0.00029503703727566953	0.0031764653290738167	0.016104307958512323	-0.020310563968942253	-4.087608634715442e-05
Xe	-5.090614934862416e-05	0.00016983863663968545	0.002798557811943515	0.009348802623929231	0.0030028020232947344	5.7056964990180086e-05
2
43000
Ar	0.00047489727653112493	5.962064733040341e-05	0.003175923546887505	0.0033027681889564787	-0.025635186120382836	-6.0758362118818015e-05
Xe	4.5583841705335395e-05	0.00017433369600008318	0.0027991087367530156	0.009460245602604098	-0.0021256376649103287	9.86285237590305e-05
2
43200
Ar	0.00043857403727932384	-0.00019310914163491184	0.0031752067893742407	-0.0103682589057156	-0.023660926358568226	-7.805129638974067e-05
Xe	0.00012899635727588461	0.0001292497323237389	0.002800223498707781	0.006842037315351377	-0.006698541287218938	0.00010996949986413486
2
43400
Ar	0.00027731282234643	-0.0003909298666483083	0.0031744350896591575	-0.021097423930596017	-0.014924127013507033	-7.887922139198365e-05
Xe	0.00017584403662303027	4.703969780522963e-05	0.0028009664555743684	0.002283147505952349	-0.009328495165453235	4.561948312663647e-05
2
43600
Ar	3.691547438489873e-05	-0.0004772355510333923	0.0031739332582468778	-0.025793684278560877	-0.0019167845398086038	-1.783450265599529e-05
Xe	0.00017260884237683822	-4.838962178824026e-05	0.002801387194599138	-0.002903100562634783	-0.009287220908032062	2.4306041339804844e-05
2
43800
Ar	-0.00021404243838663841	-0.00042757728839382667	0.003174253096367316	-0.02315238907010969	0.01160347133104155	8.418961085149576e-05
Xe	0.00012037844560989416	-0.00012968309110616172	0.0028015668848007744	-0.007289236664943685	-0.006582400996246875	-2.516811347447464e-06
2
44000
Ar	-0.0004039243331157095	-0.00025594180444782653	0.003175154407787665	-0.013901686443761158	0.021871656981670394	0.00011036939171949664
Xe	3.3885825855998874e-05	-0.000173891899992145	0.0028012525643983277	-0.009574777533257878	-0.0020535871429166537	-8.1504278077704e-05
2
44200
Ar	-0.00047888965802580033	-1.149610037904041e-05	0.003176472887324392	-0.0007342307411131778	0.025828774425965203	0.00013720500244865532
Xe	-6.204705007428938e-05	-0.00016869764232365833	0.0028003943688940237	-0.009174709625940223	0.0030582407945255454	-8.434950422884576e-05
2
44400
Ar	-0.0004175128456475853	0.00023593610264083516	0.0031773164373312813	0.012721837081464049	0.022439233326285498	2.3566635283411015e-05
Xe	-0.00014054119934470908	-0.00011546888486631169	0.0027995019631831546	-0.006154398503739709	0.007337767012495681	-8.205515548585442e-05
2
44600
Ar	-0.00023671759195147246	0.0004158398477957894	0.003176825752256841	0.022536238175747174	0.012663063993363413	-0.00012780874828814229
Xe	-0.00017916084430354698	-2.878897218483463e-05	0.002799188096043328	-0.0013777723640328128	0.009560950723226767	2.4780754445447315e-05
2
44800
Ar	1.1668178380614615e-05	0.0004768305165801376	0.0031753887537527637	0.02591892172106321	-0.0007459180036620583	-0.00013775527756693118
Xe	-0.00016696764349097658	6.659633790175245e-05	0.002799393035324689	0.0037678524960450418	0.009023852342513267	3.590479339925548e-05
2
45000
Ar	0.0002566501477763012	0.0004017705927327673	0.003174067979422951	0.021872725252524896	-0.013910220884901332	-8.354129728182393e-05
Xe	-0.0001073957941401976	0.00014306636698713978	0.0027996461925209877	0.007834213240274085	0.00588957632031608	2.570150035970668e-05
2
45200
Ar	0.0004285909785371252	0.00021211983445860124	0.003173797645600077	0.011671523785587192	-0.023100210008142975	2.010090586676593e-05
Xe	-1.7718718149798278e-05	0.00017856350987881082	0.0028000335283673997	0.009662356312191766	0.0010405214519989424	4.0548707778936214e-05
2
45400
Ar	0.00047847190741722416	-3.783345274534501e-05	0.00317456755631065	-0.001935210913573328	-0.025668014449685552	0.00012557169357287258
Xe	7.675802295358303e-05	0.0001630317182575058	0.0028008226928008043	0.008747878911470686	-0.004074600724100336	0.00011675987296913338
2
45600
Ar	0.0003916259885741791	-0.00027704800598117726	0.003175591694111531	-0.015017451086606648	-0.020993994544597983	9.023765838898237e-05
Xe	0.00014924994425821888	0.00010100382498701458	0.002801821943213994	0.005391265158464052	-0.00801283429433009	6.385792755744277e-05
2
45800
Ar	0.0001927137812318309	-0.0004373938714843573	0.0031762521332985008	-0.02380298472431199	-0.010272976969618049	2.4013694032255835e-05
Xe	0.00017912632682788742	1.0539097372939635e-05	0.0028021385724452228	0.00045149732223642285	-0.009637052120384728	-1.5646795824063335e-05
2
46000
Ar	-6.119707318999324e-05	-0.00047270895989117936	0.003176343780534723	-0.02574606572361222	0.0033765458510014177	-5.791663646461798e-06
Xe	0.00015816543617189376	-8.24920790309591e-05	0.0028012756851360475	-0.004569985767412287	-0.008520004130030435	-0.00012001160584632149
2
46200
Ar	-0.0002974133882687552	-0.00037309586814104824	0.0031759698646000333	-0.020356463239430023	0.016069028968799786	-6.247423592994215e-05
Xe	9.218858485500437e-05	-0.00015182174230444744	0.0027999832063728266	-0.008310994465938559	-0.005004544451996778	-0.00013099621193773576
2
46400
Ar	-0.0004484271961277768	-0.0001668584279813705	0.0031752741532543273	-0.009126595188764311	0.02414510152145742	-7.874211962173346e-05
Xe	-1.607296731174758e-07	-0.00017791959503211057	0.002798712732249615	-0.009696295391862512	-7.573622172479173e-05	-0.00010251175206132131
2
46600
Ar	-0.0004710517280207472	8.687775643490849e-05	0.0031743832705574855	0.004704035718765797	0.025361015636932407	-8.16498494229814e-05
Xe	-9.246154795124485e-05	-0.0001534580020495731	0.0027983189706243987	-0.008291410270351936	0.0048596805151362625	3.61927718016258e-05
2
46800
Ar	-0.00035894622043442464	0.0003159167589029724	0.00317410193992376	0.017171456392040957	0.019313096312053843	2.165399645219433e-05
Xe	-0.00015817918933066602	-8.538534002410162e-05	0.0027991811623489463	-0.004528949158845509	0.008423559162476573	0.00011118441295372125
2
47000
Ar	-0.00014412340541334695	0.0004547240057460943	0.0031748428472239986	0.024731774005031504	0.0077638519610319775	0.00010218249697841815
Xe	-0.00017895950192951517	6.896836572014394e-06	0.0028003558395297157	0.0004884996069405188	0.00958589985662384	0.00010827807536610602
2
47200
Ar	0.00011199559409167019	0.0004638614696536912	0.0031758094091624274	0.02523127199881461	-0.005997953044520704	8.747088260721063e-05
Xe	-0.00014883007226233218	9.747714528158411e-05	0.0028013214166221667	0.005398328600750009	0.008058066903717648	7.772802238814166e-05
2
47400
Ar	0.00033614040252906056	0.00034038293458688956	0.003176339897200872	0.018533432743213597	-0.018072236029804616	9.444522961348622e-06
Xe	-7.638620163880583e-05	0.00016003594732617922	0.0028020194069436313	0.008733882045001128	0.004155590239416174	7.156169460646915e-05
2
47600
Ar	0.00046464650283819576	0.00011975069639898035	0.003175864496664156	0.006543203986700365	-0.024990819984661992	-8.953251122116316e-05
Xe	1.7472960823783022e-05	0.00017659969556509198	0.002802515615933955	0.009568167470642272	-0.0009044762233049861	1.1157890933075307e-06
2
47800
Ar	0.0004606815708897471	-0.0001350941380949584	0.0031749243554223413	-0.007319247617835187	-0.024748132306535827	-8.77764050563682e-05
Xe	0.00010592816946140019	0.0001427900093145197	0.002801901300562955	0.007689933969305474	-0.005702012624867007	-9.535445067584664e-05
2
48000
Ar	0.0003256637458305576	-0.00035130318058137485	0.0031741727236993364	-0.01904160002673426	-0.017433493740456933	-8.325906538320918e-05
Xe	0.00016398691282413992	6.831338434739391e-05	0.0028007739484407533	0.003640012323690942	-0.008840167278813621	-0.00011121423454605625
2
48200
Ar	9.784303159244629e-05	-0.00046724980879545144	0.003173689915427442	-0.025379383850211778	-0.005153517627018091	-5.129184756173164e-06
Xe	0.00017506405671898493	-2.5649358375340652e-05	0.002799680624131824	-0.0014698476528095343	-0.009495201710174744	-8.663570718370064e-05
2
48400
Ar	-0.00015735874900370185	-0.00044959084681866574	0.003174206155485393	-0.024394535664104707	0.008572899057839948	9.978874464085032e-05
Xe	0.00013607895033703265	-0.00011233978163556417	0.0027991312983548368	-0.00612163744282441	-0.007412303003518943	-4.437239057401217e-05
2
48600
Ar	-0.00036728536882440436	-0.0003038363477003769	0.003175575858016685	-0.01655989347397518	0.0198700529802784	0.00015839275992589043
Xe	5.838211596045428e-05	-0.00016675430466310648	0.0027992062153782723	-0.009047335462568334	-0.0032001551104958565	1.4872193513353493e-05
2
48800
Ar	-0.0004721518100730298	-7.145490400478078e-05	0.0031771589488294337	-0.0039052797493520585	0.025485230592678883	0.00011978560058082989
Xe	-3.6208561580254104e-05	-0.00017343801943185772	0.002799730833562817	-0.009425937489668744	0.001904425114757929	7.114251555965559e-05
2
49000
Ar	-0.00044197255706051474	0.00018136226399355937	0.003177578616381334	0.00981674009087378	0.023822541258031796	-4.5020053489502655e-05
Xe	-0.00012097499573109752	-0.00013042560304963663	0.0028004296024962756	-0.0071025268907971215	0.006501666750081016	5.7792839319216137e-05
2
49200
Ar	-0.0002854241992646164	0.00038203862474145585	0.0031765064836145342	0.02071540799661103	0.015326433050364179	-0.00013735289929412933
Xe	-0.0001714295018960138	-4.984465653555977e-05	0.002800933081499011	-0.0027526081070538256	0.009213274159098919	7.498577572613884e-06
2
49400
Ar	-4.72711738462337e-05	0.00047343231630529394	0.0031750568484292937	0.025734714835193018	0.0025151065158162816	-0.00013349299433344328
Xe	-0.00017318481663777224	4.5159149003568984e-05	0.002800795668373656	0.0024366745971991567	0.00931289887248237	-2.522386072605547e-05
2
49600
Ar	0.0002045665603204027	0.0004298569153599725	0.003174102239305842	0.023383802118601152	-0.011018006867124135	-6.327236646181718e-05
Xe	-0.00012535999458703647	0.00012735378133854578	0.002800213438978202	0.0068712463048672895	0.0067092468556450785	-6.431950729153807e-05
2
49800
Ar	0.0003979434019379483	0.0002637629838903397	0.0031738309430605987	0.014336601974760221	-0.02138237005356797	2.178608892863142e-05
Xe	-4.2010252874193217e-05	0.00017313590784390578	0.002799847399699771	0.009384536212928063	0.0021933748881874313	-2.088154875926046e-05
2
50000
Ar	0.00047767475482019103	2.2634721632703308e-05	0.00317447371030812	0.0012135562469179325	-0.025666082368934535	0.00012077254452067234
Xe	5.333191385688878e-05	0.0001693579645589534	0.002799758868254143	0.009212598933696732	-0.002931954025936169	-2.836043370199374e-06
2
50200
Ar	0.00042091378048535785	-0.00022483260594601199	0.0031756577134982988	-0.012269926175833473	-0.022611042383981837	0.00011548951231989582
Xe	0.00013338802785099518	0.00011724770786858086	0.0027999921986172974	0.006412433822524637	-0.007251153767918818	5.298939539631867e-05
2
50400
Ar	0.0002441814620435086	-0.0004082163406988656	0.0031766203968939485	-0.022201835451903393	-0.013165204278046815	7.859768270824578e-05
Xe	0.00017506348672616945	3.171266986435634e-05	0.002800499355274238	0.0017142409640761927	-0.009429461692215473	1.9147218140526294e-05
2
50600
Ar	-2.14099246936415e-06	-0.0004753783994344293	0.0031770145955282284	-0.02584950159663461	6.320936824075408e-05	-2.5487653522375557e-05
Xe	0.0001665444756791583	-6.239752592288675e-05	0.0028008092270246665	-0.003394847285707232	-0.008942411837428563	2.1375853672078378e-05
2
50800
Ar	-0.0002479706162551749	-0.00040711050050948756	0.0031763307303509687	-0.02208249805009968	0.013255997099916995	-0.00010101017971089755
Xe	0.00011039727950566347	-0.000138856678808238	0.0028008065365406083	-0.007538736756990662	-0.005949389584863184	-2.424996766893112e-06
2
51000
Ar	-0.0004226520889430407	-0.000222994446902438	0.0031750166014808583	-0.012005488598458118	0.02267425154469025	-0.00013882090534545616
Xe	2.269737765195086e-05	-0.0001756984358445736	0.00280093703421686	-0.009564312943900933	-0.0012198524373606924	1.654732234892588e-05
2
51200
Ar	-0.000476633791318134	2.4749599166079026e-05	0.003173963983547755	0.0014505916945194933	0.025648188523010155	-4.1265382863261276e-05
Xe	-7.163782291459158e-05	-0.00016238047138088054	0.0028006517148303446	-0.008832394755017672	0.003828695644213258	-5.736107515061084e-05
2
51400
Ar	-0.00039492158331628276	0.00026556807247267135	0.0031741962792544956	0.014503461134407501	0.02133317424976383	7.055570134975921e-05
Xe	-0.00014554678901702178	-0.0001028381304151369	0.0027997807797401917	-0.005585095731823573	0.00778998307754216	-0.0001031279445841938
2
51600
Ar	-0.00020048774056220854	0.0004310468592898885	0.0031753117041388936	0.02343103544247891	0.010929183606672305	0.0001273454674151597
Xe	-0.00017817893696563006	-1.3906764372978433e-05	0.0027990037819203345	-0.0007683743403803272	0.009560207014223162	-5.788877623926082e-05
2
51800
Ar	5.1244184541377025e-05	0.00047347555215470775	0.0031766660899198093	0.02566576625954289	-0.0026529791147935104	0.00012100576776279148
Xe	-0.00016006103308615626	7.913112106819861e-05	0.0027984760916667595	0.0043018113509204784	0.008593515776479476	-3.4647694434555035e-05
2
52000
Ar	0.0002881111135211157	0.0003803865775232944	0.003177110986576176	0.02052847683936079	-0.01549757259640878	-1.5947687794732245e-05
Xe	-9.604316850378725e-05	0.00014960584860505133	0.002798559667029144	0.008152091543120807	0.005160967467451166	5.9514762150090475e-05
2
52200
Ar	0.0004419279789409019	0.0001784956667056404	0.003176436165129771	0.009496220696890285	-0.023880359012761834	-0.00011423734769456892
Xe	-4.240593022425004e-06	0.00017741207300217101	0.002799436432446061	0.009735939983445885	0.0002827495107259482	0.00014091432131096236
2
52400
Ar	0.0004694724447072208	-7.420502321555896e-05	0.003175197600553924	-0.004120603233407207	-0.02545941024476093	-0.00011627628767568637
Xe	8.896810674256095e-05	0.0001546065265385504	0.0028007314450890493	0.008455716756045343	-0.004741193300645114	0.00012307113894961097
2
52600
Ar	0.00036322463925461505	-0.0003062713048700465	0.0031742627789803244	-0.01660542213189427	-0.019801083672628117	-4.070299323553224e-05
Xe	0.0001567310004923216	8.760439070056504e-05	0.002801581968468564	0.00476408089001277	-0.008318595053889462	3.319993301538046e-05
2
52800
Ar	0.0001534579657764384	-0.00045145956855075924	0.003174317119739577	-0.024330592435711076	-0.008506360346868459	6.234105174587297e-05
Xe	0.0001795712957429948	-3.894501980020851e-06	0.0028014851765380913	-0.0002941191648125492	-0.00951698632724969	-4.4236777810668386e-05
2
53000
Ar	-9.995765602148742e-05	-0.000468137930896238	0.003175221025804883	-0.025111862632155195	0.005273749304573599	9.408971074092736e-05
Xe	0.00015124250398940563	-9.375277984018041e-05	0.0028009302866186967	-0.005234370451040783	-0.008044233871259777	-6.0766415757556055e-05
2
53200
Ar	-0.00032466033135472317	-0.0003508645516991615	0.003176032129322439	-0.018732753760562812	0.017590801890206956	5.7284981340145907e-05
Xe	8.014095947992634e-05	-0.00015696130969016577	0.0028003962547190576	-0.00865219988756291	-0.004288101059848918	-2.9610576592064065e-05
2
53400
Ar	-0.00045652705505962735	-0.00013346996140850692	0.0031763088111363812	-0.007025620424959795	0.02483288590614535	1.0436545130220122e-05
Xe	-1.3547117547124165e-05	-0.000175407513843161	0.0027999379491786608	-0.009634229507186945	0.0007013207858374873	-5.450657403630717e-05
2
53600
Ar	-0.0004583938414319921	0.00012204953530334	0.0031760888597984448	0.006667542893759716	0.025024662813982985	-3.1847573565369145e-05
Xe	-0.00010365134878954321	-0.00014375747387140864	0.0027992670709389065	-0.007920340844957423	0.005471261619676083	-9.246958291805258e-05
2
53800
Ar	-0.00032951611299264385	0.0003429409343996982	0.003175913536689513	0.018460858929122057	0.01808558417369088	-2.962239997173476e-05
Xe	-0.0001643348109410798	-7.112189396742043e-05	0.0027987478707042724	-0.0039036613794830176	0.00872020912731133	-9.137137759123134e-06
2
54000
Ar	-0.00010663858979877237	0.0004662113833005523	0.0031754337935067482	0.025015152768285035	0.0059727005761279605	-6.267050465325146e-05
Xe	-0.00017809993033690482	2.2289159689537072e-05	0.002799145084282447	0.0012181407489241524	0.009503041479869495	8.591045279684956e-05
2
54200
Ar	0.00014679508391523632	0.0004561848172980927	0.0031746446407193286	0.024418168945987237	-0.007921344639639494	-9.588695787677028e-05
Xe	-0.0001409946475685478	0.00010956502748041868	0.0028001900776113858	0.006028722675791452	0.007530341407077897	0.0001286328148333
2
54400
Ar	0.00035824987637752924	0.0003157532963592657	0.0031740132127612178	0.0168151053656675	-0.019468712824053366	-1.2192906480946395e-05
Xe	-6.3856763988615e-05	0.00016561386663107336	0.0028013164305495074	0.00902984209010983	0.0033965503145972236	9.479940732832444e-05
2
54600
Ar	0.00046754065087134793	8.566812513413907e-05	0.0031744129544948774	0.004525810972895072	-0.025441501713053247	7.748151161594527e-05
Xe	3.125908310449317e-05	0.0001744936567106219	0.002802130202219106	0.009522435965587358	-0.0016628303067203428	3.803666968076714e-05
2
54800
Ar	0.00044409915920423583	-0.00016855546721982788	0.0031755311011594962	-0.009100246198372207	-0.024204850482997864	0.0001371704121662126
Xe	0.00011742265214810338	0.0001340810701013497	0.002801983577395825	0.007277828430105933	-0.006252358385810545	-8.619279791101043e-05
2
55000
Ar	0.00029437760791308583	-0.0003747979197644219	0.0031765029390369605	-0.02016179373681629	-0.016031591074942102	2.7506162212970606e-05
Xe	0.000169833705262771	5.566150623857875e-05	0.0028008790827549414	0.0029578021732056146	-0.009070438856662377	-0.00011991783528516064
2
55200
Ar	6.063804267958051e-05	-0.00047374935920174743	0.0031763837914826408	-0.025451333132029404	-0.0032924295662781922	-4.46316990703686e-05
Xe	0.0001739229960737277	-3.886364009709179e-05	0.0027996469425744987	-0.002182591920984816	-0.009376325205744012	-8.61948277171371e-05
2
55400
Ar	-0.00019030509855494257	-0.0004372202257313116	0.0031757365525478943	-0.02350507331125791	0.010375753635957287	-9.573413964801222e-05
Xe	0.00012851479008860753	-0.0001225964999267739	0.002799061503543569	-0.0066949048062621246	-0.006940222302490556	-5.8968587235098414e-05
2
55600
Ar	-0.00038678878727039004	-0.00027617787364629	0.003174486923988079	-0.014810064140316045	0.021041434410748416	-9.906434098123907e-05
Xe	4.641147650844139e-05	-0.00017131785440470718	0.0027988422796959055	-0.009335626928092833	-0.002541348363018477	1.1548432647424875e-05
2
55800
Ar	-0.00047295114786154884	-3.6485960386026816e-05	0.003173813717156875	-0.0019914482347123037	0.025740036466837604	1.3313759718309612e-05
Xe	-4.915036403777044e-05	-0.00017122969938807123	0.0027991325385345015	-0.009316542985378328	0.002564448761260017	3.425535649552126e-05
2
56000
Ar	-0.0004243662658786939	0.00021381467737484968	0.0031746795942528654	0.01146709634200311	0.023092800789906366	0.00016496110229090208
Xe	-0.0001305897911584652	-0.00012253994914170467	0.002799490914021178	-0.006603774445259448	0.006941149171335689	5.217480479735651e-05
2
56200
Ar	-0.0002545706425028888	0.000403373798207798	0.0031763112205450794	0.02167206794924435	0.013885472494629974	0.00013742276239469265
Xe	-0.00017485949443424637	-3.89131663675673e-05	0.0028003215201789157	-0.0020390980267787876	0.009375566175917822	0.0001029332121449364
2
56400
Ar	-1.2111443319344452e-05	0.0004777674293993497	0.003176961928391829	0.025650006351658334	0.0006443459863609734	-2.173993859725383e-05
Xe	-0.00016937183022902323	5.610346601565741e-05	0.002801260226906863	0.0031128111429303967	0.009162286265707366	8.161771567997343e-05
2
56600
Ar	0.00023388097033457458	0.0004158509703164322	0.0031762238958736567	0.02233798775422486	-0.012744620428221633	-0.00012709698192676962
Xe	-0.0001154033385411414	0.00013522371541110055	0.002801848000656324	0.007412827574843616	0.006296487318534574	2.454815764232144e-05
2
56800
Ar	0.0004132744021544946	0.0002354305372248106	0.003174977384472248	0.012647172701926083	-0.022435335791566466	-0.00010360601489000512
Xe	-2.8529925893988288e-05	0.00017571774219885162	0.002801521783365674	0.009537565144603483	0.001644089033910589	-0.00010148326579176963
2
57000
Ar	0.00047456663098763264	-1.1839072541024995e-05	0.003174233459132209	-0.0006833653303477555	-0.02580420644084314	-3.56179015714213e-05
Xe	6.616598574087268e-05	0.00016638509997018953	0.00280001813540431	0.00892603343340798	-0.003472837568177333	-0.00018712493010042348
2
57200
Ar	0.0004002269272158793	-0.0002557337782033767	0.003174303665648071	-0.013829132290990566	-0.021782660786570738	5.1668960418437454e-05
Xe	0.00014184270860543983	0.00010961262488264296	0.0027984746195616633	0.005830547683384403	-0.007616930209634791	-0.00011780624835301799
2
57400
Ar	0.00021158862776440098	-0.00042670119214318475	0.0031750756301237057	-0.02299529721275003	-0.011570148489996827	7.743781091823572e-05
Xe	0.00017718846631605052	2.1150807992638843e-05	0.002797698226894788	0.0010706665602536716	-0.009634137515505502	-8.493217761886568e-06
2
57600
Ar	-3.740184436319335e-05	-0.0004757279679551363	0.0031758520345732525	-0.025571867873982922	0.0020330874310839145	4.694717791214073e-05
Xe	0.000162147026663789	-7.35688201025204e-05	0.00279835023612806	-0.004019870848761404	-0.008833290947277013	0.0001392284097537063
2
57800
Ar	-0.00027549175799586	-0.00038834956957651764	0.0031759332268273214	-0.02087080907421995	0.01501524510921291	-4.905332997262967e-05
Xe	0.0001009040317568766	-0.00014724390865342705	0.0028000860306739463	-0.007932324985433808	-0.00555280914548392	0.00017893413274385446
2
58000
Ar	-0.00043510580171593954	-0.000189770150543856	0.003175351502753448	-0.010277834201004803	0.023717522266606565	-4.90507119200801e-05
Xe	1.1151390298255377e-05	-0.00017902925674917762	0.002801754085568759	-0.009566951680074261	-0.0006767876436646988	0.0001465815020001134
2
58200
Ar	-0.00047099090604567524	6.328376425343712e-05	0.0031749533487879047	0.003277654332890201	0.025625322596755457	-3.268115585316892e-05
Xe	-8.1262763698154e-05	-0.0001601006101482375	0.0028028014156028275	-0.008453257599802554	0.004390333765737501	7.088295145222689e-05
2
58400
Ar	-0.00037263405009644755	0.00029842482207409693	0.0031749183925714004	0.015904466577092633	0.02023472897176414	7.050678706870939e-06
Xe	-0.00015009608375933127	-9.543734340713465e-05	0.002802822863085306	-0.004964777771133437	0.008210065950758872	-8.31612178060027e-05
2
58600
Ar	-0.00016810485557638773	0.00044830725396898804	0.003174833663832432	0.024005171108085938	0.009019539055488232	-1.4951316047396144e-05
Xe	-0.0001759281198341528	-3.590068599641751e-06	0.002801574767974585	-0.00010720987793733527	0.00971818904534149	-0.00015317397279614517
2
58800
Ar	8.443381905594543e-05	0.00047020577028142015	0.003174765122131082	0.025251491170025175	-0.0047276988441828085	1.8592488778142025e-06
Xe	-0.00015194900432173765	8.954324468312785e-05	0.0028000641475360126	0.004802636429391646	0.008434173951408263	-0.00015946732471340533
2
59000
Ar	0.0003126937386601155	0.0003583103044277493	0.0031748538017743197	0.019282580357116365	-0.01710485841349685	4.81790572886745e-05
Xe	-8.465416843424762e-05	0.00015720786559847238	0.0027986343839620097	0.00833484373890496	0.004758454214771201	-0.0001064193973142499
2
59200
Ar	0.00045169944378839515	0.00014450697336037567	0.0031755491875462643	0.007835817780019287	-0.024610713176835497	7.580806359676948e-05
Xe	7.0183816157910436e-06	0.00018006444862790023	0.0027980314391355485	0.009544832747230645	-0.0003211923822507223	-2.7322270678798054e-06
2
59400
Ar	0.00046161292479112966	-0.00011043051886396705	0.0031761803950392732	-0.005859743186358694	-0.025111314908304122	4.554792968035574e-05
Xe	9.69154967257244e-05	0.00015148581318222311	0.0027985637164123518	0.007990992937840204	-0.005269565209471106	9.251565694257798e-05
2
59600
Ar	0.00033967894414529905	-0.0003335481375002472	0.0031764085150595175	-0.017908998319091072	-0.01843068569313892	-1.0503281000208974e-06
Xe	0.00015947039125287536	7.981346311268079e-05	0.002799984592745318	0.004214069899318715	-0.00873541596801916	0.00019585399455348352
2
59800
Ar	0.00012080918407919595	-0.00046129762284201597	0.003176063955299011	-0.024821405627447352	-0.006497460137141503	-7.474227077800229e-05
Xe	0.00017718857806099545	-1.4659526121932736e-05	0.002801845357408663	-0.0007858339906295527	-0.009686459286818506	0.00015948581304488484
2
60000
Ar	-0.00013276153280691213	-0.0004575658109606075	0.003174950280811262	-0.02467743055348546	0.007224173707661853	-0.00011075049888087118
Xe	0.00014422182512451848	-0.00010466974552672454	0.00280307420092135	-0.005640850730439915	-0.007862092957345844	6.828712009906996e-05
2
60200
Ar	-0.00034874387880714716	-0.00032367969943032816	0.003174078087500693	-0.017457821180368552	0.01889323706538076	-4.298016927211982e-05
Xe	7.0252679918628e-05	-0.00016420838872233646	0.0028032372016904643	-0.008781358536728822	-0.0037695617550179594	-4.3662034790782515e-05
2
60400
Ar	-0.00046530221618619656	-9.772637405255708e-05	0.0031739679085072132	-0.005311484562999514	0.025185577817136737	2.645440944850142e-06
Xe	-2.34576323719491e-05	-0.00017645878359755866	0.002802219081081558	-0.009493125842929124	0.0013785577999574402	-0.00016686062262828653
2
60600
Ar	-0.000449441796808388	0.0001560841523628943	0.0031743854450122125	0.008384683042165256	0.024358116959019908	7.338539426879192e-05
Xe	-0.00011015250678077073	-0.0001380395535995572	0.002800253199099517	-0.007445177063099582	0.006122476821860469	-0.00019726791658777575
2
60800
Ar	-0.0003057248237164284	0.00036559635205883926	0.003175202318367042	0.01968654814276069	0.016506939071266883	9.1919055298667e-05
Xe	-0.00016527861612928066	-5.98910770906058e-05	0.002798421928268908	-0.0032990162085810536	0.009127943702473308	-0.00011846766948624912
2
61000
Ar	-7.452375942031485e-05	0.00047044613153224523	0.003176126552426154	0.025406169939694412	0.003980073184718842	9.628302873269133e-05
Xe	-0.00017287521566098371	3.5513372617729915e-05	0.002797909822272864	0.0018078008904317325	0.009508597722191502	1.8357786611561038e-05
2
61200
Ar	0.00017788247588630712	0.00044106639291123734	0.0031768270864388974	0.023852993701640422	-0.009691193747245933	3.281501382308607e-05
Xe	-0.0001310750889053821	0.0001209975516893889	0.0027982507636049327	0.0063716469380715405	0.007172311584859453	4.2328898873084714e-05
2
61400
Ar	0.0003797005306248239	0.00028567716242113147	0.0031766511827315907	0.015541465075705606	-0.020607588957579897	-6.805746594971122e-05
Xe	-5.1694956189329704e-05	0.00017207231277525608	0.002798926007099577	0.00912164219214578	0.0027786557051410164	8.654884353163357e-05
2
61600
Ar	0.0004732214042815132	4.8575524410766915e-05	0.003175547447313288	0.002720297235159001	-0.02564169984512241	-0.00013330038883580274
Xe	4.2477595492560576e-05	0.0001741158970158922	0.002799808059701957	0.009275089610102401	-0.0023954296118751796	0.00011131876901532471
2
61800
Ar	0.0004313816852393567	-0.0002027061713303504	0.0031744297577114724	-0.01087143045574222	-0.023372721418965476	-7.96698957000914e-05
Xe	0.00012487360251099054	0.00012657504575159316	0.002800834771917858	0.006784856868927774	-0.006864657566446334	9.446499804582926e-05
2
62000
Ar	0.00026617867918947067	-0.00039642744669282225	0.003173722134469378	-0.0213475647725747	-0.014389493792275835	-5.0992503392716274e-05
Xe	0.0001718447127529134	4.346659494546174e-05	0.002801553238187564	0.0023746076944928932	-0.0093525438537653	2.5637798041204075e-05
2
62200
Ar	2.481725378087083e-05	-0.0004771113997186757	0.0031737532437013773	-0.025739386774490947	-0.001336304055391346	4.7621786463982836e-05
Xe	0.00016994497923396274	-5.175714191565987e-05	0.002801412156327884	-0.0027620473412701685	-0.009211280885080213	-5.184063915109849e-05
2
62400
Ar	-0.000223826910247153	-0.00042174787626794166	0.003174317579052069	-0.022760250973001543	0.012143821447049896	7.716624336525507e-05
Xe	0.00011915900236289858	-0.00013206832087030114	0.0028006873696102	-0.007120396872000349	-0.006465559555655767	-0.00010194367625000932
2
62600
Ar	-0.0004088742190487915	-0.000246029002093261	0.003175180010536539	-0.013350719304755196	0.022125981992259146	0.00011154703200388887
Xe	3.420559388766729e-05	-0.00017470343701606042	0.0027998572895734145	-0.009445822603313146	-0.0018739533826428096	-7.565477136899841e-05
2
62800
Ar	-0.0004777326763539228	-3.651171138604466e-07	0.003176309256567226	-6.382640181462909e-05	0.025824034622310605	0.00010286466305495234
Xe	-6.052101759289409e-05	-0.00016766422207349044	0.002799111878484864	-0.009049152220026266	0.003249560167034131	-4.6440926991761146e-05
2
63000
Ar	-0.00041000463271970806	0.0002453898776647518	0.0031770273089769246	0.013270941637932894	0.02212812482042953	3.818866920641436e-05
Xe	-0.00013797381059443478	-0.00011284698808729629	0.002799287538383218	-0.006091124658272261	0.007452771269997792	8.111476746818431e-05
2
63200
Ar	-0.00022498870101973537	0.0004209753159232306	0.0031767273775843968	0.022797748519927125	0.012114182546899508	-9.74621261063397e-05
Xe	-0.00017637176267580235	-2.5390726145976098e-05	0.002800391538970461	-0.001394585570155093	0.009614577952624766	0.00012074243129315769
2
63400
Ar	2.4003742955499592e-05	0.00047611566701998183	0.0031754123050505667	0.025791487334008583	-0.0013544146655449661	-0.00017754542498206254
Xe	-0.00016454998957532682	6.994754675390609e-05	0.0028014531402939732	0.003696085589717196	0.008955844026308788	9.193819907709032e-05
2
63600
Ar	0.0002661483291292793	0.00039513007514093454	0.003173998592911279	0.021458079044215202	-0.01445272900078191	-0.00010576706531476495
Xe	-0.00010591849551230972	0.00014499449518754284	0.002801829313854217	0.007758138548239972	0.005714954274784377	1.5610456243598434e-05
2
63800
Ar	0.00043272385762870805	0.0002012187364277057	0.0031735349568937786	0.011044357510685223	-0.023387149408755345	2.514797474327507e-05
Xe	-1.7020501414929342e-05	0.00017831885233355254	0.0028014052397068107	0.009574422242250276	0.0007960887077962802	-6.984443205503367e-05
2
64000
Ar	0.00047620768353469226	-5.0155571944173456e-05	0.003174323251441814	-0.002570834446166635	-0.025656609621541163	0.00010758206766329101
Xe	7.643915639118512e-05	0.00016042512816481793	0.002800710379702379	0.008664036664591705	-0.004267578535812707	-7.789176510922148e-05
2
64200
Ar	0.00038366895327232917	-0.00028711297194956116	0.003175273436323224	-0.01549172317686201	-0.020563243215189386	7.87022693487689e-05
Xe	0.00014816045921334884	9.656380355191993e-05	0.002799726033215966	0.005313965254323793	-0.008166074267945703	-0.00011125724214308623
2
64400
Ar	0.00018143965600079216	-0.0004417201923333838	0.0031759288235187486	-0.023960071821052666	-0.009618980028551759	4.763422982264981e-05
Xe	0.00017751784467730098	5.196787817827153e-06	0.002799303598538107	0.00042280967484715164	-0.009657750368370195	-1.7755436621446065e-06
2
64600
Ar	-7.233641009517129e-05	-0.0004701600693048712	0.003176105427868849	-0.025565567726771026	0.004069996001037801	-2.857184701400692e-05
Xe	0.00015631659281487356	-8.769659769308342e-05	0.002799450226612909	-0.004558815130667668	-0.008462077088727146	3.145250015391594e-05
2
64800
Ar	-0.0003052602446598496	-0.00036426809740613443	0.0031757981060986	-0.019895340593773486	0.016587910567374766	-2.7058611899546705e-05
Xe	9.081845380275772e-05	-0.00015584938980877963	0.0027997407511955023	-0.008234799079670525	-0.00480599990108358	3.347450076873294e-05
2
65000
Ar	-0.00045107576532660884	-0.00015435485379351987	0.003175543642745599	-0.008549390130479447	0.024372920215479744	-3.691037777436968e-05
Xe	-5.771189032976895e-07	-0.00017929430264834829	0.002800463415744034	-0.009575585300604369	0.00022783770226153947	0.0001040725765307947
2
65200
Ar	-0.0004681435165600071	9.971137391562612e-05	0.0031752189437666985	0.005227148350594887	0.0252078307839611	-2.11130564411299e-05
Xe	-9.160965885711577e-05	-0.00015159534031097008	0.0028013096385933415	-0.008192590363299041	0.005195814197196121	6.376572671682666e-05
2
65400
Ar	-0.00035157879776390866	0.0003251200717741598	0.003174906484379614	0.017519684321111624	0.018768486809593924	-3.88811375066131e-05
Xe	-0.00015629466990581012	-8.058715147440068e-05	0.0028016099792935317	-0.004442370899234795	0.008638609886406204	1.3497174498208112e-05
2
65600
Ar	-0.00013464480469224663	0.00045749916997804124	0.0031747153469883827	0.02478426123264908	0.007047172725231132	-2.275090363628336e-06
Xe	-0.00017613253981423486	1.3145259394905948e-05	0.0028015481423805276	0.0005878485853733366	0.00962257064876416	-5.069519919955399e-05
2
65800
Ar	0.00012047892963122802	0.00045943861934561744	0.0031748992226586724	0.02500753190183095	-0.006662535151459868	2.953331140645068e-05
Xe	-0.00014550327165402524	0.0001026591421715382	0.002800421297439811	0.005372239295673441	0.00785265241748646	-0.00012995060348849872
2
66000
Ar	0.0003415184668133269	0.0003305587734827779	0.0031753149930657883	0.018103934385707517	-0.018527682403870368	6.794774334704172e-05
Xe	-7.371687973438295e-05	0.00016278517854468732	0.0027990493563566903	0.008661160853493853	0.003904250210096335	-0.00012500872803814688
2
66200
Ar	0.0004649881594694798	0.00010716952997281373	0.003176070046270753	0.005979125012728568	-0.025069922433357407	5.1626167206568046e-05
Xe	1.9298321702675977e-05	0.00017698879335866752	0.0027983023123894133	0.009478652504311015	-0.0011591626352443346	-3.2863967458835924e-05
2
66400
Ar	0.0004554380790647438	-0.00014682277722738034	0.003176148649906374	-0.00783769461121272	-0.024446171988092052	-2.8997623411556295e-05
Xe	0.00010708337329257402	0.00014048410339975457	0.0027988468774713714	0.007654232247552332	-0.005957690953553199	0.00010987225748387676
2
66600
Ar	0.0003156951554900374	-0.0003583361604803453	0.003175665382445071	-0.019411921997385475	-0.016824290027767586	-4.589599661711274e-05
Xe	0.00016465245387939232	6.361550514347201e-05	0.002800309662077759	0.0035753986008425676	-0.009049497421687307	0.00016338005555395146
2
66800
Ar	8.596519750978924e-05	-0.0004673261870455225	0.003175312549908834	-0.02540079572641128	-0.004439179956502636	-3.85767017654278e-05
Xe	0.00017529695409867628	-3.110488069982367e-05	0.002801625593377426	-0.0015088239046964756	-0.009439285660910568	0.00010736564434074348
2
67000
Ar	-0.00016803484084927217	-0.00044287843112321857	0.0031752134162441542	-0.024164786807104197	0.009204872321343245	2.6455589775137817e-06
Xe	0.00013623533638359767	-0.00011644086860817675	0.002802199553195711	-0.006124298467735702	-0.00720733056467763	-8.514293743682253e-06
2
67200
Ar	-0.000374145734308262	-0.00029208463671975333	0.003175110322281875	-0.016052382110070106	0.020224281970364275	-6.526665927642041e-06
Xe	5.8433876553786615e-05	-0.0001684103975477289	0.0028014483848716938	-0.009042134798416774	-0.0029157569488456867	-0.0001116626915790037
2
67400
Ar	-0.0004734953782860122	-5.801963519597592e-05	0.0031751272464284976	-0.0033389123108619606	0.025454164651847543	1.2611891968655642e-05
Xe	-3.612136280651679e-05	-0.00017213083360818342	0.0028003076383804415	-0.009380092867445695	0.002190968041971699	-0.00011468225364842488
2
67600
Ar	-0.0004376305864898099	0.0001925366728511209	0.0031751746941021683	0.010338485775593476	0.02342788018568739	-8.40251052149284e-06
Xe	-0.00012016206951462423	-0.00012676354453884601	0.0027992778210476866	-0.007002336667244714	0.006653269795647772	-7.965184965136225e-05
2
67800
Ar	-0.00027676483812540055	0.0003880645534088335	0.003175101266324595	0.021031550865288337	0.01471263914477994	2.568222274615915e-06
Xe	-0.0001695990452702658	-4.56270322081896e-05	0.0027989767696952233	-0.0026412035354979606	0.009192942698319679	2.2327416902027737e-05
2
68000
Ar	-3.700673154500095e-05	0.00047249935860833246	0.003175245882398579	0.025725699487464795	0.0017901451018934127	3.7268278578534437e-05
Xe	-0.00017045250519341203	4.835990376141512e-05	0.0027993061645471247	0.0024689592397758022	0.009149522564710638	3.8894438339090805e-05
2
68200
Ar	0.00021315678978436192	0.0004221001555606932	0.0031756804705056854	0.02309419212730635	-0.011593412751575877	3.9057843342860446e-05
Xe	-0.00012241613085537992	0.0001283345163491004	0.002799889573763519	0.006914677902996722	0.006450186708486349	7.42635411993331e-05
2
68400
Ar	0.0004027675510017604	0.0002515023012039292	0.0031758358573659557	0.013885669494954726	-0.021680405492145314	-5.866992621915657e-06
Xe	-3.935156493376193e-05	0.00017165801211154139	0.0028005815380465725	0.009297676862411657	0.001985099205186576	6.819145922932938e-05
2
68600
Ar	0.0004774847924557398	9.241239474728183e-06	0.00317550087223298	0.0006872315962165393	-0.025590880301030444	-5.847013830581402e-05
Xe	5.473455213328177e-05	0.00016611337978707764	0.002801172447192065	0.009054202139743856	-0.0030613888325821403	6.545875389685711e-05
2
68800
Ar	0.00041596203645385613	-0.00023551374714446296	0.0031749291388663108	-0.012705679074181773	-0.022185240698958015	-6.807474492163136e-05
Xe	0.00013305725594780135	0.00011304433553442893	0.0028016204457417047	0.0062350562105485344	-0.007278892136804994	3.4198978633695166e-05
2
69000
Ar	0.0002357549596700037	-0.0004130598991946847	0.003174398015779269	-0.022465356994460707	-0.012447105341932932	2.709539072822848e-06
Xe	0.00017337713787676185	2.7538949293509732e-05	0.002801611854886224	0.0016366532670888843	-0.009401933577394044	-4.4826207796254664e-05
2
69200
Ar	-1.170251179550368e-05	-0.0004730306942192914	0.0031747263751515315	-0.025800543351518698	0.0007504242351399301	7.478474484154366e-05
Xe	0.00016433281023520548	-6.609007314305906e-05	0.002800919615302937	-0.003415720784298792	-0.008845868677951741	-8.76448440092293e-05
2
69400
Ar	-0.0002558742817511476	-0.00039844987972867434	0.003175722879672049	-0.021811246882769492	0.013805030270606042	0.00011349204602884795
Xe	0.00010849281177930972	-0.0001409075275027092	0.0027997852881074545	-0.007494253830638213	-0.0057454588883579915	-0.00013478405179823377
2
69600
Ar	-0.0004268504113679813	-0.00021034051638744335	0.0031765867972849806	-0.011556118144872079	0.022928934717027668	4.757842992386159e-05
Xe	2.145190369887971e-05	-0.00017549263607353013	0.00279865755860408	-0.00948732976458429	-0.0010214043573140914	-7.662466390415507e-05
2
69800
Ar	-0.0004756786493248745	3.785326177811862e-05	0.0031765939911701066	0.002028117789918557	0.025468275083368297	-2.789477357669823e-05
Xe	-7.223622872029245e-05	-0.00016006619099051282	0.0027983891792299513	-0.008787287349939709	0.004021654764488891	3.5615591188533224e-05
2
70000
Ar	-0.00038853572524177936	0.00027464818935397115	0.003176066591796277	0.014971310291920947	0.02073345476631959	-6.835594689330607e-05
Xe	-0.0001457606387962816	-9.873523515994406e-05	0.0027991313196894674	-0.005586198244618437	0.007925934420106534	8.944232368390054e-05
2
70200
Ar	-0.0001908956976378877	0.0004329627602780691	0.003175276878813581	0.023592566682541883	0.010158121199363485	-7.936087010717302e-05
Xe	-0.00017828464608833622	-9.435243373357708e-06	0.0028000049155593254	-0.0007350980807340594	0.009536384771975161	7.609333608864155e-05
2
70400
Ar	6.094818107283278e-05	0.00046783450311082983	0.0031747713650117446	0.025554586735934533	-0.0033544723104190237	-8.930461011241755e-06
Xe	-0.0001601060912672978	8.23094680393384e-05	0.002800294761180005	0.004298342839214684	0.008390856150427834	-1.4436826023062528e-05
2
70600
Ar	0.00029555305338843906	0.0003693521614707665	0.0031749400846069224	0.020210395065776637	-0.015862949956302864	8.420782431712215e-06
Xe	-9.639823465923786e-05	0.00015045284751117	0.0028001267252624074	0.008142016376315345	0.004900600446594681	5.204793620820285e-06
2
70800
Ar	0.0004457290571002418	0.0001656688298587214	0.003174946815798209	0.009078588209633996	-0.02387451215862357	-9.847678142415445e-06
Xe	-5.150901957833951e-06	0.0001759434116289617	0.0028003986676976697	0.009648601791653723	5.689470790978148e-05	5.6395071275844694e-05
2
71000
Ar	0.00046885688741640894	-8.554325516993328e-05	0.0031748548880265012	-0.004571680366601578	-0.025104428608488952	-5.611714849108819e-06
Xe	8.718844466276281e-05	0.00015110558776723116	0.0028010617209426685	0.008402586357558441	-0.004892482567225638	4.6911379950457e-05
2
71200
Ar	0.0003586506625420095	-0.0003126119665342435	0.0031747392463566185	-0.016928442478928135	-0.019195492340148664	4.062630661004067e-05
Xe	0.00015471138602649322	8.299190407869286e-05	0.0028010528334994045	0.004757163574667328	-0.00839379216631317	-3.219691552965143e-05
2
71400
Ar	0.00014637741086890292	-0.00045085295813873536	0.003175182704991687	-0.02448674732914387	-0.007775122465738856	5.7123870043368326e-05
Xe	0.00017769354054664014	-8.947818290831461e-06	0.0028003395104024905	-0.0002829027040644158	-0.009533652961312795	-0.00010768513438407025
2
71600
Ar	-0.00010761181092954766	-0.00046091587270531784	0.003175782177398717	-0.025062833709179274	0.005830717345380609	4.558515847144422e-05
Xe	0.0001494864797581514	-9.841338102675626e-05	0.0027990265261425297	-0.005222868714211426	-0.007934069898046512	-0.00014867201695680104
2
71800
Ar	-0.0003311460546190837	-0.00033946113720627623	0.0031762124770307095	-0.01853304412001144	0.01786620227926251	3.122684464924676e-05
Xe	7.815897392872908e-05	-0.00016017258056088367	0.002797819159927151	-0.008682062395261205	-0.004084128296291899	-7.18939780969899e-05
2
72000
Ar	-0.000460270365429238	-0.00012097559584199104	0.0031760457557528884	-0.0066389763640021865	0.024763792088701587	-5.069529973212372e-05
Xe	-1.5919195497470437e-05	-0.00017626969237490665	0.0027978691781529222	-0.009663404548223963	0.0009353709611846717	9.131801528384034e-05
2
72200
Ar	-0.0004576224735242089	0.00013222155115070417	0.003175347725100928	0.007164962055365521	0.02463805658807488	-6.40072189859178e-05
Xe	-0.00010589887242135792	-0.00014231188107977124	0.002799206050978933	-0.00786169992014987	0.005688823646172903	0.000176577930874587
2
72400
Ar	-0.0003241472044314463	0.0003480060771439389	0.0031747435514721703	0.018871745729525737	0.017470857059048796	-3.415078543575531e-05
Xe	-0.00016557342416538483	-6.789462167968374e-05	0.002801000158102029	-0.003796125619413298	0.008834883887330437	0.0001643519142008258
2
72600
Ar	-9.8225608631934e-05	0.0004649561048823742	0.0031746765006987207	0.025219792548995326	0.005352390291836341	2.8446050675986602e-05
Xe	-0.0001779740842278368	2.5929042450774e-05	0.0028022747340839473	0.0013843633912543017	0.00945725067241295	8.387615507497495e-05
2
72800
Ar	0.0001558909929079603	0.0004497657775496824	0.003175248337914533	0.02436464898317817	-0.008325891025591675	5.08101032865775e-05
Xe	-0.00013948340903589823	0.00011192097975609601	0.0028027186165638426	0.006093314805085145	0.007328203043471799	-1.8447445518808367e-05
2
73000
Ar	0.00036569115739536423	0.0003063280268378904	0.0031759736608780206	0.01658089721544259	-0.01966006939732893	5.951271847581363e-05
Xe	-6.173203937710464e-05	0.00016574049706742598	0.002801968849420464	0.009084421736013494	0.003152568491805534	-0.00010145426004086983
2
73200
Ar	0.0004714537600762526	7.563754545335774e-05	0.0031761744853902934	0.004053106307207633	-0.025358831872656598	-3.914962502886313e-07
Xe	3.341797803484776e-05	0.000172343104894006	0.0028005877675515516	0.009505682191163116	-0.0018644119604150104	-0.00016388311507828455
2
73400
Ar	0.0004426746318631587	-0.000176587748814485	0.0031757846658786713	-0.00966038431467158	-0.023853930296524505	-4.9142590710086394e-05
Xe	0.00011923822385122564	0.00012993155735834593	0.002799189630723317	0.007238266710812774	-0.006402376160486001	-0.00011802836269464776
2
73600
Ar	0.0002875768373661466	-0.00037869594833151365	0.003175208388812063	-0.02059292181091423	-0.015565243682150448	-6.093884892781357e-05
Xe	0.00017119325027255684	5.044653270508055e-05	0.002798307896355124	0.002890226804470837	-0.009122431856435489	-7.39692469640911e-05
2
73800
Ar	5.050076753597952e-05	-0.00047286057289293087	0.003174849880784865	-0.02566925747852652	-0.002799818681167035	-1.3066797774749724e-05
Xe	0.0001742863583260187	-4.3595539684406944e-05	0.0027980630903697012	-0.0022734911506456963	-0.009238493266334602	1.3891338002935095e-05
2
74000
Ar	-0.00020095995878966047	-0.00043196323029375303	0.0031749703924172103	-0.023390979532070658	0.010788748067146393	2.2623449674511684e-05
Xe	0.00012784770173119244	-0.00012568110011151103	0.002798774790865235	-0.006785567795952653	-0.00676164586161283	0.00011553150088275346
2
74200
Ar	-0.0003947583288632182	-0.0002675134644155439	0.003175352112379444	-0.014405331211341925	0.021279097009812564	4.938174570116772e-05
Xe	4.491596437105168e-05	-0.00017217644538618915	0.002800193728528204	-0.009409216954874318	-0.0023192583330924514	0.00014688404987897504
2
74400
Ar	-0.00047554201396044074	-2.6722497527449394e-05	0.0031757139125379	-0.0013560445255275777	0.025680850661140467	1.3298449599127033e-05
Xe	-5.089155635614754e-05	-0.0001695592709623425	0.0028015977430602638	-0.009268660955939211	0.002833652345397392	0.00010965079000943758
2
74600
Ar	-0.00042053101543229284	0.00022147945706146798	0.0031759560348144154	0.012087477222568898	0.022774289745440948	-2.645321463055089e-06
Xe	-0.00013182375736686658	-0.0001182698999841532	0.002802408098306933	-0.006513911776874307	0.00714352376070275	3.8043782995658384e-05
2
74800
Ar	-0.00024532938525629526	0.00040671794199533933	0.003175857024122938	0.022101214959041965	0.01336178801268458	-2.6589892721832156e-05
Xe	-0.00017495791914252245	-3.331653524298672e-05	0.0028019937240744922	-0.0019171844769818563	0.009406133027881495	-0.00012024779651682483
2
75000
Ar	2.8141870958633883e-07	0.0004760481946250897	0.003175532226470249	0.02579510937157543	0.00016162954702758062	-2.302855158062114e-05
Xe	-0.00016813662327750997	6.089794190292434e-05	0.0028004575805110035	0.0032410007199912597	0.008989397292456049	-0.00014896810654417748
2
75200
Ar	0.00024590590015162727	0.0004093784770003397	0.0031752064476988744	0.022095917355811283	-0.013153550859423109	-2.2744463270396662e-05
Xe	-0.00011308905314185564	0.00013796434255026116	0.002798980361665127	0.007485265510535864	0.00601673422935972	-0.00011880480858208849
2
75400
Ar	0.00042099606021566067	0.00022550455555597824	0.0031749470387549923	0.012059048608506385	-0.02270161052099815	-8.277921544326472e-06
Xe	-2.557998903865411e-05	0.0001754346473567909	0.0027980792701093136	0.009601938130195721	0.001298331811771821	-4.225669869813816e-05
2
75600
Ar	0.00047574244601299013	-2.288931662029775e-05	0.0031749686746126876	-0.001389281393970078	-0.025743922916360403	7.340007753298767e-06
Xe	6.961110084303211e-05	0.00016271740974571148	0.002798506331244886	0.008991701384936854	-0.0037901778767299612	0.00011221495779103495
2
75800
Ar	0.00039452396238593	-0.0002646089878634619	0.0031751439368637546	-0.01444060597087603	-0.021394597682602313	1.4399788803690374e-05
Xe	0.00014498973260960264	0.00010347132176815776	0.0027998121155499434	0.005753685013310622	-0.007789558319886658	0.00013566256742557673
2
76000
Ar	0.00020086617767259223	-0.00043046552719024	0.0031754589566879545	-0.02336636298738181	-0.010982946100022078	1.226797584978105e-05
Xe	0.00017887235770041066	1.452710397609554e-05	0.0028012423463314906	0.0008444272047339068	-0.00954709008316545	9.924463958253097e-05
2
76200
Ar	-5.003890214713718e-05	-0.00047360168433798687	0.003175517245101063	-0.025583186961187228	0.0025487269216828644	-1.4883462315070486e-05
Xe	0.0001613348152708695	-7.872474382180507e-05	0.002801630928917275	-0.004254248797249054	-0.008619870251110108	5.264391375206206e-06
2
76400
Ar	-0.0002867077747454616	-0.00038176226046369776	0.0031751051886942205	-0.020579579258682958	0.015377752000471596	-4.434357028353259e-05
Xe	9.800309957584382e-05	-0.00014951545501720056	0.002801389678281291	-0.00811247285164604	-0.0051816417504902635	-4.269087837585966e-05
2
76600
Ar	-0.00044177074608638405	-0.00018099630785683977	0.0031747792236262915	-0.009670949305619098	0.02378228331929109	-1.4868889110596244e-05
Xe	6.669699635430166e-06	-0.0001776209314174425	0.0028007027041023302	-0.009706588959139562	-0.00029613063619516987	-9.534155667245212e-05
2
76800
Ar	-0.0004709508597296073	7.129896905729684e-05	0.0031747517087465436	0.003960043382998066	0.02544289321809736	-6.3597987218904235e-06
Xe	-8.678379240965996e-05	-0.00015503352900809875	0.0027996960566950345	-0.008532605928638814	0.004691154017626937	-0.00010516637113306822
2
77000
Ar	-0.0003661921471891676	0.000303415327230325	0.0031753534284253114	0.01647200288155308	0.019849815039671467	9.966199645342442e-05
Xe	-0.0001553758517806027	-8.847582125581492e-05	0.002798605152792229	-0.004869648773110492	0.008285371540795191	-0.00012326624398617994
2
77200
Ar	-0.00015719197313794736	0.00044931144533585444	0.0031764512293537615	0.024293369139374278	0.00862079210371208	9.3612027743183e-05
Xe	-0.0001795998860647381	3.0542626322120955e-06	0.0027978477957537554	0.00013793279351427892	0.009580343070764703	-2.74305092502352e-05
2
77400
Ar	9.666520056443329e-05	0.0004671520678513135	0.0031769172206847305	0.025218033626083394	-0.005137366656270255	-2.8675381005213997e-05
Xe	-0.00015258693078469893	9.39687422801462e-05	0.0027984566357613597	0.005137737041471891	0.008152510603753898	0.0001241333675393566
2
77600
Ar	0.00032281218456998843	0.00035152091464367365	0.0031759334516762677	0.018903729022476536	-0.017421259887556315	-0.00013453767862874045
Xe	-8.181553759462362e-05	0.00015816857231052656	0.0028001254338352343	0.008670459409203878	0.004362603060012995	0.00018123779549285597
2
77800
Ar	0.00045649190198105837	0.00013553884431402211	0.0031745166095394316	0.007192178848059131	-0.024738866186636226	-0.00011957036326692435
Xe	1.2459479830854868e-05	0.00017715612150967703	0.002801992555592344	0.009719386634866286	-0.0006606856428716377	0.0001574101867012189
2
78000
Ar	0.00046005807999636024	-0.00011934090195526065	0.0031739742306130868	-0.006507236214270374	-0.025011412146528793	2.3804953402359852e-05
Xe	0.00010293271696969201	0.00014570332789043056	0.002803001593216999	0.007917540362558881	-0.005477578582093911	1.1216072012434533e-05
2
78200
Ar	0.0003326833555406392	-0.0003406180757779884	0.003175051651175388	-0.01836928072986155	-0.018153802378050036	0.00015091238718463115
Xe	0.00016330059890635272	7.287905415998329e-05	0.0028023216479012313	0.003855362798718428	-0.008722134649817982	-0.0001302105600302378
2
78400
Ar	0.000110293255628941	-0.00046485707650530995	0.0031766715643556024	-0.025003453661062363	-0.006078324391606495	0.00012588060868526878
Xe	0.00017674510492918228	-2.0457436236130404e-05	0.0028007100260280435	-0.0012306986340703692	-0.009485309975871825	-0.0001712765172683218
2
78600
Ar	-0.00014336359708484676	-0.00045597073431214965	0.003177120044090877	-0.024468501446600684	0.007792739368101231	-1.585573935976654e-05
Xe	0.00014003251361196787	-0.0001081490769711936	0.0027993190355741072	-0.005932090062713571	-0.007627675908831271	-9.976237620345882e-05
2
78800
Ar	-0.0003560272890946705	-0.00031680067660650835	0.0031764639632786145	-0.016981985643862548	0.019362003430020567	-8.966712800260031e-05
Xe	6.347537248440457e-05	-0.0001654163093764628	0.002798613301553795	-0.009003001756424078	-0.003541787107774692	-4.277173011454076e-05
2
79000
Ar	-0.00046683803820840906	-8.715976900519367e-05	0.0031753276708046895	-0.004632081812854827	0.025431783179627906	-0.0001426896070352141
Xe	-3.1467462567035255e-05	-0.00017566636746622847	0.0027985276157766075	-0.009513676760870967	0.001542366259447485	5.528234615863805e-06
2
79200
Ar	-0.00044427959230191325	0.0001675534067559399	0.003174268843450324	0.009028021774250132	0.024261961954478495	-5.1096685043496965e-05
Xe	-0.0001173410134683094	-0.0001361327561476141	0.002798721502605532	-0.007249212548115608	0.006179062095207754	1.4921415731143465e-05
2
79400
Ar	-0.00029474719107229643	0.0003745871967317029	0.0031743237252705543	0.020135040083218054	0.016125138577569992	3.048707266461861e-05
Xe	-0.0001696102940514954	-5.771347500409146e-05	0.0027989893268956295	-0.0029612427818255095	0.009126932856730762	4.0284018789869904e-05
2
79600
Ar	-6.103891445970725e-05	0.0004744086789178617	0.0031748805639086105	0.025451894268863226	0.003344124759822847	4.732391538368265e-05
Xe	-0.0001737199146089898	3.756020596346315e-05	0.0027996273611012768	0.0021678471275668834	0.009484860855298477	7.770497503099563e-05
2
79800
Ar	0.0001900016443608249	0.0004385174305415469	0.0031753767368436206	0.023493636472637112	-0.010355207424791051	2.967256381601083e-05
Xe	-0.00012809830950010558	0.0001225546094672531	0.0028005990764072104	0.006716473254775947	0.007102659691618152	0.00011428223411969646
2
80000
Ar	0.0003865846945135052	0.00027751956449362117	0.0031756391332086902	0.014881172278517306	-0.021075247159502795	1.705848518615041e-05
Xe	-4.596863459645123e-05	0.0001726083837405554	0.002801576418214885	0.009295703315632118	0.002670077486377331	6.3688835270212e-05
2
80200
Ar	0.00047329081931985547	3.718437790345164e-05	0.0031755709129096437	0.0020141508937941612	-0.025788676181423668	-4.078465758952487e-05
Xe	4.900390216196505e-05	0.00017343061504135755	0.0028015865226336863	0.009238734371960993	-0.002517780043611645	-6.319723287773951e-05
2
80400
Ar	0.00042502405734162795	-0.00021379877959620485	0.0031752671048813044	-0.011447254201875834	-0.023177526307206653	-2.6849978353887118e-05
Xe	0.00013002198263227787	0.00012464296486737974	0.002800692072300078	0.006566366431596459	-0.00702557607505933	-0.00011335758272950714
2
80600
Ar	0.00025526353884126543	-0.00040385172177602474	0.003174756702761648	-0.021648813729746672	-0.013909440624200303	-6.01884788875533e-05
Xe	0.0001739505271267628	4.017894476164768e-05	0.0027997206390454063	0.0019860819575475545	-0.009471621349691449	-7.342806570421688e-05
2
80800
Ar	1.2632489256576647e-05	-0.0004784230592218642	0.0031742646034747415	-0.025659176399417376	-0.0006474627689545667	-2.0712580802004365e-05
Xe	0.0001682187762610743	-5.561778751449934e-05	0.002799408206058176	-0.003098613679248019	-0.009228340349863336	1.5446772549010036e-06
2
81000
Ar	-0.00023342728447187287	-0.0004163881534476543	0.0031743316091542195	-0.02237379071870494	0.012757606603435787	4.709215222591141e-05
Xe	0.00011485769677617063	-0.00013571003877376587	0.0027996158860906536	-0.007308197903984286	-0.006366277650538518	3.180991494309258e-05
2
81200
Ar	-0.000413503075332483	-0.00023556450079664315	0.0031752431078287597	-0.012744504574818261	0.022491175235614017	0.00010532170693145632
Xe	2.883575671543308e-05	-0.00017707233020057485	0.0027998980362047006	-0.00948878181388712	-0.001702913885506386	1.464953729723291e-05
2
81400
Ar	-0.00047582245634931244	1.231512455860359e-05	0.0031762447587139505	0.0005934029472352065	0.025864163122270894	6.216982999957868e-05
Xe	-6.555148037241449e-05	-0.00016790120184197123	0.0028000854809434685	-0.008933984242460325	0.003502265843059897	1.9415487085587396e-05
2
81600
Ar	-0.00040210214751778406	0.00025680790741919746	0.0031765107472199777	0.013773211297905532	0.02182400211007912	-2.934018136696353e-05
Xe	-0.00014114954959853424	-0.00011071134533063455	0.002800127766045361	-0.005818937182664555	0.007652012859958244	1.477206886658522e-05
2
81800
Ar	-0.00021356533528313	0.00042747555486416527	0.0031755536849079995	0.0229977780874501	0.011477134951920636	-0.00013804605899587233
Xe	-0.00017670815554487687	-2.1950271266740165e-05	0.0028002040499495178	-0.0011253540193195428	0.009639872191408085	3.010750618484429e-05
2
82000
Ar	3.5812222967047754e-05	0.00047574958391894556	0.0031743954878925285	0.02566400561658057	-0.0020593385180717946	-9.08914891316662e-05
Xe	-0.00016211556763973397	7.264204019471096e-05	0.0028003567398299273	0.003974882801738984	0.008837066795725025	2.498379534315313e-05
2
82200
Ar	0.00027494212470087265	0.00038833701108865586	0.0031740176318156153	0.021012715550225488	-0.015001755577836074	2.0201045687019955e-06
Xe	-0.00010110107198988245	0.00014632572324244737	0.002800491098942693	0.007939497640417226	0.005549407489211881	-2.5927549023465844e-07
2
82400
Ar	0.00043578819474545045	0.00019026161789014806	0.0031746876260959995	0.01035489216812783	-0.023648144273403504	0.0001168357155384418
Xe	-1.1143299696605528e-05	0.00017813517670162683	0.002800342754186492	0.009628020506060616	0.0006564814797676761	-4.57958612833791e-05
2
82600
Ar	0.0004721898582736762	-6.187000391272163e-05	0.003175791187714351	-0.0032291887123602147	-0.025552987579774637	9.38197301164623e-05
Xe	8.22854776407088e-05	0.00015912141108403934	0.0027999348462250367	0.008602814925796577	-0.0043575288004557055	-5.080853077487771e-05
2
82800
Ar	0.000374082201609197	-0.0002961643125280876	0.003176392110699024	-0.015927435864226257	-0.02014928809904844	2.5583804536134906e-05
Xe	0.00015236185226704128	9.503150429632664e-05	0.0027995482605501446	0.005105375284467673	-0.008140459900253035	-8.080423440861446e-06
2
83000
Ar	0.00016907274445967472	-0.0004454040426672725	0.0031761129690096525	-0.02407290521692177	-0.008997405110552673	-8.060943389038628e-05
Xe	0.00017905125226074447	4.145904566089059e-06	0.002799824585247607	0.00011603241291523425	-0.009601316559565426	4.9746405507387334e-05
2
83200
Ar	-8.425442183916212e-05	-0.00046759821429601643	0.0031750170054987243	-0.025342261309154634	0.004677231206993936	-0.00011167070400773218
Xe	0.00015426471505204106	-8.778336778563751e-05	0.0028005020621295145	-0.00493546883330689	-0.008324737804268633	7.174270885152948e-05
2
83400
Ar	-0.00031340727855765814	-0.0003565097887700275	0.0031743111928487417	-0.019389987042736298	0.01698014755433106	-2.6750001474307055e-05
Xe	8.535611818385913e-05	-0.00015441255156196509	0.002801171356459334	-0.00851538826545337	-0.004678377152183498	4.091483599035252e-05
2
83600
Ar	-0.00045323065427946204	-0.00014407656794726052	0.0031743794223269843	-0.007899594853514208	0.02445516138197208	5.8788532750051966e-05
Xe	-7.763363206459922e-06	-0.00017707284770332584	0.0028010945898673503	-0.009653282985442189	0.0002825889827055766	-4.660037516120576e-05
2
83800
Ar	-0.00046390143937685707	0.00010921794179337283	0.0031753735969113836	0.005839329641710193	0.024988657583005978	0.00012053799839522992
Xe	-9.843700569976287e-05	-0.00014902057984447607	0.0028004897519147962	-0.008016906944041183	0.005167590627721379	-5.508848749193428e-05
2
84000
Ar	-0.0003421102547892845	0.00033179913293068705	0.003176497966319491	0.017935534478226278	0.018408573023280233	8.649579228259599e-05
Xe	-0.0001607534366580125	-7.86382064586658e-05	0.0028001181651532018	-0.0041197192321925985	0.008588743148886647	-3.315436609294336e-05
2
84200
Ar	-0.0001223652918405418	0.0004594920204335622	0.0031767648357547864	0.024908422084908805	0.006514936336126154	-2.146437253707667e-05
Xe	-0.0001772375708285175	1.4615946844863458e-05	0.0027999443606668037	0.0009208635158714984	0.009606185683715126	-2.5178224062427707e-06
2
84400
Ar	0.0001318179377669779	0.00045557668666706	0.003176224160273565	0.024692725488773243	-0.00726097729328416	-7.444234904411874e-05
Xe	-0.00014338325177437104	0.00010401056329589328	0.002799946696897091	0.005686565357082029	0.007831274880761668	2.3106736707133844e-05
2
84600
Ar	0.00034803337658749066	0.0003215679064281201	0.0031753621070818553	0.017505139714640586	-0.018891756389460838	-0.00010950013565142888
Xe	-6.874822588709462e-05	0.000163730540611329	0.0028001383916631353	0.008866777922166627	0.0038195322413106764	3.816135392847823e-06
2
84800
Ar	0.00046495653971249007	9.583856018576943e-05	0.003174562562002414	0.005299624338248663	-0.025143114544864953	-3.604533292204536e-05
Xe	2.544360120192383e-05	0.00017674292245698774	0.0028000930970038364	0.00950129604262165	-0.0012895482815997443	-2.409186210591562e-05
2
85000
Ar	0.00044918384016790717	-0.00015709350545622532	0.0031744109155252137	-0.008378286430554849	-0.024214506691336575	2.0580094112660698e-05
Xe	0.00011220355309294911	0.0001393547404515966	0.0027998896872060337	0.0074298004451092215	-0.006004001349433959	-8.33828757320782e-07
2
85200
Ar	0.00030542931361730917	-0.0003651925588095207	0.00317460930825803	-0.01967303633917446	-0.016386974737044844	2.3030873632616023e-05
Xe	0.00016671684170946972	6.2245481809004e-05	0.0028003316359626546	0.00321102637148397	-0.009051351493920504	6.754452698433927e-05
2
85400
Ar	7.464241866442916e-05	-0.0004691948807289632	0.0031751804243971534	-0.02534983296976613	-0.003923855654893163	7.915345925977777e-05
Xe	0.00017350654060502315	-3.2698146365849505e-05	0.0028008728421113935	-0.0019054975068958635	-0.00948487560658606	3.201793160036532e-05
2
85600
Ar	-0.00017709351592697607	-0.0004396684841352685	0.0031760831863458013	-0.02379343229888657	0.009685475436340706	8.086300338168109e-05
Xe	0.00013087779760397053	-0.0001183578919428869	0.0028008786111694134	-0.006431513254999028	-0.007235993249426494	-3.154319564670077e-05
2
85800
Ar	-0.00037819107361622493	-0.00028465532645036113	0.003176862162876644	-0.01546541747774009	0.02053867598307845	4.64381603791399e-05
Xe	5.0989150261320126e-05	-0.00017015739395092203	0.002800181807176942	-0.00916374794167091	-0.0028798539483512534	-9.1022095549391e-05
2
86000
Ar	-0.00047150989079007327	-4.835292112740314e-05	0.003176896972990356	-0.0027530059473463253	0.025537481754005747	-3.9223151587225134e-05
Xe	-4.367651936314212e-05	-0.00017323207147598848	0.0027992416377554167	-0.009301558956477288	0.002271543214793378	-8.79692245599189e-05
2
86200
Ar	-0.0004303318454878258	0.0002014935454843392	0.003176083834269063	0.01081122979955187	0.023198022517698477	-0.00011851531825543531
Xe	-0.00012593536328984377	-0.00012697007789303343	0.0027985953034990584	-0.006752283138498786	0.0067572031800567055	-8.0672245211089e-06
2
86400
Ar	-0.00026599668467926126	0.00039334813054103465	0.0031746590345280872	0.021253099409045434	0.014233482159380589	-0.00014457470338350638
Xe	-0.0001725030003967126	-4.430198600125515e-05	0.002799124833804231	-0.0023473859027464297	0.009372883109300532	0.00010326797782031827
2
86600
Ar	-2.5843998520665613e-05	0.00047271556661695823	0.0031737276511124377	0.025595754117723458	0.0012435080200981108	-3.731864252020482e-05
Xe	-0.00017030398576396783	5.1245310613533695e-05	0.0028004182834578885	0.002782832042874877	0.009269546817982414	0.00014979073481017014
2
86800
Ar	0.0002214950961260919	0.0004173897388206099	0.0031742551171553297	0.02266447420788634	-0.012043509190208359	0.00011248986137362197
Xe	-0.00011940302035720683	0.00013221913939671803	0.0028015861397327744	0.007120225875291594	0.006503414286692716	9.220608794877588e-05
2
87000
Ar	0.0004059918579761234	0.0002432712527676966	0.00317563818921229	0.01332293083289314	-0.021934348599947896	0.00015252152129622073
Xe	-3.469831647644466e-05	0.0001751798728846714	0.002802078691929121	0.009390943855271833	0.001885273164370191	-1.5120153828976095e-05
2
87200
Ar	0.00047510547302300474	-3.5415053675087995e-08	0.003176959985263715	0.00015187339393583224	-0.025565160862282728	0.00010713724986794934
Xe	5.964054807417258e-05	0.0001682242534182017	0.002801505109413111	0.0090219980254341	-0.003253154855439949	-8.224964290492589e-05
2
87400
Ar	0.0004086801927503108	-0.00024371917473300336	0.0031776469222909816	-0.013103132367758254	-0.021963789550048563	1.6738714959184678e-05
Xe	0.00013717469479010606	0.000113213748197111	0.0028003486366062046	0.006118130064803601	-0.007473493982942	-0.00013705836921160166
2
87600
Ar	0.00022548753691027366	-0.0004180293443666897	0.0031772876745732267	-0.022618456836865378	-0.012044195144949619	-9.85338945900153e-05
Xe	0.00017578241466708358	2.585659915194882e-05	0.0027990844413952705	0.0014107616446459531	-0.009601778002684068	-9.678737770156632e-05
2
87800
Ar	-2.2092100630551433e-05	-0.00047289149463512807	0.0031761453344172122	-0.02568708382216922	0.0013541188622421556	-0.0001357981884027255
Xe	0.0001643442764409705	-6.93181959799657e-05	0.002798333961203774	-0.003665076740140812	-0.008979256629075573	-3.067242280475875e-05
2
88000
Ar	-0.00026357781312664016	-0.0003926801609182798	0.0031749082524219507	-0.021424523277795027	0.014301864168625248	-0.00011212788419427841
Xe	0.00010593419502395702	-0.00014503985906419938	0.0027982611187397557	-0.007732436900012116	-0.005789708261621346	1.57449672483659e-05
2
88200
Ar	-0.0004300702780191016	-0.00020035563912847374	0.003174246398618482	-0.011053830317415672	0.023230830712502246	-3.906437704574396e-05
Xe	1.7269433784471224e-05	-0.00017930776171517444	0.0027989795591551038	-0.009596219314650408	-0.0008969294561685157	0.00012498446271284929
2
88400
Ar	-0.00047369951539276916	4.949575525959962e-05	0.0031743704651646457	0.0025312026846419544	0.02550862008681649	5.1394936642058316e-05
Xe	-7.649636606920753e-05	-0.00016226838690626245	0.00280031531517487	-0.008688423169523604	0.004212660027219891	0.00015762378094910686
2
88600
Ar	-0.00038208002605367693	0.00028529301462943974	0.003174924795001063	0.015325856245191777	0.020498022717031904	4.002731373672434e-05
Xe	-0.00014824010742967318	-9.922767691726655e-05	0.0028018155106755817	-0.005323944235143957	0.008118026103835135	0.00011238295871043833
2
88800
Ar	-0.0001816675388424209	0.000439936086040651	0.0031753821111473886	0.02378211437285308	0.00967523376102038	3.894372232503506e-05
Xe	-0.00017793312438114893	-7.897049812025025e-06	0.0028024686891567167	-0.00048150024351272143	0.009688133143092697	1.4540806499908039e-05
2
89000
Ar	7.082098080548773e-05	0.0004694599674943827	0.003175626841667429	0.025492081186444367	-0.003931887539195263	8.409818505898603e-06
Xe	-0.0001569800772332664	8.538332102600833e-05	0.002801946532619769	0.004560215854201046	0.008537028334800259	-9.714417389469541e-05
2
89200
Ar	0.0003033388571172464	0.00036511800187415393	0.0031755558856536937	0.01986426277848174	-0.016405046828191834	-2.028786158131148e-05
Xe	-9.128959965710923e-05	0.00015442061468344263	0.002800446805000437	0.008259842427450622	0.0049158658119578535	-0.00017488332985670445
2
89400
Ar	0.00044918408747503024	0.00015675552188522805	0.003175389228796204	0.00859921012469752	-0.024249987096043823	-9.044839129936018e-06
Xe	5.390217406919141e-07	0.00017919898993977505	0.002798703712830596	0.00965947260689637	-7.654317780453916e-05	-0.0001530045762131351
2
89600
Ar	0.0004668687124440147	-9.654520714460813e-05	0.003175019957201447	-0.005132548049491839	-0.025144219942969996	-5.35706514123929e-05
Xe	9.23659845746114e-05	0.00015276866031343648	0.0027977162472845526	0.008290413744937634	-0.005093704077221333	-1.7956361118439895e-05
2
89800
Ar	0.0003510598784125187	-0.0003221449375832907	0.003174312098241367	-0.017443798277770525	-0.018847919208611622	-4.443315317323319e-05
Xe	0.0001582216443084973	8.22776088182943e-05	0.0027982175025014697	0.00454750748112978	-0.008672470962600792	0.00013195158174470755
2
90000
Ar	0.00013481684247424006	-0.00045571336320554757	0.003174316990507346	-0.024767976512049174	-0.007219879454017144	6.999035647616963e-05
Xe	0.0001789067936950064	-1.2256508960193436e-05	0.002800016260289015	-0.0004863683003469892	-0.009751277890303634	0.00020985276470966767
2
90200
Ar	-0.00012036394673456603	-0.00045934725283602683	0.0031753550003798064	-0.02502098360773198	0.006508652100122612	0.00011465720343884055
Xe	0.0001488741263515232	-0.00010371725586422985	0.002801846943943395	-0.005362756175382537	-0.008060618611130691	0.00016229967108876027
2
90400
Ar	-0.0003414426714032793	-0.0003317966960854907	0.003176482227331725	-0.018114527137768902	0.01840353388217342	7.644550147800168e-05
Xe	7.644691033938937e-05	-0.00016583473366197683	0.0028027149900621486	-0.008752345272517325	-0.004052146921533007	1.2201949621090361e-05
2
90600
Ar	-0.0004649462763946061	-0.00010901014558725318	0.003176709291309832	-0.005979441600034452	0.025051807361138025	-5.845637029690175e-05
Xe	-1.7825928800345485e-05	-0.00018082681343953053	0.0028021764550085868	-0.009650545265271478	0.001119187711890588	-0.00010630959580807474
2
90800
Ar	-0.0004552920780600619	0.00014504637023078436	0.003175665339097914	0.007858346826804006	0.024494798399745926	-0.00015677130457350272
Xe	-0.0001072881621358861	-0.00014427768082894647	0.00280084681678124	-0.007780344034651917	0.006030118003306714	-0.00011698468864947854
2
91000
Ar	-0.0003155752899100058	0.00035736667499038246	0.0031741576777899396	0.01940474138618144	0.016955558400220467	-0.0001231496741407963
Xe	-0.00016582275560454647	-6.637460730626794e-05	0.0027997725889278165	-0.003666871715839603	0.009182254968105567	-8.688992032375378e-05
2
91200
Ar	-8.60167233724756e-05	0.0004678127313758481	0.0031734056732654723	0.025414195302497618	0.004599055106070141	8.394529808998263e-06
Xe	-0.00017670029520900648	3.0473810526402727e-05	0.0027991176943218286	0.0015383553372248454	0.009723490965428183	-6.6978547904786e-05
2
91400
Ar	0.0001682116463956399	0.0004447818395431631	0.0031740817774482994	0.02420249944536907	-0.009090266642688334	9.451118977855393e-05
Xe	-0.00013709772037962667	0.00011875442872289264	0.0027987532527797153	0.006238854404321789	0.007506616931464981	4.712915811580159e-06
2
91600
Ar	0.0003746017407330856	0.00029495053373555655	0.003175045978936127	0.016049021186974845	-0.02014930377928138	9.848724871675115e-05
Xe	-5.810740861407298e-05	0.0001731614305826645	0.0027991798724005023	0.009171288939861483	0.003108606024295742	9.583496138222234e-05
2
91800
Ar	0.0004735631614691411	6.092202918340363e-05	0.0031757300993672352	0.003275818703201518	-0.025522567139959988	1.696820827184299e-05
Xe	3.756230295207283e-05	0.00017796440219702606	0.002800448586321135	0.009467281188514559	-0.0021536628803158083	0.00013914881335447588
2
92000
Ar	0.0004369560445078469	-0.00019061025073086664	0.0031755842927404594	-0.010405315654707693	-0.023585596612925162	-3.4263383450073445e-05
Xe	0.0001221389041110477	0.0001321102190800966	0.0028017953562923838	0.007061103925254	-0.006785743161143298	9.59445488891968e-05
2
92200
Ar	0.0002756538037784518	-0.0003880527154896361	0.003175160492517446	-0.021067412412946702	-0.014921216593251185	-5.368843045456889e-05
Xe	0.0001718493286127085	4.859564717854295e-05	0.0028021360143436484	0.002653852816309976	-0.009498510668862625	-3.796403572423987e-05
2
92400
Ar	3.571682342007402e-05	-0.00047485652100160005	0.0031747454202014024	-0.02571633072231943	-0.002004557825889668	-1.9480253034541077e-05
Xe	0.000172643146000241	-4.862073068948911e-05	0.0028015158976929175	-0.0025035346084400856	-0.009460308339360738	-9.080490608727434e-05
2
92600
Ar	-0.00021419876274557156	-0.0004261212399088027	0.0031746572221474263	-0.02305303505132251	0.011497189029819329	-1.7117222088700687e-05
Xe	0.00012390776113410594	-0.0001316609507218026	0.0028004871564017274	-0.006986593718779565	-0.00674080831372102	-9.746013666296814e-05
2
92800
Ar	-0.0004033217849363654	-0.0002556961787578576	0.003174754555548113	-0.013839679999213693	0.021743881110982924	2.501173203461246e-05
Xe	3.9428351184976095e-05	-0.00017677274023370358	0.002799624250396283	-0.009480573234320533	-0.002074373631038256	-6.302899379950083e-05
2
93000
Ar	-0.0004773662126148578	-1.214963069155467e-05	0.003175122741308799	-0.0006031127917461776	0.025764770553503052	5.920868877582852e-05
Xe	-5.667451636911216e-05	-0.0001712966449391658	0.0027991480570024197	-0.0092757752745597	0.003163868706853074	-2.3236322586632502e-05
2
93200
Ar	-0.0004151005938765976	0.00023497064948645863	0.003175683804145825	0.012777344238316052	0.0224530525219164	5.969846692896267e-05
Xe	-0.0001369934175295839	-0.00011650534596442613	0.002799355880785367	-0.006403382678054578	0.007506566398742107	4.9158951844299003e-05
2
93400
Ar	-0.00023411148279256708	0.00041507218993909066	0.0031762005188732474	0.02254937356052061	0.012673122203225154	5.93370317851421e-05
Xe	-0.00017858566569285033	-2.8365792367281143e-05	0.0027998602836018585	-0.0017117330856079623	0.009703099836502931	7.359660062585689e-05
2
93600
Ar	1.3899814002193499e-05	0.0004763429854668761	0.0031765060229430445	0.02584414593852567	-0.0007125705523511592	-5.309057999334218e-06
Xe	-0.000169291426341264	6.808093220802354e-05	0.0028007547573286923	0.0035058783246344877	0.009130167412468177	8.078287476274049e-05
2
93800
Ar	0.0002581727811844151	0.00040163014515725415	0.0031760795016795413	0.021815481882926317	-0.01385124365883225	-7.492988566264633e-05
Xe	-0.00011139038625861875	0.00014518391020964237	0.0028014171686167686	0.007791201827840054	0.005920468573641635	4.237442087564516e-05
2
94000
Ar	0.00042888043448001964	0.00021222688838048293	0.0031752049676221504	0.011486538505884636	-0.023111064001970664	-0.0001004128856632704
Xe	-2.1388790396407825e-05	0.00018062921010342974	0.00280139040469949	0.009781445824489554	0.0009906121633730936	-1.8944088685054523e-05
2
94200
Ar	0.000477232771281136	-3.832893410203804e-05	0.0031739320672465187	-0.0020611858137705172	-0.02576903331729153	-0.00012775020968853573
Xe	7.487103692760176e-05	0.00016437112096653617	0.0028012680203214468	0.008987814099744666	-0.004177048374686385	-1.8456851437656657e-05
2
94400
Ar	0.0003896507558365894	-0.0002783777914125305	0.003173155464416482	-0.015005695368458144	-0.021065947587623524	-1.8022443276182444e-05
Xe	0.00014949726702424853	0.00010127164100572648	0.0028008874347245083	0.005580364739730661	-0.008137470324910554	-5.934525116356366e-05
2
94600
Ar	0.0001908943247602067	-0.00043959087646008985	0.003173418250234576	-0.02378111291901903	-0.010367613548428111	7.715608238576183e-05
Xe	0.0001813354201405298	9.52032649941611e-06	0.0028003395526764317	0.0006385818538362538	-0.009746996472815768	-6.0068659451198924e-05
2
94800
Ar	-6.290301111880834e-05	-0.0004753460937479357	0.0031747076421020344	-0.025743794826888797	0.0034117690756369067	0.00016912549312908838
Xe	0.00016153400344002508	-8.464584820585637e-05	0.0027998245233323642	-0.004478966431354684	-0.008640423626892553	-2.611685967396939e-05
2
95000
Ar	-0.00029893736132572736	-0.00037508391426516706	0.0031762153024289586	-0.020289307487560186	0.016175861543761588	0.00012741577972182825
Xe	9.574813336161172e-05	-0.0001547250636813453	0.0027996447584409754	-0.008364336571573074	-0.005052253538248252	8.367701358959331e-06
2
95200
Ar	-0.00044912502905513735	-0.00016753558246218107	0.0031768424412890596	-0.009034722816791184	0.02430467914972639	-4.59439810348531e-06
Xe	2.161402454592231e-06	-0.00018063979140722672	0.0028001596819697714	-0.009901737895774726	-1.5147367395010986e-05	7.906866251161326e-05
2
95400
Ar	-0.000470760497506928	8.75954812688151e-05	0.0031759731144644122	0.004784295209103245	0.025491053139273804	-0.00014742435339690777
Xe	-9.237153147608549e-05	-0.00015491137215229992	0.0028011556497089616	-0.008540571128246027	0.005058030301843587	8.968568382581214e-05
2
95600
Ar	-0.0003581095608318483	0.00031779576971847256	0.0031743587957360057	0.0172043346676865	0.01942309756576924	-0.00015568224790424951
Xe	-0.0001604612165255455	-8.491591804981394e-05	0.002801666545648946	-0.00476268603462998	0.008618198717281847	2.57861145172643e-05
2
95800
Ar	-0.00014307551731651885	0.0004577361927587693	0.0031731954576936445	0.02472982013195305	0.007881885039580261	-6.19960163237658e-05
Xe	-0.00018294892878741487	8.988788385161773e-06	0.0028016441370307303	0.00039214791767614457	0.009681167906767388	-1.5688095559423177e-05
2
96000
Ar	0.00011292668552917682	0.0004673783515931121	0.003173220033189188	0.025201760056053592	-0.006006313736518004	6.885782993927537e-05
Xe	-0.00015276305039533988	9.979555314342854e-05	0.0028013864246308868	0.005479735350596273	0.008029588012378417	-2.509975380291902e-05
2
96200
Ar	0.0003368056269614163	0.0003434042082994226	0.003174316239342458	0.01846988424894517	-0.01817303322460085	0.0001224342577431585
Xe	-7.905900746624716e-05	0.00016193097783365385	0.002801141172050228	0.00889486448298616	0.004103494394382557	-4.526673812579715e-05
2
96400
Ar	0.000464555277998429	0.00012144023985755976	0.003175449049175866	0.006442573640066045	-0.02513362906267868	0.00010462790864918737
Xe	1.6793943546145915e-05	0.000177923524606676	0.0028007965883890843	0.00980030973710052	-0.0009734719431833034	-2.3526849640111906e-05
2
96600
Ar	0.0004596649826043986	-0.00013503053727780535	0.0031763450681766424	-0.0073882775225426805	-0.024916914366659743	6.278265514863914e-05
Xe	0.00010757574748791132	0.00014329323528786085	0.0028005031916476224	0.007913132595208936	-0.005768128414902938	-4.2171755136274996e-05
2
96800
Ar	0.00032361871927132313	-0.0003528307906597249	0.0031767333920095574	-0.01912390981961588	-0.017590528327360154	9.799263747703711e-06
Xe	0.00016741740660041686	6.796267630125377e-05	0.002799986829114883	0.003783084686666849	-0.008945032260348007	-4.775890054973466e-05
2
97000
Ar	9.522915449789135e-05	-0.00046970753890976375	0.003176102967334811	-0.02545753398527277	-0.005214032470350698	-0.00011968905905833441
Xe	0.00017965401148021582	-2.698095549262931e-05	0.0027995743207108012	-0.001407982091050958	-0.009591403439391622	-2.5775042295647043e-05
2
97200
Ar	-0.00016059124426560446	-0.00045212317780746	0.00317474226537095	-0.024439532678670963	0.008650544529853732	-0.00014392380495494643
Xe	0.00014086716332541646	-0.00011446436140237564	0.002799755701027697	-0.006187630816963816	-0.007485993721636714	8.86910765320052e-05
2
97400
Ar	-0.00037024977233677354	-0.00030475944102340273	0.0031734826301502645	-0.01647402892644562	0.020056722253905857	-0.00010634662099051066
Xe	6.208286053471057e-05	-0.00016937787626732271	0.002800787273042052	-0.009199792949699982	-0.003227689405232734	0.00011808010545516445
2
97600
Ar	-0.0004742415331588943	-7.02419582405001e-05	0.0031730264939151863	-0.0038391205244193163	0.02568759106566519	7.437652753376031e-07
Xe	-3.417762754887203e-05	-0.00017556339506168971	0.002801768854296958	-0.009583752365824642	0.001986399378061185	5.734450579793577e-05
2
97800
Ar	-0.00044292624062436706	0.00018408910295971103	0.00317339509012699	0.009953626738035065	0.02394447979504013	8.50307269413808e-05
Xe	-0.0001205954252195525	-0.00013167148342669823	0.0028019738693335666	-0.0072737503323050635	0.006566202130306907	-2.200632796225889e-05
2
98000
Ar	-0.00028495148314724994	0.00038584458992872906	0.003174609700989543	0.020892789551306818	0.015427533612002884	0.00014278185973834426
Xe	-0.00017257582838572453	-5.052795710703253e-05	0.002801511057894507	-0.0028594526809613266	0.0092658132258999	-6.4874517357939e-05
2
98200
Ar	-4.56462102020746e-05	0.0004777509686671278	0.0031760232020584707	0.02582012166454346	0.0025047441704421306	0.00015162287324104628
Xe	-0.00017531947585070794	4.481749582020993e-05	0.002800663165733593	0.0023474542077954893	0.009344033124331307	-9.454918686273573e-05
2
98400
Ar	0.0002069008682274664	0.0004333011095216286	0.0031770126632638535	0.02341728274955587	-0.011168142929891435	1.8048480538745183e-05
Xe	-0.00012791702859421954	0.0001274483604432151	0.0027997915092999206	0.006894226376628542	0.006781294507943514	-6.891057054074951e-05
2
98600
Ar	0.00039986617414439836	0.00026505670077349555	0.0031765298998148546	0.014237774022902688	-0.021649717004712174	-0.00013291042820386326
Xe	-4.4026106949905944e-05	0.00017408658519389996	0.0027996911538701475	0.009501938300050925	0.0023022581497563963	3.3893604238750725e-05
2
98800
Ar	0.00047804953363471495	2.1198921819264136e-05	0.00317475484704749	0.0010202059859347155	-0.025927385113486325	-0.00018936037154601988
Xe	5.287950893778203e-05	0.00017107128862488646	0.0028000950158709693	0.009389841742227262	-0.0028922411120571364	4.607318056720006e-05
2
99000
Ar	0.00041951920749406526	-0.00022861087280316242	0.003173110581956679	-0.012435076859861068	-0.02280743975135183	-0.00013014234940564236
Xe	0.00013475435651322156	0.0001195017353602651	0.0028006227917755306	0.006583138195105815	-0.0071797885156414535	7.73913717762213e-05
2
99200
Ar	0.00024147385102123972	-0.00041324762039730086	0.003172684756425471	-0.02232341095492384	-0.013192499191124883	3.6135304160936975e-05
Xe	0.00017808746909440823	3.4118472604451384e-05	0.00280164128841934	0.0018680475861519948	-0.009457408469042713	0.00010817628675987172
2
99400
Ar	-5.391695091817589e-06	-0.0004796773926162012	0.003173621203834862	-0.025858843436731588	0.00021753457247128568	0.00011880018717141384
Xe	0.0001707592702514092	-6.064770271276984e-05	0.0028023505795540873	-0.0033271357037984173	-0.00903692248913679	4.863230294072496e-05
2
99600
Ar	-0.0002507447397865426	-0.00040914640519298896	0.0031749346526973453	-0.02201816658574352	0.013564589355704234	0.0001155390447397139
Xe	0.00011473852252094715	-0.00013817445069127165	0.002802534703540088	-0.007602785716943962	-0.006096962329771814	-2.6241611880850673e-05
2
99800
Ar	-0.0004242872448531737	-0.0002217099100060923	0.0031755824883205716	-0.011867903174292652	0.023005675892062906	3.1897003050211264e-05
Xe	2.6261704156529802e-05	-0.00017655565130115725	0.0028019083298531987	-0.00969251417814899	-0.0014042171034893795	-8.378475027790211e-05
2
100000
Ar	-0.00047646902081447615	2.8806292530569492e-05	0.0031755303265310446	0.0016679102896303218	0.025880093088545403	-2.4047398793755768e-05
Xe	-6.970810376861782e-05	-0.00016491995597136492	0.0028012128471252523	-0.009034208436391307	0.003690158478824668	-7.36647710879909e-05
2
100200
Ar	-0.0003924139649969575	0.000271099861294419	0.0031750887494879044	0.014734034616404384	0.021389701767507215	-6.941513535881713e-05
Xe	-0.00014563200748626695	-0.00010637713434185761	0.0028004341186920485	-0.00578909131326764	0.007719321147399673	-7.793389590215822e-05
2
100400
Ar	-0.00019620358026894159	0.0004358878015784128	0.0031744544543317594	0.02354154083026802	0.010759563126420837	-6.386656452257654e-05
Xe	-0.00017974404380933137	-1.7833776006010993e-05	0.002799949890830135	-0.0008785798692063277	0.009545166462103946	-8.927483977562666e-06
2
100600
Ar	5.604195145597985e-05	0.00047588964722357135	0.00317374336408547	0.025649581166535443	-0.0029768244286369288	-6.909125029773065e-05
Xe	-0.00016238511879544958	7.565698248719583e-05	0.00280030720973982	0.004251565319459033	0.008694288569862844	7.09249771278073e-05
2
100800
Ar	0.00029209502395019624	0.00037955427952330906	0.003173264976767869	0.020423383637650647	-0.01581446922149224	-2.141222537591434e-05
Xe	-9.873248093404147e-05	0.00014760440095892767	0.002801150239636033	0.008162868980000479	0.00533216550975264	8.200939331373617e-05
2
101000
Ar	0.00044460461089675845	0.00017497441768422778	0.0031735516059645595	0.009343220574689497	-0.024101535261595523	7.03774175097908e-05
Xe	-7.019789865096584e-06	0.0001771774004244893	0.002801837372979861	0.009730172585269559	0.0004394770401063368	4.843710053634535e-05
2
101200
Ar	0.00047005844143586977	-7.958092452928967e-05	0.0031746362460388718	-0.004353437670737784	-0.02556947795712977	0.00014057917353674847
Xe	8.628309796529838e-05	0.00015602395422173213	0.002801946857294131	0.008484489548818743	-0.004537073414160592	-4.322019256383056e-05
2
101400
Ar	0.0003617071544984003	-0.00031142428604577694	0.0031759067786003184	-0.016826972494834797	-0.019649822322785063	0.00010203891429723535
Xe	0.00015478465487614988	9.074075335288097e-05	0.0028012176569285775	0.004889641688640472	-0.008205051362692551	-9.116777341493274e-05
2
101600
Ar	0.0001496311333120821	-0.0004540945215497488	0.0031765714578010414	-0.02454016968844996	-0.008175159928193428	-7.721863630142352e-06
Xe	0.00017939977452413204	-5.852790110578346e-07	0.0028006579764520336	-7.682837863999401e-05	-0.009625494320634195	-3.500997378957806e-05
2
101800
Ar	-0.00010542319543753001	-0.0004670700877341174	0.0031757584324946303	-0.025204497550967438	0.005640897032425682	-0.00015942782473359014
Xe	0.00015287771311266754	-9.23423888275067e-05	0.0028001209883280233	-0.005114254482438532	-0.008258580807032375	-5.099117850452847e-05
2
102000
Ar	-0.00033009843979202953	-0.0003466803910932784	0.0031742478143206767	-0.018635829849409695	0.017835821591714738	-0.00014860798956936342
Xe	8.230015854490699e-05	-0.00015762294720950013	0.002800014471208358	-0.008663006495844276	-0.004504421224736166	1.950331658190677e-05
2
102200
Ar	-0.0004603328240208791	-0.00012764731414683966	0.003173153653653208	-0.006785698272256417	0.024895091759688126	-6.392041653979521e-05
Xe	-1.1762276760060057e-05	-0.00017804753569441976	0.0028004222932646716	-0.009657604801211677	0.0005205747830067522	8.1645050464865e-05
2
102400
Ar	-0.0004591552629617488	0.00012743191754865585	0.003173168592422145	0.007010529372297528	0.0248844355499242	5.851190625083374e-05
Xe	-0.00010207139820332109	-0.00014756761735908462	0.002801229632488613	-0.007934531829779646	0.005429593947612882	8.394991524197018e-05
2
102600
Ar	-0.00032717304900837266	0.00034614375013498807	0.0031741737228128454	0.018782538627199554	0.017799893698766167	0.00012456685630801118
Xe	-0.00016302417625094868	-7.505416701686013e-05	0.0028017533214057546	-0.003957332745666142	0.008730638285855416	3.602248375398002e-05
2
102800
Ar	-0.00010155296693084964	0.0004664838309771099	0.0031753754991000176	0.025236936116330964	0.005657417580948957	9.9034333715797e-05
Xe	-0.00017758201993103853	1.874675648359497e-05	0.0028017934700086677	0.001118544626981616	0.009554834648440824	-2.813664242451007e-05
2
103000
Ar	0.0001530166688360243	0.00045362856236904914	0.003175896078955674	0.024443769719344855	-0.00815910957006698	-1.0865628770146315e-05
Xe	-0.0001415772313105185	0.00010715025220878568	0.002801511017161518	0.0059037003959712285	0.007675995531227092	-4.147803548954375e-05
2
103200
Ar	0.0003636431263315674	0.0003109862791286318	0.003175100572289818	0.016677001622896072	-0.01965652229580853	-0.00012359884915001077
Xe	-6.507467036749756e-05	0.00016503196930898762	0.002800988782472905	0.009018698783472315	0.0036132979775147997	-5.880129779060192e-05
2
103400
Ar	0.00047044451786516057	7.93013593798546e-05	0.0031738841751172654	0.00416478320954195	-0.025529247930912147	-9.648450216071033e-05
Xe	2.9888981250904972e-05	0.0001758842550064153	0.0028003459160310675	0.00950839904884946	-0.0014960949431579056	-4.6818954682392274e-05
2
103600
Ar	0.00044306461017183186	-0.00017503338487810262	0.0031736393261722054	-0.009501219741087929	-0.024086733190328398	4.048988293131244e-05
Xe	0.00011589105295727082	0.00013661898353864647	0.002799938650258156	0.007279850363742683	-0.006200433546467666	-2.5718704473080545e-05
2
103800
Ar	0.0002892401273451434	-0.00037908820566168714	0.003174500353630012	-0.02050042513367918	-0.015715015485976206	0.00010294116780635594
Xe	0.00016852278319962974	5.821053768337044e-05	0.002799940244840126	0.003006163369978092	-0.00911427364864997	2.9528419546045375e-05
2
104000
Ar	5.275608888144084e-05	-0.0004747256521999482	0.0031755674205116704	-0.025626903273917624	-0.002920574353614528	0.00010082811667119142
Xe	0.00017318041198814384	-3.690726354278311e-05	0.0028004923808899987	-0.0021110516377492025	-0.009428841332439554	8.66911040535521e-05
2
104200
Ar	-0.00019877771365572373	-0.0004344448145682895	0.003176066561887735	-0.023438260016219774	0.010772019954117286	1.9471501506561987e-05
Xe	0.0001287940164800421	-0.00012145586120640774	0.0028014275270228273	-0.006567931781519352	-0.00705421874208866	0.0001119695844251879
2
104400
Ar	-0.0003935595997165069	-0.0002699051469672848	0.00317597814419631	-0.01454964433174579	0.0213278975446226	-4.9716403326531166e-05
Xe	4.793257910616336e-05	-0.00017137862098014084	0.0028023175509049774	-0.009209938619177835	-0.002690906975742097	6.223654240394637e-05
2
104600
Ar	-0.00047597600110009335	-2.8135917336539552e-05	0.0031751901708516567	-0.0015251852512565907	0.025840370678785526	-9.523259961097379e-05
Xe	-4.674657709057581e-05	-0.00017244956699101284	0.0028026582391931193	-0.009253480048867092	0.0024792834676446492	-3.4879411487084557e-06
2
104800
Ar	-0.00042253964238250227	0.00022200764752423665	0.003174191978634685	0.011944773371215857	0.022968351298004872	-8.297355064603638e-05
Xe	-0.00012820846466142462	-0.00012424488104666114	0.002802143672801498	-0.0066682910672976135	0.00692695098672193	-8.851909334178302e-05
2
105000
Ar	-0.00024848898288616715	0.00040898086700179493	0.0031735164894191275	0.022004225504122548	0.013503762294532165	-5.285507364419915e-05
Xe	-0.00017339613479041413	-4.0580894177474775e-05	0.0028010634327696633	-0.002140179945683216	0.009401165028404256	-0.00010138841403003739
2
105200
Ar	-3.7020910225463192e-06	0.0004791840073168131	0.0031731953552710562	0.025746619549490608	0.00019245674975408602	-1.288973939330667e-05
Xe	-0.00016898934371738984	5.483811794756446e-05	0.0028003018631815014	0.0030036766280478315	0.009184037808700939	-4.5290764347784e-05
2
105400
Ar	0.00024201827973822194	0.0004125368761104197	0.003173274505218574	0.0221898108701117	-0.013178142605229013	4.649735109947903e-05
Xe	-0.000116053810589181	0.00013447690101398127	0.002800122956008968	0.00732527535614898	0.006306530067372164	9.183849590408604e-06
2
105600
Ar	0.00041867571052569977	0.00022833499502661572	0.0031741539785268454	0.012287077864229364	-0.02274328012204408	0.000106405123798023
Xe	-2.975214806998054e-05	0.00017542572099079015	0.002800263527365743	0.009507893939813128	0.0016779320409836477	3.625960709177479e-05
2
105800
Ar	0.00047597716313066575	-2.0672811615093327e-05	0.0031752911820194045	-0.0011398078531938325	-0.025848732703052314	8.693076311734846e-05
Xe	6.517223449671438e-05	0.00016635810460835051	0.002800666522516306	0.009007574607594099	-0.003448749884268463	2.815128323167253e-05
2
106000
Ar	0.0003970349297117656	-0.0002636360186155769	0.003175871884964604	-0.014260615201888453	-0.021548509955633545	3.962648747472167e-05
Xe	0.0001417278155378947	0.00010974123959755629	0.002800791296532544	0.00590989376357924	-0.007601758001388215	-4.0346753069106e-06
2
106200
Ar	0.00020451320298174616	-0.0004308651635744673	0.00317606339734667	-0.023298502504829104	-0.01109414737527709	-2.11563107931743e-05
Xe	0.00017749348446830106	2.165136426873906e-05	0.002800918570009909	0.0011043223715920683	-0.009609505296043003	1.728539759027725e-05
2
106400
Ar	-4.6465020848357264e-05	-0.000474973331513786	0.003175330296160356	-0.025674424318487522	0.002502331188556227	-0.00012624004667548692
Xe	0.0001625440842534814	-7.305061746840044e-05	0.0028010681255785626	-0.004005599813177339	-0.008855937949149488	3.1976511625936245e-05
2
106600
Ar	-0.0002841563674338053	-0.00038332834438733056	0.0031739756980814146	-0.02069210599920131	0.015370707228577396	-0.00012077725687407648
Xe	0.00010133068732665446	-0.00014682169381877164	0.00280143464480746	-0.007933530989009438	-0.005541234802776299	3.959559283097957e-05
2
106800
Ar	-0.0004409335944973175	-0.000182201924582958	0.0031734213965658544	-0.009868158367978686	0.023844566811279656	-8.327279340906971e-06
Xe	1.135077940602464e-05	-0.00017856975701373344	0.002801842323518934	-0.009631960104721865	-0.0006728475184594828	2.2887885445057793e-05
2
107000
Ar	-0.00047191418175975306	7.066362599060368e-05	0.0031736847574857624	0.003814738290239009	0.025505527051326016	8.75055213274394e-05
Xe	-8.19698656112411e-05	-0.0001594969390968814	0.002802072383731365	-0.008569061969740496	0.004393141046967164	1.5542376033186832e-05
2
107200
Ar	-0.0003683373442015599	0.0003034057608063311	0.003174735198597347	0.016397479751229575	0.019886347526927067	0.00013896073602628287
Xe	-0.00015170943231967803	-9.495855415835292e-05	0.0028018692440102966	-0.005044859069229879	0.008202530488983117	-6.007868133948054e-05
2
107400
Ar	-0.00015943879275999825	0.00044928439270223145	0.003176028267908407	0.02433294607840887	0.008582534703366984	0.00011599076919024055
Xe	-0.00017792525568926824	-3.328273174670759e-06	0.0028013960160115357	-7.322727732541369e-05	0.00968849380496156	-5.122269515452614e-05
2
107600
Ar	9.465767809554838e-05	0.00046692022075367766	0.00317677512805721	0.025260639857626655	-0.005134379076167178	5.077925111502391e-06
Xe	-0.00015293870185251995	8.948995062583751e-05	0.0028007276413449427	0.004940262484009869	0.008437892298103817	-8.654957044619867e-05
2
107800
Ar	0.0003215580698904539	0.00035141573619845305	0.003176019291531361	0.018992229045109242	-0.017377937287383835	-0.00013314612347811814
Xe	-8.408401384849259e-05	0.00015730699494816212	0.00280009099407072	0.0085093804348578	0.004752420679382135	-4.7781625553404536e-05
2
108000
Ar	0.00045660566101079624	0.00013593286309713628	0.0031744316404291144	0.00735474880250759	-0.02466269586059893	-0.00017621202353087037
Xe	8.9405906476125e-06	0.00018009516117038367	0.002799809042407434	0.00966080909753355	-0.00032762726541319184	1.8674771355688786e-05
2
108200
Ar	0.0004613506900204605	-0.00011838642394556347	0.0031729190587858423	-0.006419977192332159	-0.024949311465755342	-8.096910393499469e-05
Xe	9.942248318522292e-05	0.0001512273390380794	0.002800246166886646	0.007996336765217011	-0.005304863484193912	5.8712085098224945e-05
2
108400
Ar	0.00033458460526939506	-0.00033881496847833594	0.0031724565330755517	-0.018311436525784836	-0.018060095593844097	-1.853944878761273e-06
Xe	0.00016127870327680354	7.927197393353897e-05	0.0028008479991258706	0.004083889979899435	-0.008741916180663471	8.687542178733136e-05
2
108600
Ar	0.00011283799367085604	-0.00046246376064705953	0.0031731795890177165	-0.024946240583626333	-0.006081372513283453	0.00016736136038210953
Xe	0.00017723357212296543	-1.507436724308619e-05	0.00280153815240383	-0.0009769217820516276	-0.009661340077577223	5.187939212778756e-05
2
108800
Ar	-0.00014060700725509914	-0.00045452015962747577	0.0031750346994171303	-0.02452888779767441	0.007643067523164156	0.00020559690352530191
Xe	0.00014264476824358893	-0.00010515075662243665	0.002801804691912954	-0.005786173043359264	-0.007894464158290131	-1.5253856329545432e-05
2
109000
Ar	-0.0003541690680196107	-0.0003168544790659353	0.003176794744466826	-0.017127334510435764	0.019219277175457523	0.00013327555065310618
Xe	6.744781795709386e-05	-0.00016516747676648146	0.002801347832854867	-0.00889093276156766	-0.0038263603932553432	-6.783138971677207e-05
2
109200
Ar	-0.0004667523133145062	-8.862517343894765e-05	0.003177738364377383	-0.004838160570279326	0.025317666901980406	4.600414676904433e-05
Xe	-2.6860600988037334e-05	-0.00017809702667800692	0.0028005037442583526	-0.00951064336554388	0.0013137250948956093	-0.00010573433224914019
2
109400
Ar	-0.00044611193383248027	0.00016523646942463182	0.00317730108952089	0.008875665939884309	0.02420301332638736	-0.00011922627135903232
Xe	-0.00011355206556608575	-0.00013993250271355143	0.0027994422639748334	-0.007417992546484159	0.006112048574923828	-9.655421606111107e-05
2
109600
Ar	-0.0002977045691669738	0.00037223618686729737	0.0031753137458876628	0.020087608286174848	0.016173158554701812	-0.00025659550378937895
Xe	-0.00016793054805952078	-6.156096671519496e-05	0.0027991309255120398	-0.0031970299860301986	0.00918046940182858	3.047680486578149e-05
2
109800
Ar	-6.367005228208406e-05	0.00047267525024242106	0.003172863553052137	0.025547179271472466	0.0034363443960698957	-0.0002109917429135582
Xe	-0.00017425908154206077	3.470282058539514e-05	0.002799846505061289	0.0019408347057758989	0.009593701287702858	0.00011549993369499675
2
110000
Ar	0.0001886624329598368	0.00043796750251930936	0.0031718427251180717	0.023673011170983124	-0.010178719026927414	-1.5654970798750175e-05
Xe	-0.00013107442831419576	0.000120831817031599	0.0028010820556315756	0.006492834384443787	0.00720002816881086	0.00011840007919012832
2
110200
Ar	0.00038749297357400665	0.00027903923068837934	0.0031729222367588446	0.015092843156373806	-0.020843988601088752	0.00021636815591735453
Xe	-5.0676022483150826e-05	0.0001719751768387462	0.002802226321785777	0.009181601916390343	0.0027951734529117972	8.869567128952342e-05
2
110400
Ar	0.000475942523229463	4.067997103690883e-05	0.0031752906832085287	0.0021736406127297655	-0.025669183460153962	0.00025466001217870523
Xe	4.3895795551091664e-05	0.00017390826097892444	0.002802408975060948	0.009255849442140435	-0.0024109195531116247	-4.763083701393375e-05
2
110600
Ar	0.00042870937432726964	-0.00020958159237474897	0.003177349578427835	-0.011399495397595993	-0.023151418356642032	0.00015124380595333176
Xe	0.00012588172807383874	0.00012596072148590747	0.002801527288536483	0.00675216492337967	-0.006954074992768596	-0.0001097929875932518
2
110800
Ar	0.00025915208176402086	-0.0003998374348367161	0.0031778165653149203	-0.021690374880074775	-0.013969917271599281	-4.941681370839902e-05
Xe	0.00017209786666885887	4.158471832877477e-05	0.002800470194593908	0.002272784018916499	-0.009509438148491057	-7.573026541199292e-05
2
111000
Ar	1.5989824489291126e-05	-0.00047578673545858386	0.0031764582799220942	-0.025745997761099895	-0.0008498112953547597	-0.00020579018171082016
Xe	0.00016906273958652366	-5.4928258565171715e-05	0.002799648431848912	-0.0028440791408918986	-0.009332321823972898	-5.630592409747045e-05
2
111200
Ar	-0.00023124863950533717	-0.0004160261894765983	0.0031744884721688475	-0.02250554513743308	0.012528769595003994	-0.0001600911746432669
Xe	0.000117743977450756	-0.00013580578825244123	0.0027993132553889724	-0.00715652544324996	-0.006456525427135044	-1.7979386073374263e-07
2
111400
Ar	-0.00041241733241976787	-0.00023733597063991486	0.0031732846379856905	-0.012849305684870006	0.022342363567075828	-0.00010278489170438123
Xe	3.276350112255179e-05	-0.00017763855486472126	0.0027997554660082447	-0.009423471749460477	-0.0017108255064569081	6.653266012900683e-05
2
111600
Ar	-0.000475997901180632	9.339055823342471e-06	0.0031728544365424794	0.00044798835304826805	0.025769666716380018	-2.4635141400052553e-06
Xe	-6.156951231349591e-05	-0.0001686194985378943	0.0028004891166149883	-0.008973447464665262	0.0034606252006274215	8.721498972264104e-05
2
111800
Ar	-0.0004039413025932541	0.00025339475706483367	0.0031732965672589012	0.013632686778540602	0.021840315212354182	7.277966069876259e-05
Xe	-0.00013818745307557254	-0.00011161851638071054	0.002801522615126774	-0.00595488361061069	0.007652461333103546	0.00010664218255569524
2
112000
Ar	-0.0002165117521592182	0.00042525490568900585	0.0031743690041768895	0.022964983262471973	0.011686786223977098	0.0001338229477522341
Xe	-0.0001751325720516403	-2.3094543937283323e-05	0.002802485768312456	-0.0012475141090721982	0.00962054611757711	8.027580664613171e-05
2
112200
Ar	3.298741920164818e-05	0.0004758765875261378	0.0031758231034589727	0.02569946193215809	-0.0018128404613985572	0.00014347916174010144
Xe	-0.00016217207067887216	7.15220487178545e-05	0.002802736796347317	0.003779533064596084	0.008874511668726532	-3.0358916561396838e-05
2
112400
Ar	0.00027297376417239277	0.0003908383460723643	0.003176802678690602	0.021129679491858462	-0.014793226946442427	2.749164872439423e-05
Xe	-0.00010302057544274787	0.00014596991956991197	0.0028019648586709205	0.0077497530288176035	0.005643085139825073	-0.00013309239524282227
2
112600
Ar	0.0004350008343378968	0.0001942931294286949	0.0031765865102767036	0.010510771771744639	-0.023537675506141477	-7.440559473890651e-05
Xe	-1.4489380424862198e-05	0.0001786449041178839	0.0028004608338173006	0.009511862337084225	0.0007564404478334685	-0.00017088541128339242
2
112800
Ar	0.00047299103980917286	-5.7579835913713186e-05	0.003175384705033447	-0.0030954866745932425	-0.025602614213684403	-0.00015330701514787
Xe	7.827884529906054e-05	0.00016010070386644507	0.0027992068790075107	0.008588969867925162	-0.004371038145610231	-9.334101000852641e-05
2
113000
Ar	0.0003758161886197003	-0.00029319499153101445	0.003173924333638664	-0.015848218063393205	-0.02034833576087693	-0.00014312609921927387
Xe	0.00014871984734344114	9.591286497514828e-05	0.00279853603584197	0.0051467182807515555	-0.008181814751375891	-2.5049927974801927e-05
2
113200
Ar	0.000171337871512419	-0.00044501065036339776	0.0031731426129859644	-0.02403591157498544	-0.009277464131676143	-1.572084097049016e-05
Xe	0.00017668441776666212	4.122956421849158e-06	0.0027987970539009124	0.00029297736928055886	-0.009713988679840581	8.688943432448816e-05
2
113400
Ar	-8.19618824195555e-05	-0.00047012178239713834	0.0031735656402489525	-0.02537443666430556	0.0044000963541359905	0.00010370089159169585
Xe	0.00015407549362112465	-8.867422422433735e-05	0.002799827404044661	-0.004689375785478686	-0.008421128087994228	0.00010726862578824662
2
113600
Ar	-0.00031197319641241585	-0.000361425578061119	0.003174865546526488	-0.019499025697674404	0.016842089580804156	0.000142430907804461
Xe	8.760252579100589e-05	-0.000156063323553778	0.002800789099874233	-0.008294002063763234	-0.004744558032001023	8.363433150639644e-05
2
113800
Ar	-0.0004529868361009349	-0.0001495609600687754	0.003175887070284633	-0.0080156189731232	0.0245117443051908	6.935771657997501e-05
Xe	-3.874318874067066e-06	-0.00017891588494775936	0.0028015360881617707	-0.009515707730722788	0.00024943322438634536	4.2148772554419915e-05
2
114000
Ar	-0.0004643924176943733	0.00010532029606268281	0.0031763470383500076	0.0057645303825205226	0.025195117048625478	-3.2498923513093295e-06
Xe	-9.393994130458999e-05	-0.00015096862878160471	0.0028017155066707273	-0.008064799345864754	0.005203045057686733	-2.193063416013535e-05
2
114200
Ar	-0.0003433143360696898	0.0003301627119805496	0.003175585326450786	0.017860031948330003	0.018689173328799984	-0.00012862344615011218
Xe	-0.00015706852738039663	-7.981900492527921e-05	0.0028009564115639854	-0.004288492098291522	0.008675825764763794	-0.00010642903224685115
2
114400
Ar	-0.0001242582160118381	0.00046091950877783893	0.0031742951540577016	0.0248627659120799	0.006821632178232139	-0.0001246650180579886
Xe	-0.00017566092899751515	1.4028801719078928e-05	0.0027996563268790657	0.00067891932852383	0.009671709278027315	-0.00013038312869052837
2
114600
Ar	0.00013013953683004307	0.0004603354341379832	0.0031733818434185757	0.024739533664399266	-0.006936285989448553	-4.8788528643916546e-05
Xe	-0.00014427000566129755	0.00010414125749645351	0.0027986811661997145	0.005434663974681569	0.00787296919587256	-4.414197521086374e-05
2
114800
Ar	0.0003470547589324269	0.0003283926162809081	0.0031732606351555282	0.01760270771171395	-0.018795363851567045	1.9093725164529247e-05
Xe	-7.180442132262796e-05	0.00016417373990785245	0.0027987640970899403	0.008706438397171066	0.003831528175820626	4.1205401159833457e-05
2
115000
Ar	0.00046516701878148613	0.00010251774818809828	0.003173810609956483	0.00542474988348462	-0.02529220185759366	8.800372520463418e-05
Xe	2.14833179545035e-05	0.00017724493223099573	0.002799534516128758	0.00948726107236846	-0.0012737754941285478	0.0001104879004063152
2
115200
Ar	0.0004503849773622957	-0.00015292126938647424	0.0031751285972452512	-0.008313947246809963	-0.024526557299021173	0.00015307362625317135
Xe	0.00010868941694215561	0.00013983371153366374	0.002800591860495954	0.007523849656976886	-0.006012268393735937	9.629721675611725e-05
2
115400
Ar	0.0003066673370643101	-0.00036469965831217264	0.003176491942639096	-0.019706490173007723	-0.016767117579009477	0.00012541139160953833
Xe	0.00016471729398283568	6.255491102095111e-05	0.0028013977888990964	0.0034110911592604184	-0.009060021201674926	5.809742023231999e-05
2
115600
Ar	7.527138922776317e-05	-0.00047200242972486595	0.0031772325584988373	-0.02544406331855754	-0.004187090769531048	1.0309731898377139e-05
Xe	0.00017352019476114436	-3.257101078078463e-05	0.002801614684384795	-0.0016618421894542437	-0.009513182060070662	3.6690063332714943e-06
2
115800
Ar	-0.00017732459211589302	-0.00044469907068030406	0.00317667191932003	-0.023842599420362758	0.009538484499059155	-0.0001421873385255912
Xe	0.00013279494930446453	-0.0001185239861458821	0.0028012731714863815	-0.006264193458468763	-0.007253818094834104	-7.176824531007768e-05
2
116000
Ar	-0.00037908326938226064	-0.00029030643049598185	0.0031748651257992554	-0.015497907482363784	0.020570021741273554	-0.00020386273856026397
Xe	5.413416739484154e-05	-0.00017076419210594013	0.0028001643243902876	-0.009087019528828266	-0.00293642319531642	-0.0001454844673812857
2
116200
Ar	-0.00047257466210584006	-5.314043020660795e-05	0.0031732456251054243	-0.0027396552448013776	0.02571007923507915	-0.0001325641659372412
Xe	-4.004633644265926e-05	-0.00017435138427062666	0.002798998012221219	-0.009291146889070252	0.0022509660114886543	-7.171274541455597e-05
2
116400
Ar	-0.0004311508154775334	0.0001992900981658108	0.0031726325635610445	0.010829638060103751	0.023527008467250428	2.5354156443712258e-05
Xe	-0.0001225123903168652	-0.00012822720536818499	0.0027984994087634366	-0.006814974190062364	0.006771134669282038	-1.811797818056402e-05
2
116600
Ar	-0.00026666784448280427	0.0003950086399395636	0.003173522594478569	0.02126867499564548	0.014639960096157173	0.00014201231954077642
Xe	-0.00016972272454038442	-4.516125921944925e-05	0.0027988297681586114	-0.002382934579132399	0.009419144964199561	7.681203743670509e-05
2
116800
Ar	-2.6184689959537842e-05	0.0004780251494710738	0.0031748560448341657	0.025663262008720267	0.001560082158908857	0.00012227993147771447
Xe	-0.0001681781519992284	5.087029242850454e-05	0.0027999343863034957	0.002682574200779896	0.00934017146004877	0.00015261869932487073
2
117000
Ar	0.00022184521532491757	0.00042481372700767586	0.0031759007331033547	0.022714044767614433	-0.011954994174593118	8.908079072995697e-05
Xe	-0.0001187476928413303	0.00013255814338885785	0.002801259096590747	0.006958093989871557	0.006576607115305748	0.00011463427396279932
2
117200
Ar	0.0004063947547777236	0.00025053068646052303	0.0031763593370517876	0.013291886355185627	-0.02206782136223612	2.568991066332582e-05
Xe	-3.551070525664891e-05	0.00017650961692385633	0.002802351876994298	0.009275618841520127	0.001990344229974061	5.795165048638352e-05
2
117400
Ar	0.0004750213935517173	4.614707967291393e-06	0.0031764494034819757	0.0001222027220758412	-0.02589983939547426	-4.6622705750253216e-05
Xe	5.791395055009792e-05	0.0001702735669692134	0.0028024967124829527	0.008961819918595949	-0.003212375440661172	-4.5622855617711235e-05
2
117600
Ar	0.0004086331857653539	-0.0002425375213602817	0.003175691879656009	-0.013083578057533728	-0.022304488507533745	-0.00011626616136107172
Xe	0.00013494865633815873	0.00011535366602451542	0.002801620571671774	0.006063729935474797	-0.0074820486995413335	-0.00015628520606907986
2
117800
Ar	0.00022586480453801433	-0.00042005520869358126	0.003174380065870764	-0.02256288289147237	-0.012335612529027038	-0.00011717698304046015
Xe	0.00017329942123441039	2.7359526756367238e-05	0.0027999560455794197	0.0014468238417132899	-0.009679450949505905	-0.0001915566454770307
2
118000
Ar	-2.0801750887059514e-05	-0.000477357902141567	0.003173613836217115	-0.025588303347650325	0.001155345884001416	-1.4240946251524848e-05
Xe	0.00016241456971384315	-6.832484544969596e-05	0.0027982719858747735	-0.003577846477458295	-0.008982427241723533	-0.00014959760903230447
2
118200
Ar	-0.0002614690610694301	-0.0003983105015064905	0.0031741275537472994	-0.02137532657242609	0.014258134600300634	0.00011012887772731914
Xe	0.00010517712509649975	-0.00014421702233699633	0.002797441874026404	-0.007598577161176819	-0.0057926594969229415	-2.7588837094481626e-05
2
118400
Ar	-0.0004276377997398687	-0.000205541815592001	0.0031753869118499468	-0.01105188925732902	0.023341588975346127	0.00013848536716869398
Xe	1.750094725915228e-05	-0.00017885195972469327	0.0027979578964956934	-0.009489032312014438	-0.0009719746896542298	0.0001138483419727414
2
118600
Ar	-0.0004718527185148005	4.5961768440840795e-05	0.003176633332834979	0.002456715406412619	0.025731816578395943	8.258191082980526e-05
Xe	-7.553566108498688e-05	-0.00016241306491634824	0.002799430858073185	-0.008663497911398968	0.004186009442464484	0.00017270758171728797
2
118800
Ar	-0.0003809285119583182	0.0002843715346429395	0.0031772563151494146	0.01527377757483249	0.020781646790553006	3.436653318637454e-05
Xe	-0.000147394877672829	-9.913715020117792e-05	0.00280102277244663	-0.005349311428271136	0.008145950781880682	0.00015499478652021212
2
119000
Ar	-0.00018118754712055773	0.00044160147035520413	0.003176909091999317	0.023688599060799106	0.009882058195487478	-0.00010532105526787309
Xe	-0.00017732685827409278	-7.555647461606659e-06	0.0028023989449756353	-0.00046919212748185407	0.009733185232471684	0.00012608991228825608
2
119200
Ar	6.998567816975729e-05	0.00047297198107488803	0.0031755047203738326	0.025340076633618164	-0.00378572736241612	-0.00017423193531803567
Xe	-0.00015652453855882222	8.594124177255854e-05	0.0028030621557021125	0.004528479548159395	0.008530986325652998	-1.0969767406881569e-05
2
119400
Ar	0.0003012459758792448	0.00036943107482945896	0.0031739226394595184	0.019772655920944467	-0.01642815688957852	-0.00011462494556422115
Xe	-9.094147863463766e-05	0.000154676073930841	0.002802406006169301	0.00825413348516252	0.004883713420202676	-0.0001473233562457323
2
119600
Ar	0.0004465963629599414	0.00016015821614480397	0.0031736097847873406	0.008580280928434719	-0.024406482276918596	5.228318598940843e-05
Xe	2.970292490669108e-07	0.00017885157530457056	0.0028004761011057927	0.009567686710145103	-0.00016365148550994243	-0.0001980648263032411
2
119800
Ar	0.00046476936311742363	-9.516220912149876e-05	0.003174663860588481	-0.005047361649759339	-0.025369838110327163	0.00015716543801023967
Xe	9.133342404106813e-05	0.00015184079481373803	0.0027987202552142865	0.008225949991407112	-0.005108695271743397	-0.00013837041684900233
2
120000
Ar	0.0003504505941156516	-0.0003228286805554222	0.0031761433933710243	-0.017266214534086895	-0.019072285112433786	0.0001327898256470212
Xe	0.0001565861579922822	8.124714949519319e-05	0.002797934227499526	0.004519392565725168	-0.008652069122731898	-9.059814534773026e-06
2
120200
Ar	0.00013632860667707342	-0.0004583014075773825	0.0031769939027281096	-0.024488070106292902	-0.007336626240231777	3.028528436093148e-05
Xe	0.0001772505015252213	-1.2693682236667752e-05	0.0027985187959314664	-0.0004925527806881712	-0.009662009411308962	8.904720762503838e-05
2
120400
Ar	-0.00011612581694776388	-0.0004626325294847227	0.0031769082521291526	-0.024771779145170886	0.006486005325098997	-5.035207280746308e-05
Xe	0.00014728580109881826	-0.00010284319366821604	0.0027995479262053	-0.00536925478692535	-0.007925764704569556	0.00011533980155270479
2
120600
Ar	-0.00033510977467771314	-0.0003348067078860518	0.0031761999236744184	-0.017990237534956488	0.018454053729579995	-8.273260999130884e-05
Xe	7.504824122204617e-05	-0.00016375907154622094	0.002800550739041404	-0.008705389145984748	-0.003969245028391865	7.587172996349523e-05
2
120800
Ar	-0.0004587503756117728	-0.00011116604542619231	0.0031754383963257453	-0.006144434003134565	0.025151618137868828	-4.235129689903848e-05
Xe	-1.8506979428095056e-05	-0.0001779736941258717	0.002801026797514312	-0.0095453373406941	0.0011968402997378476	2.6242985422830534e-05
2
121000
Ar	-0.0004522056107973362	0.0001439156179924239	0.003175128258023076	0.007441625148950461	0.024633280551680646	-2.281577038776587e-05
Xe	-0.00010652207284330782	-0.0001411591038460936	0.0028009490697701034	-0.007624571366880558	0.005992665691727475	-2.8078347262981437e-05
2
121200
Ar	-0.0003167834461420553	0.0003577658608539064	0.003174776448344994	0.018960447995327256	0.017090908209542656	-4.213799259963369e-05
Xe	-0.00016373894787753237	-6.413293983891964e-05	0.002800425080348737	-0.0035482679834540148	0.00904276354143008	-8.088323821682744e-05
2
121400
Ar	-9.126061199110192e-05	0.00046953140088786715	0.003174540159395934	0.025026212972816247	0.004724712965383401	5.976008156405696e-06
Xe	-0.0001738260193287167	3.102254664289764e-05	0.0027994683220519483	0.0015825721315272396	0.009503535486120478	-7.796768235058484e-05
2
121600
Ar	0.00016023633192170606	0.00044764095484687455	0.0031753037229311043	0.02404899848908112	-0.008987324641705777	0.0001421820051811265
Xe	-0.00013394644681123164	0.00011712513162128986	0.0027987085469439524	0.006195066134755195	0.007291841068993874	-5.938412115515078e-05
2
121800
Ar	0.00036633218025782974	0.0002983854006147316	0.0031768684811145772	0.01618608846981265	-0.020148207814044014	0.00016464860018100875
Xe	-5.586690283469415e-05	0.00016996084323413042	0.002798559912965048	0.009035726974318177	0.003016056959297685	2.096170039630258e-05
2
122000
Ar	0.0004682582475432655	6.411923804557934e-05	0.003178125367251485	0.0036858595932621635	-0.025570257744882433	9.352109143034986e-05
Xe	3.857839241960029e-05	0.00017425014754997385	0.0027990089050242235	0.009379126389951848	-0.0021742078755135354	6.201638874033052e-05
2
122200
Ar	0.0004362626004924792	-0.000188638396385917	0.0031782070368420023	-0.00990632885224064	-0.02372182137006601	-7.895604612483074e-05
Xe	0.00012263570398612296	0.00012857592569410386	0.0027999406400609985	0.007009332854624558	-0.0067149229642162085	0.00010695763415780094
2
122400
Ar	0.00027987136806791534	-0.00038743150527853075	0.003176840134977315	-0.02060469339177099	-0.015077310406879941	-0.0001839425060596267
Xe	0.0001718203160516733	4.6148518719143654e-05	0.0028008590699379245	0.0026030312280310147	-0.009360435621116015	7.63391456897285e-05
2
122600
Ar	4.3784300187835404e-05	-0.00047582526852946264	0.0031747387826294715	-0.025466266150925537	-0.0021848318326171436	-0.00020918359591108124
Xe	0.00017231436732212133	-4.951865336096576e-05	0.0028013966058161276	-0.0025099432121980176	-0.009309715464767674	3.4362724707800275e-05
2
122800
Ar	-0.00020517722198867112	-0.0004289568737432873	0.0031731950328999304	-0.023087095870940783	0.0113329825126723	-9.349500850579374e-05
Xe	0.00012413682155865645	-0.00013099844312533906	0.0028011648013503885	-0.006920316043697722	-0.006611611152215065	-9.790437824406262e-05
2
123000
Ar	-0.0003956791802304301	-0.0002597231771428773	0.003173221918990072	-0.01408494084080705	0.021683232273862835	8.452737575332163e-05
Xe	4.098246128574244e-05	-0.00017497070539643697	0.002799865302807161	-0.009321266354371685	-0.0019860883760417576	-0.0001565890848445705
2
123200
Ar	-0.00047354614202882277	-1.5992463529507646e-05	0.0031745848929858535	-0.0010810889317652264	0.02585810006746107	0.00017553067229023024
Xe	-5.361290311931007e-05	-0.00016878260608403506	0.002798328168061495	-0.009123361526930416	0.003184634142505891	-0.000122466425750391
2
123400
Ar	-0.0004160309779762836	0.0002321409995085141	0.003176432845137226	0.012305964966130185	0.022562414794502522	0.00017795604740583073
Xe	-0.000132918789529922	-0.0001143669453340685	0.0027975897395732543	-0.006378615264659711	0.00743324129737496	-2.1524957047729823e-05
2
123600
Ar	-0.00023973069828697998	0.0004140308342542458	0.003177715292417114	0.022103196314499682	0.012911056710238759	7.165699837295846e-05
Xe	-0.00017475340136478208	-2.731248035631352e-05	0.002797950437399218	-0.0017792221451583534	0.009557630240650277	8.847658995098121e-05
2
123800
Ar	4.746693295498494e-06	0.000477528447144303	0.003177799332577157	0.025583973618135088	-0.0005199696684305503	-5.681785001243469e-05
Xe	-0.00016672268721836848	6.768826471641046e-05	0.0027993340260375785	0.0033624906252324436	0.008990537798169052	0.00016054273341902043
2
124000
Ar	0.00024755007276091397	0.00040458442947058674	0.003176887559778404	0.021779889597950478	-0.01372221956960635	-0.00011188612983891621
Xe	-0.0001107270974652517	0.00014376341273423482	0.002800818275628582	0.007544560139597264	0.005845016205894491	0.00011985682588960399
2
124200
Ar	0.00041974796673977053	0.00021652448944834188	0.0031757675912746403	0.011828536071270929	-0.022994293310859986	-6.891072753510436e-05
Xe	-2.326307687113047e-05	0.00017890408917370148	0.0028014214404067485	0.009536613116809275	0.0010056314540221078	9.628766144184874e-06
2
124400
Ar	0.00047249980465618557	-3.338813646788527e-05	0.0031751399024542402	-0.0015503236641389003	-0.025768047970508006	-5.87418759852403e-05
Xe	7.093730966105894e-05	0.00016288638719629732	0.00280108587103525	0.008821771402671657	-0.004137579724312893	-9.21660953261035e-05
2
124600
Ar	0.00039007029102456785	-0.00027397372750619054	0.0031746654512209336	-0.014531749816334835	-0.02116279883623006	-4.556026034277118e-05
Xe	0.00014482863444091035	0.00010037668186366017	0.0028002873906388215	0.00558736065813789	-0.008073924368772559	-6.419059935373229e-05
2
124800
Ar	0.000196137867647582	-0.0004362539968719391	0.0031744604134299596	-0.023302363058902896	-0.010510408333952573	1.6290127521055582e-06
Xe	0.00017695070103150023	9.290984538738964e-06	0.0027996038572853403	0.0007098072802248368	-0.009713369555932742	-7.679528287475362e-05
2
125000
Ar	-5.364871083972805e-05	-0.0004739128401175567	0.0031747932890849135	-0.025434241184942887	0.0031510621744007773	8.461775510140185e-05
Xe	0.00015843134989568393	-8.441928315863825e-05	0.0027988698975913366	-0.004309773292511609	-0.008570466566404018	-7.41256923937357e-05
2
125200
Ar	-0.00028873459035779446	-0.0003764771295407412	0.0031757995778963445	-0.020429174377472915	0.015893078571753778	0.00011966192787533861
Xe	9.486883799098998e-05	-0.00015391520342494263	0.0027983362324547766	-0.008117799869394841	-0.004996074219566868	-6.154643101365408e-06
2
125400
Ar	-0.00044234991602165705	-0.00017133245334359528	0.0031770055310119715	-0.009546264278437144	0.02414616461799325	9.914437040933444e-05
Xe	4.154908235556263e-06	-0.0001794647556073618	0.0027984824744647125	-0.00958660407081193	-9.617093257188704e-06	5.7692427695570314e-05
2
125600
Ar	-0.00046999349356855174	8.28795612377417e-05	0.003177345107109293	0.004173576754391844	0.02546625080869343	-5.269176361637445e-05
Xe	-8.80494099116583e-05	-0.00015405035866620723	0.0027994443245324277	-0.008380887188172573	0.004981382799855923	0.00014173039239021783
2
125800
Ar	-0.0003629368166597438	0.00031342299715423895	0.0031762125967180165	0.01667852040979825	0.019511973072255797	-0.00015805939506968858
Xe	-0.00015545739705866398	-8.467537147352776e-05	0.002801116590139468	-0.004767107278458716	0.008552035113402462	0.00015403165245519933
2
126000
Ar	-0.00015234040629096677	0.00045419838187993344	0.0031748238941711002	0.024426763105999436	0.007987605800653826	-0.00013198870347230603
Xe	-0.00017884307052091724	9.157466818699165e-06	0.0028024834778536314	0.0002213611124017404	0.009712323012095597	9.605961404581856e-05
2
126200
Ar	0.00010192580046353737	0.00046561002328543026	0.003173707479330089	0.025173985496493852	-0.00576039126729063	-5.532042394154929e-05
Xe	-0.00015127533257107282	0.0001000230204460086	0.0028026874545755472	0.00515553445385315	0.008035647286327465	-7.150905133469569e-05
2
126400
Ar	0.00032728425524038135	0.0003443730287453696	0.0031739158216752155	0.018770520992499727	-0.01790712754617471	9.586527008552176e-05
Xe	-8.07210189544551e-05	0.00016194594766150874	0.002801300199298479	0.008611517035411166	0.0040560800631510435	-0.00018925845089514046
2
126600
Ar	0.0004595847021411538	0.00012482779912148282	0.0031752432161604597	0.007032687444046671	-0.02493371348758581	0.00014904026985180287
Xe	1.2746937166953244e-05	0.00017744884048219868	0.0027993815883791237	0.009656017784810823	-0.0010424930555362692	-0.00017256961623204396
2
126800
Ar	0.00046079337645281876	-0.00012990534382693801	0.003176314220663621	-0.006787078488512111	-0.02475771330201631	6.717076871469106e-05
Xe	0.0001027943820266086	0.00014209812691322045	0.0027981495603255544	0.007909038357139702	-0.0058508505546910885	-5.0919940644166005e-05
2
127000
Ar	0.0003304129423737354	-0.00034674144655931694	0.003176614549549544	-0.01863176421210212	-0.017534098656690648	1.2785633652706348e-06
Xe	0.00016342908721212048	6.607302483069696e-05	0.0027979899705523354	0.003912043316385023	-0.008989460364090533	2.9311832289561856e-05
2
127200
Ar	0.00010586812447273237	-0.0004641798588053129	0.0031764087436758153	-0.025198816843450836	-0.005375985530099293	-6.513780871698325e-06
Xe	0.00017773250213027654	-2.8953003917948565e-05	0.0027985955738452934	-0.0011585649449623013	-0.009547865061706124	8.696264261416353e-05
2
127400
Ar	-0.00014903549919156913	-0.0004493895034805255	0.003176372851184225	-0.024550432929282644	0.008295887801847899	2.661573347079729e-06
Xe	0.00014152086729592053	-0.00011576572381227338	0.002799469542543012	-0.005924231618741808	-0.007402330798917669	7.493910609246937e-05
2
127600
Ar	-0.0003617020354043764	-0.0003061682099727605	0.003176326548949595	-0.016942305898205848	0.01965596622231859	-1.5999357177501406e-05
Xe	6.500580512510258e-05	-0.00016965721590840477	0.002800129802909033	-0.009022930381943248	-0.0031369828627816204	4.956686341705127e-05
2
127800
Ar	-0.00047127791126337876	-7.523801635139059e-05	0.0031756923454506715	-0.004428280457259702	0.025377115834758525	-8.917011751950139e-05
Xe	-3.031548913282574e-05	-0.0001750702218212088	0.0028006335897911945	-0.009593033156050266	0.0020897699256637535	6.37651090017283e-05
2
128000
Ar	-0.0004459746889259554	0.0001770816866361697	0.003174712332457113	0.009367427419781053	0.023834321358121215	-9.292867063202843e-05
Xe	-0.00011732452234376842	-0.00013027976457363017	0.002801210796795996	-0.007383744069666764	0.006642297560716402	5.9508746187119174e-05
2
128200
Ar	-0.0002930895303295572	0.00037870473324196676	0.003174241181021704	0.020419745579318017	0.015527633947085827	-8.986958430008343e-06
Xe	-0.00017092130493141693	-4.8450323100136014e-05	0.002801703965076666	-0.0030663647035587063	0.009330106623044203	2.1453223354167548e-05
2
128400
Ar	-5.693146313778635e-05	0.000472987839600671	0.0031748347640080748	0.02567473646629091	0.002858353042794409	0.00013684443076087188
Xe	-0.0001757046294101248	4.714121234580827e-05	0.0028012894707052168	0.002142542669159378	0.009307004788812209	-9.095232070075555e-05
2
128600
Ar	0.0001960343901134849	0.00043273621307124465	0.003176341189599167	0.023672313186113965	-0.010736794562121385	0.00014317024181112906
Xe	-0.00013036900554146266	0.0001289011105925772	0.002799851339810224	0.006716349042730494	0.006641962407927957	-0.00017049303457977215
2
128800
Ar	0.0003930475281632597	0.0002686019048489437	0.003177373130692655	0.014755229778367194	-0.02128658787490627	3.363472623597221e-05
Xe	-4.735945154637428e-05	0.00017371371507450355	0.002798574105826799	0.009464977999895536	0.0021224633224264035	-5.4880645966603006e-05
2
129000
Ar	0.0004770694125886486	2.7771872990968396e-05	0.0031765225723201043	0.0016589263415271339	-0.025696993265441535	-0.00017854139210800223
Xe	4.968794686857761e-05	0.00016927356609541122	0.0027985251639870705	0.009461243769596863	-0.003000049822559455	4.564974731061315e-05
2
129200
Ar	0.0004245013267981139	-0.00022058779765744797	0.003174578318110433	-0.011900273590870473	-0.02276715463829965	-0.0001472427919567323
Xe	0.00013287587306704858	0.00011673884635763149	0.002799274457490998	0.006744636288218038	-0.00725053233888535	0.0001037875218327074
2
129400
Ar	0.00025080017356225807	-0.0004060072423353369	0.0031736543658417047	-0.021996201125452922	-0.013424271119589918	-2.99188149614064e-06
Xe	0.0001780704384219529	3.112666312518845e-05	0.002800190583982741	0.002059029665697598	-0.009435825154655865	8.104036009876177e-05
2
129600
Ar	5.463699607945249e-06	-0.0004759766630838018	0.0031741610210337385	-0.02587407752044183	-0.00023743939520726583	0.00010025365647444604
Xe	0.0001721741048710281	-6.29380723704454e-05	0.0028006437898150695	-0.0031746536969835086	-0.008919400547281768	1.6620334712264036e-05
2
129800
Ar	-0.0002417146194712814	-0.00041054239612629356	0.0031755856837301743	-0.0223510279733629	0.013019155742003644	0.0001463273142007522
Xe	0.00011767733038773702	-0.00013872669857783093	0.002800609740172522	-0.0074859759847962105	-0.005887710786289033	-9.389093095860598e-06
2
130000
Ar	-0.00041987863220851725	-0.00022794798689414187	0.003176701251510028	-0.012394245588778234	0.022607585906716632	3.948102738608914e-05
Xe	2.964024780903357e-05	-0.0001750890227138085	0.00280053008620081	-0.009670145803609179	-0.001217993878279124	-5.367564297686552e-06
2
130200
Ar	-0.00047776925378181285	1.982520713103533e-05	0.003176485175746453	0.001107837220062326	0.025735320662707093	-0.00010169147591508764
Xe	-6.683259425617439e-05	-0.0001616518765997494	0.0028006290965464182	-0.009146862953740061	0.0038248283222714324	1.030628124879552e-05
2
130400
Ar	-0.0003992424089547104	0.00026176218238988636	0.003175111069103689	0.014197143758469161	0.021483895115180417	-0.00015658162122298203
Xe	-0.00014417499928935472	-0.00010252534185541073	0.0028006612733015687	-0.0059594314269768335	0.007717621737828959	-1.853193812828405e-05
2
130600
Ar	-0.00020724045177167134	0.00042909746625167846	0.003174008911780726	0.02326928878280216	0.011174937639644394	-4.1298719426958074e-05
Xe	-0.00018030632694752163	-1.4535583403816576e-05	0.002800434088213662	-0.0010794247615694046	0.009476821014989117	-2.8425471573287015e-05
2
130800
Ar	4.396462711274012e-05	0.00047436031389111227	0.0031739975859840634	0.025740085591409004	-0.002343229213758236	4.772493301918942e-05
Xe	-0.00016486801340014653	7.775705682404366e-05	0.0028002051408446706	0.004096913681501229	0.008527741339266759	-3.806471914663169e-06
2
131000
Ar	0.0002828708229379417	0.0003840168037806959	0.003174743238218049	0.02085993291696411	-0.015243492732293223	8.250305528715434e-05
Xe	-0.00010244895291681065	0.0001479565661193775	0.0028002529069181023	0.008082247950035237	0.005176893468319253	4.192893689638133e-06
2
131200
Ar	0.0004409342833749333	0.00018363700152379992	0.0031755624987307714	0.009978729828734018	-0.023817286162787898	5.881934035164032e-05
Xe	-1.107239483012793e-05	0.0001764617726761665	0.002800574093575703	0.009743821932423558	0.00036841914137518845	5.224139224097833e-05
2
131400
Ar	0.0004730450714411259	-6.911506018314072e-05	0.0031760543914186807	-0.0037119730829143615	-0.02549346107629671	1.5325630102749118e-05
Xe	8.334213362642869e-05	0.00015476630425495055	0.0028009722576296087	0.008657816599526054	-0.004581541293059498	2.5631581509593644e-05
2
131600
Ar	0.00037038341532474964	-0.0003015397118995889	0.0031757836420496038	-0.016331995271239335	-0.019853873987350123	-6.703250097773695e-05
Xe	0.0001539314126959075	8.905779345270104e-05	0.002801148588849628	0.005127248304602725	-0.008236165878058534	1.079026865888148e-05
2
131800
Ar	0.000162039456901561	-0.0004475186771613119	0.0031752448606807843	-0.024303010665981124	-0.008625274517188777	-3.913077290217427e-05
Xe	0.0001808571093228034	-1.7925549608577247e-06	0.0028008435405136116	0.0001222542806833763	-0.009491157333681674	-4.0826851331168415e-05
2
132000
Ar	-9.235141509777557e-05	-0.0004658475352055422	0.0031749948816825425	-0.025322838702846587	0.005050580206347345	-1.5246785684338313e-05
Xe	0.00015617824762891627	-9.193740870615929e-05	0.0028001517461400337	-0.004940120064380931	-0.008098606130721643	-5.665250967037657e-05
2
132200
Ar	-0.0003202833458032198	-0.0003511141575936287	0.0031747071183943834	-0.019141412797288808	0.017325827882513644	-2.3075301121851194e-05
Xe	8.668272794708452e-05	-0.00015601850115693082	0.0027995013362726194	-0.008606831282890507	-0.004401714277836253	-2.5708485095940808e-05
2
132400
Ar	-0.0004566689569783762	-0.0001361589612830724	0.003174661878299256	-0.007478748868448253	0.024612955331104795	3.376779645116209e-05
Xe	-7.538626067177033e-06	-0.0001756278102244545	0.0027995980538524983	-0.009755034217439807	0.0005664014576818124	3.027343933439497e-05
2
132600
Ar	-0.0004625649058507108	0.00011741431617158225	0.003174960376561584	0.0063063416491882275	0.024862212388300005	5.897296949343688e-05
Xe	-9.90451860820164e-05	-0.00014510015285209527	0.002800152005331953	-0.00812385585076355	0.005382031639781251	6.723603551078255e-05
2
132800
Ar	-0.0003368049527049402	0.0003372595130951055	0.00317561925648426	0.01824067561683394	0.018063699704494555	7.1366038998185e-05
Xe	-0.00016221672790783556	-7.333721048117133e-05	0.00280063402297297	-0.004177743459046989	0.008615827956006756	4.243110557730598e-05
2
133000
Ar	-0.00011486403710192155	0.0004612562040794163	0.0031762810246660127	0.025059458878471857	0.006138780854650648	7.932305472533966e-05
Xe	-0.00017896866278124885	1.9387499979594397e-05	0.002800948314383028	0.0009207616054786729	0.009473019016197994	2.9924137002551773e-05
2
133200
Ar	0.00014023143628259007	0.0004540132837914175	0.0031766667993914878	0.02470125754516797	-0.0075958083616881064	-2.120903391374354e-05
Xe	-0.00014451977747239478	0.00010677783169385927	0.0028010454098744454	0.005782792555270318	0.007584978016145589	7.4833195830524055e-06
2
133400
Ar	0.00035536734592025006	0.0003168581332104386	0.003176133315634348	0.017270148186936354	-0.01917047654218072	-8.079682259585502e-05
Xe	-6.860706827129412e-05	0.00016373452478726327	0.002800931106836216	0.009020927690776516	0.003546502227774895	-3.580143826745573e-05
2
133600
Ar	0.00046886716446006404	8.928096176658057e-05	0.0031751927732562254	0.004865588397019896	-0.0252348120242681	-9.438411497045622e-05
Xe	2.700011398229679e-05	0.00017420839481458296	0.0028004313507924024	0.009638601885152314	-0.0014864044394390598	-4.723776788898351e-05
2
133800
Ar	0.0004485216474577977	-0.00016372126053982656	0.003174595921873631	-0.008851389408709224	-0.024128866757734155	-2.3428628387288764e-05
Xe	0.00011505871745674624	0.00013516987520021165	0.0027998550278630252	0.007536805594295011	-0.006122897618745584	-5.511912277949757e-05
2
134000
Ar	0.00030030748572342143	-0.00036988737438396806	0.0031745671474653686	-0.020070752834732742	-0.016123600534106976	3.4740434658189605e-05
Xe	0.00017035573365794586	5.759613580258343e-05	0.002799516315685569	0.003253930165041084	-0.009019605045258151	1.3820697077709115e-05
2
134200
Ar	6.631084120895164e-05	-0.00047065085927835705	0.003175127525216893	-0.025609632545524313	-0.003521470156758326	6.466587451484913e-05
Xe	0.00017713103102761128	-3.678057998302543e-05	0.0027999304295961876	-0.0019370250145233435	-0.009373552016114353	6.7631378579877e-05
2
134400
Ar	-0.00018704713413529667	-0.00043685172589975186	0.0031757083416651933	-0.023811775632372502	0.010095163653588417	4.4050145782303655e-05
Xe	0.00013332943426810104	-0.00012084631692519534	0.002800589585466239	-0.0066078508910906095	-0.007046325751706214	8.401087176901547e-05
2
134600
Ar	-0.000387150643494906	-0.00027838311277089076	0.0031757889667057993	-0.015190818579287387	0.020814215155484678	-2.174329729841646e-05
Xe	5.1132944319308924e-05	-0.00017041983246685524	0.002801392387408966	-0.009425229186760151	-0.002644721565189692	6.999953796760897e-05
2
134800
Ar	-0.00047629988591498977	-4.048060174021113e-05	0.0031752016682928597	-0.0022118517819767554	0.025581100571017708	-6.843373392258078e-05
Xe	-4.592911524377265e-05	-0.00017109991733994754	0.002801816870191521	-0.00948463557021747	0.0024620516000515608	1.9420565949768634e-05
2
135000
Ar	-0.00042945826434916416	0.00020878675182194856	0.0031746783841279007	0.011340685964053653	0.023033618178861723	-3.7227959514914525e-05
Xe	-0.0001295536641994845	-0.00012339100202126744	0.0028016499355372868	-0.00681553046062709	0.006843857391980679	-5.192165398744558e-05
2
135200
Ar	-0.00026033317093820783	0.0003984805355880684	0.0031746914831219455	0.02167585059960822	0.01398878316364149	3.64022713508946e-05
Xe	-0.0001761477865713713	-4.075638105519602e-05	0.0028007835282760304	-0.0022664380477915246	0.009274205087659144	-0.0001240077105319918
2
135400
Ar	-1.6911538264153286e-05	0.0004749382679986959	0.0031752363135066457	0.025833905000918426	0.0009112596644843076	8.097606717637078e-05
Xe	-0.00017249511987453849	5.3380633093927774e-05	0.0027995539401445405	0.002968778626148171	0.009078544216885613	-0.00011055967316519872
2
135600
Ar	0.00023125075582687912	0.0004158979814615293	0.0031759123226379232	0.022581276604928157	-0.01244996494677313	3.8417316960003486e-05
Xe	-0.00011939189480705516	0.00013247239412075354	0.00279888907719633	0.007373503750286873	0.006356308241242055	-2.180105415859021e-05
2
135800
Ar	0.00041294170535898623	0.00023751426945746952	0.0031760186353898966	0.012882533365131054	-0.02231322689192165	-7.790602407286589e-07
Xe	-3.2129679112575626e-05	0.00017425917716657334	0.0027989883613288614	0.009656344664495182	0.001796139194127394	5.4940767829781485e-05
2
136000
Ar	0.00047655249533914344	-8.863875281843252e-06	0.0031759018008985823	-0.0004870835436295441	-0.02573914003476071	-9.300654301484767e-06
Xe	6.444754751511788e-05	0.00016636938135267714	0.002800124672173215	0.009174663628577133	-0.0033403053895729156	0.00013422211817541295
2
136200
Ar	0.00040376594970317384	-0.000252629465091331	0.003175604629713763	-0.013708966217754729	-0.021819993544822853	-3.012645399952058e-05
Xe	0.00014246915327436295	0.00011060598274674798	0.002801287102066415	0.006040287317622429	-0.007523732505768267	9.342977647869086e-05
2
136400
Ar	0.00021559598915463744	-0.0004246173604852955	0.0031753868707541455	-0.02299010141840115	-0.011737739329891495	-1.637889421731543e-05
Xe	0.00017939284223961147	2.3303323006406063e-05	0.0028018305819013183	0.001169159659303206	-0.009525097788797262	1.5248476749788545e-05
2
136600
Ar	-3.411084374816429e-05	-0.00047577006223790936	0.0031750692466014398	-0.025734625865065582	0.0017586425186568275	-3.760601846144406e-05
Xe	0.0001649485815865594	-7.077613334873734e-05	0.0028016652842120103	-0.003974094152123833	-0.00883162852462824	-3.8480670339793586e-05
2
136800
Ar	-0.000274307512475484	-0.0003908379208594207	0.003174768130654745	-0.021128192411115625	0.0147920527004299	-1.3903867097692161e-05
Xe	0.00010377023477466273	-0.00014480988487089913	0.002801174706521528	-0.007974582032533225	-0.005621197233338894	-6.650708089153017e-05
2
137000
Ar	-0.0004363162392545905	-0.00019430413254959767	0.003174770186339024	-0.010509889469349647	0.02353210862313419	2.706644667679115e-05
Xe	1.2907775306141065e-05	-0.0001776631135561042	0.0028005285621870717	-0.009742567025577374	-0.0007855976155461584	-6.858701616197302e-05
2
137200
Ar	-0.0004741381029125985	5.7462704538391426e-05	0.0031750543920713217	0.0031419491454434145	0.02558044034333711	3.9135746221043105e-05
Xe	-8.148304614268016e-05	-0.00015982829162907778	0.002799700475585356	-0.008691749797756117	0.004274598896280409	-8.156346154717248e-05
2
137400
Ar	-0.0003765734457866638	0.0002928780334829788	0.003175375077287522	0.015883525929671922	0.020347814647838126	6.6276283473778244e-06
Xe	-0.00015250658732480926	-9.631889405593163e-05	0.002799339223980134	-0.005159350224867458	0.008123559760928404	3.6215825519740516e-06
2
137600
Ar	-0.00017147589818940708	0.0004445915540694063	0.003175431743848824	0.024132100371246197	0.00924092551054612	-1.4901239053961624e-05
Xe	-0.00017994630210736246	-5.074070093161001e-06	0.002799547865357841	-0.00019992864964011187	0.00967986853948788	5.7512104821929356e-05
2
137800
Ar	8.259979343136465e-05	0.00046925483048554617	0.003175154286945507	0.02542714920156627	-0.004452613076452891	-4.624302676509074e-05
Xe	-0.00015600353356182904	8.789266316300475e-05	0.00280029994096232	0.004872414301999276	0.00847164149197488	6.923561441356595e-05
2
138000
Ar	0.0003128640947347139	0.00035971592911606775	0.003175052677486397	0.019499920377369168	-0.01691799342068527	2.1373478164757576e-05
Xe	-8.718620900404067e-05	0.00015593400728148177	0.00280133639070713	0.008547712150176513	0.004792146541643036	8.520745968061828e-05
2
138200
Ar	0.0004538056335211821	0.0001471631901727492	0.003175347697751242	0.008017284157475036	-0.024534926912188847	3.370367285233894e-05
Xe	6.519083568186402e-06	0.00017938058011343874	0.002801946958727651	0.009728035082432208	-0.00022217485795677187	2.3959516787681976e-05
2
138400
Ar	0.0004655097729010193	-0.00010745028950140864	0.003175848823555812	-0.005756675908834492	-0.025150426574194487	4.022637305340183e-05
Xe	9.806234959647057e-05	0.00015154102901693704	0.0028018968433747697	0.008129975164869428	-0.005201507470116128	-4.57747712569979e-05
2
138600
Ar	0.00034427615751230227	-0.000331512241699485	0.00317602202229483	-0.017878494467828333	-0.018536528401269046	-5.8570166552706295e-06
Xe	0.00016152420881743567	8.06120256687901e-05	0.0028010875947202985	0.004253132965396163	-0.008643902825136654	-9.968956653371099e-05
2
138800
Ar	0.0001246322045013944	-0.0004605073275703449	0.0031759162841110203	-0.024963796199107328	-0.006633519020275731	-3.16755356906046e-05
Xe	0.0001791371736932265	-1.3084946291878566e-05	0.0027997664075467784	-0.000826803568069795	-0.009633894491037421	-0.00013668221804721256
2
139000
Ar	-0.00013076164899881404	-0.00045808107515953717	0.0031754476715480703	-0.024832412220699946	0.007118792092801353	-6.428765375647853e-05
Xe	0.00014541470939651122	-0.00010313636384601153	0.002798827637416676	-0.00575694925075697	-0.007907995580732415	-3.380140588085571e-05
2
139200
Ar	-0.0003484145070117272	-0.00032483024542002693	0.003174820579398727	-0.01764347551136309	0.018846961322259503	-7.093352415595153e-05
Xe	6.992101856747542e-05	-0.00016375792928997898	0.0027988198326754227	-0.008970429859813249	-0.0039020634173811794	4.402017188193961e-05
2
139400
Ar	-0.00046647361979217317	-9.912370870028619e-05	0.0031743958127593845	-0.005380420558266165	0.025192026438851576	-1.1006908553490535e-05
Xe	-2.552802188143157e-05	-0.00017777633477007544	0.0027996392995394896	-0.009627157873983447	0.0011728474212148081	0.00012557459226981757
2
139600
Ar	-0.00045100120745981064	0.00015521791805878793	0.003174523091546154	0.008414333347082175	0.02442301438329046	4.3970319804119995e-05
Xe	-0.00011353411111244517	-0.00014105537010662017	0.002800947433533643	-0.007554646368555184	0.005975379181582822	0.00010884240079008263
2
139800
Ar	-0.0003064632403630316	0.0003656943163675134	0.00317508750455615	0.01978651610410768	0.01663225873915187	7.176321804581228e-05
Xe	-0.00016914161605265934	-6.393247372252442e-05	0.0028019310412211126	-0.0033099323720048755	0.009058798914347537	7.132558366455224e-05
2
140000
Ar	-7.439079573664365e-05	0.0004722664311965062	0.0031755882745876903	0.025500891286746336	0.004116327214787534	-2.9857349489343894e-06
Xe	-0.00017644633485216807	3.1319296857955335e-05	0.0028023985051190197	0.0018500971713219442	0.00953066478723641	2.1448737812780735e-05
2
140200
Ar	0.00017884948890062023	0.0004440188140233482	0.0031752025720446827	0.023891300777909425	-0.009614766877242794	-4.176569138580125e-05
Xe	-0.0001334671500495731	0.00011765685916318211	0.002801961315813118	0.006512897629267765	0.007299661352569066	-9.332243833841048e-05
2
140400
Ar	0.000380643659099082	0.00028898611039172227	0.0031747230602608826	0.015502149948055701	-0.020664748219202087	-5.457271158957162e-05
Xe	-5.2539219066712754e-05	0.0001704535252926379	0.0028010506686078035	0.009275533405208843	0.002988059353400119	-0.00010161290010322686
2
140600
Ar	0.00047403147848029236	5.100230639608244e-05	0.0031743305527413158	0.0027144109317679085	-0.0257837932938611	-1.4435873877255364e-06
Xe	4.315260981927889e-05	0.00017482375434622248	0.002799809478824303	0.009414731726889518	-0.002135997712822313	-0.00012338022174232288
2
140800
Ar	0.0004319761551986427	-0.0002016829993781761	0.0031744866880594478	-0.010921130783796132	-0.023516210461085475	3.852132138455563e-05
Xe	0.00012623861709755866	0.00012931248089440955	0.002798974356557525	0.006841456447936127	-0.006729161642429542	-5.8524942219795916e-05
2
141000
Ar	0.00026629434313250476	-0.00039673249706675447	0.0031749684980247076	-0.021432650743620305	-0.01453403593924123	4.218184067889341e-05
Xe	0.0001734650991392479	4.6754422984936404e-05	0.002798999156312204	0.0023521784486225305	-0.009385332101141114	5.335143644145124e-05
2
141200
Ar	2.432244858216285e-05	-0.0004779773497677315	0.003175395596444295	-0.025787246382124616	-0.0013213336128007885	2.3627164114597264e-05
Xe	0.00017121503328031755	-4.940036306642416e-05	0.0028001393429742537	-0.0028106807989446403	-0.009387408127764318	0.00016983721050206843
2
141400
Ar	-0.0002245168689307881	-0.00042211534555288164	0.0031755274542232532	-0.02277435385870604	0.012198746156320599	-7.991493302801648e-06
Xe	0.00011984240594662963	-0.0001319833579933256	0.0028020594219742975	-0.007175118323454018	-0.006703152082629595	0.0001663629142097389
2
141600
Ar	-0.0004091193263321877	-0.00024580059662828856	0.0031752467536833554	-0.013262918675932989	0.022200262979543854	-5.3211862767345694e-05
Xe	3.44844908728807e-05	-0.00017678066622879294	0.002803149308099972	-0.00947735923068558	-0.0020474590940112855	5.717879039542094e-05
2
141800
Ar	-0.0004771077242108544	6.899365738264286e-07	0.0031746845864717797	-1.3855504951308572e-05	0.025909547265762924	-5.003521136292905e-05
Xe	-6.0393261476585625e-05	-0.0001708071444893064	0.002802895126119768	-0.009042667822590686	0.0031979853795093085	-9.914438367191627e-05
2
142000
Ar	-0.0004091792535012255	0.00024730246789870017	0.003174551771782998	0.013277210003487918	0.022190384562596664	-2.047646438060502e-05
Xe	-0.00013748220560155596	-0.00011606999832407096	0.0028013343144706942	-0.006006607791323805	0.007487807173934245	-0.00020100050590390558
2
142200
Ar	-0.00022440551303242799	0.0004229597255102052	0.003174184980564809	0.022792484120781966	0.012102478777851434	-3.153727996743312e-05
Xe	-0.0001752493826707543	-2.8208918543703313e-05	0.002799446965434302	-0.001359608595988696	0.00967602610679624	-0.000167807165409071
2
142400
Ar	2.4540465683649603e-05	0.0004778068090614172	0.003173922099213912	0.025806512281935718	-0.0013908590531542492	1.3127404594774755e-06
Xe	-0.00016324114855761074	6.771163043741573e-05	0.0027985932612962466	0.003701279050088215	0.00903913559362206	-9.702273316876907e-06
2
142600
Ar	0.00026668647610791354	0.00039628340903645015	0.0031744074695329583	0.02142576216619191	-0.014508519682551261	8.2506507046533e-05
Xe	-0.00010460605603120738	0.00014409789336787578	0.00279902857543125	0.00771738587735275	0.005878371704530976	7.173106254900251e-05
2
142800
Ar	0.00043248291756569935	0.00020185087687625807	0.003175508778065623	0.010942155938664351	-0.02345453749151702	0.0001052703277121924
Xe	-1.6164276560963105e-05	0.00017940246752252555	0.002799901947758467	0.009527580316710773	0.001014969327259308	8.883690558545176e-05
2
143000
Ar	0.000474862671465268	-5.015072231828317e-05	0.0031760071077408577	-0.002683650653943851	-0.025684821471062467	1.561033426426782e-05
Xe	7.71939511533633e-05	0.00016333644838375784	0.002801044607488145	0.008682045388253531	-0.004141662844699611	0.0001340771208420263
2
143200
Ar	0.0003814877657630443	-0.0002872998124781974	0.003175532828859506	-0.01553258535862282	-0.020584888398933028	-0.00010491336425871416
Xe	0.0001487824868614233	0.00010064105897599007	0.0028021630053053056	0.00528352610370116	-0.00808123976991297	8.533778483008535e-05
2
143400
Ar	0.00017919710535836423	-0.00044207457536085703	0.0031745726817225114	-0.023926366170898217	-0.009614066032401673	-0.00010385278903781628
Xe	0.00017790537038711018	9.561553533610424e-06	0.0028027108400673763	0.0004203455507051781	-0.009694742386941308	4.144456876554455e-06
2
143600
Ar	-7.431056702044871e-05	-0.00047068751867935485	0.003173603870152347	-0.025512143019789237	0.004028464867082822	-7.409132177358879e-05
Xe	0.00015659832976972862	-8.392998093709982e-05	0.0028021012980816743	-0.004572031117799881	-0.008567338199600462	-0.00012013256624427672
2
143800
Ar	-0.00030657731920472053	-0.0003652372787686494	0.0031734548315069536	-0.019811535237748215	0.016551798774331678	3.525793943943908e-05
Xe	9.079318295296777e-05	-0.00015307097005167174	0.0028005853926239134	-0.008261034509357088	-0.004963157887734289	-0.00017386296722423687
2
144000
Ar	-0.00045159405522904826	-0.00015552334583238912	0.003174273778354174	-0.008469634371370643	0.024369134933360126	9.732333276591017e-05
Xe	-9.147488979362945e-07	-0.0001783837792265175	0.0027991582683822274	-0.009616743651530231	1.3891743932332898e-05	-9.507541553297167e-05
2
144200
Ar	-0.00046765533702401783	9.859000152742408e-05	0.0031753089173662133	0.005331074425556801	0.02519510353870078	0.00011575239168990478
Xe	-9.229860505489412e-05	-0.0001528041408474333	0.0027987009814130336	-0.008216644233689181	0.004987256988614718	1.2914591005953141e-05
2
144400
Ar	-0.00035012291092183717	0.00032418375715989356	0.003176234473049825	0.017629435730962855	0.018820614088521218	7.493006430012323e-05
Xe	-0.0001574759759054453	-8.357406474497942e-05	0.0027994588681779227	-0.004480890174162857	0.008546107704410529	0.00012271509105278634
2
144600
Ar	-0.0001322528558648985	0.0004569322027329159	0.003176513326424436	0.02486320822734467	0.007112409026712216	-2.4745056221282337e-05
Xe	-0.00017757688698148832	9.790571457064975e-06	0.0028006306789282506	0.0005550645692980158	0.009669776112560244	0.00010024220023178218
2
144800
Ar	0.00012348073132868238	0.0004594324331150852	0.003175780973666661	0.025008466287774454	-0.006624782795561472	-0.00011892673048416832
Xe	-0.00014684877930951448	0.00010043961574926323	0.0028015644424676136	0.0054410186808084475	0.008007261774890508	9.123390960945994e-05
2
145000
Ar	0.000344175037982045	0.00033076239078060516	0.0031748196011181042	0.01804390502821521	-0.018472720915043782	-8.490310730001875e-05
Xe	-7.415172271701753e-05	0.0001622751937314264	0.002802281912934476	0.008753436097150808	0.004060221975410047	4.7017546205143724e-05
2
145200
Ar	0.00046681718636493457	0.00010755194712480633	0.0031739858685354942	0.005906024767290887	-0.025064636528456852	-7.10436853122462e-05
Xe	1.9746268476978883e-05	0.00017792803185135632	0.0028023131293171836	0.009546558139865999	-0.0010277127961006772	-5.260112907170889e-05
2
145400
Ar	0.00045647441868752763	-0.0001462940759799357	0.0031733360197481585	-0.00792505350079704	-0.024469845997461572	-1.6951813590927092e-05
Xe	0.00010764456925779044	0.00014280100400802687	0.0028015622316604114	0.0076005684345243595	-0.005828685716349431	-9.91508705939188e-05
2
145600
Ar	0.0003159165040053779	-0.000358242211985538	0.003173505249009439	-0.01951074597782838	-0.01688778479682337	5.046839179483911e-05
Xe	0.00016464193595046363	6.699494224773905e-05	0.0028006728118032185	0.0035223760491901283	-0.008951197814184918	-8.449250435337728e-05
2
145800
Ar	8.512009296136246e-05	-0.00046779630468830543	0.0031742295350881853	-0.025496269934214874	-0.004491239561485355	7.44476818686375e-05
Xe	0.00017454452346987604	-2.7765493609723526e-05	0.0027999296448859468	-0.0015950334753833757	-0.00953382427845309	-6.407453912692714e-05
2
146000
Ar	-0.00016955923044771566	-0.0004440429702007315	0.0031753294020051303	-0.02421125441945442	0.009159835130372542	0.00013473040277814434
Xe	0.00013451700233630464	-0.00011441897761947241	0.002799600228089461	-0.006256723807021622	-0.007392408204620213	6.13296173739721e-06
2
146200
Ar	-0.0003758821321962709	-0.00029318878013734296	0.0031766670225708404	-0.016042511093828028	0.020266312392819084	0.0001032725771812573
Xe	5.569536751299876e-05	-0.00016863362634253354	0.002799633067914068	-0.009114667310683717	-0.0031772585908981543	1.1199121523211933e-05
2
146400
Ar	-0.00047453386809450336	-5.862981959468483e-05	0.003177033679847733	-0.003209613748095775	0.02548983901615099	-2.247251259691341e-05
Xe	-3.913151184905954e-05	-0.00017475923351403276	0.002799920693491766	-0.009394556992422153	0.0019950922197127094	5.612109407047212e-05
2
146600
Ar	-0.00043726112562052314	0.00019227395781967218	0.003176289799007608	0.010470798402112026	0.023458327279175156	-0.00010978406702898359
Xe	-0.00012286861346465924	-0.000130530486713477	0.0028006956328814466	-0.006938796942127953	0.006630606499687025	9.396904291886864e-05
2
146800
Ar	-0.00027488250218681183	0.0003882589113882885	0.0031747613124172794	0.021209762324587666	0.0147679712224183	-0.00016504683418799604
Xe	-0.00017148040826867682	-4.847666380269522e-05	0.002801632209680555	-0.002532630885087075	0.009343731081839354	9.897802867169117e-05
2
147000
Ar	-3.3840179005666045e-05	0.0004738106069622867	0.0031735707055428816	0.025832716868696634	0.001910640833039258	-4.7609911149137426e-05
Xe	-0.0001711763650200763	4.709401411294874e-05	0.0028023017414448175	0.002590806689339054	0.009304080996659221	1.3963915616107088e-05
2
147200
Ar	0.00021695988416475784	0.0004246162036082865	0.0031737224944875454	0.023105837899426367	-0.011536391407143139	8.146611582167054e-05
Xe	-0.00012226133246919557	0.00012884791385749388	0.002801943551891136	0.006949300588636528	0.006623311717662622	-0.00010900235156984924
2
147400
Ar	0.00040604810815478856	0.0002543009157613214	0.0031750209481361197	0.013776269630710377	-0.021703079971063376	0.00015074020087447413
Xe	-3.8844336768911e-05	0.00017348556466912274	0.0028008190434404244	0.009343215491039173	0.0020877816270041052	-0.00012270944520231903
2
147600
Ar	0.00047924127696618733	1.1389706510289909e-05	0.003176150275379097	0.000501957420526675	-0.02568684480860332	4.864203043137097e-05
Xe	5.552100536939366e-05	0.0001687839665316058	0.002799723791899543	0.009083250003061033	-0.003009137844659206	-9.013306286749054e-05
2
147800
Ar	0.00041557387398350994	-0.00023473565882718673	0.003176018785105106	-0.012939902894013177	-0.022325118560898725	-3.8325117257181764e-05
Xe	0.00013431520700733015	0.00011597525467879025	0.002799109347630993	0.0062888634209342905	-0.007295877268320625	-2.599142296376261e-05
2
148000
Ar	0.00023282853134867895	-0.00041394376839558767	0.0031752375059382774	-0.02270661260317742	-0.0126282472498947	-9.098059172960871e-05
Xe	0.0001752956749163132	3.014051680067973e-05	0.0027991755443186874	0.0016820022648958183	-0.009445247067841096	3.5910942092084804e-05
2
148200
Ar	-1.656757774532239e-05	-0.0004749388539260686	0.0031744608953193972	-0.02596428419647003	0.0007253586662452098	-3.953081660404044e-05
Xe	0.00016635176009286622	-6.419781231952314e-05	0.002799794390986286	-0.003424062685967403	-0.008961613620262375	0.00010021258911703695
2
148400
Ar	-0.0002614343514352903	-0.00040028552255415344	0.0031742670311309304	-0.021809568313876027	0.013840711791623437	-2.1127775327256647e-05
Xe	0.00010968836450054784	-0.00014018404556166575	0.002801079319834343	-0.007617743939197782	-0.005885199740927699	0.00013562080414789327
2
148600
Ar	-0.000431427625239004	-0.00021134330415286634	0.003174264989581996	-0.01135635950928751	0.02302507565915205	2.2252802284079357e-05
Xe	2.1433802438720458e-05	-0.00017614376812506287	0.002802386370226934	-0.009597174655972268	-0.0011523145044870144	0.00010583017104731316
2
148800
Ar	-0.0004780674661307827	3.7989263216405186e-05	0.0031749248641711014	0.002248331580467811	0.02561305751256423	7.280548644396552e-05
Xe	-7.294220374723635e-05	-0.0001616037711063976	0.0028030830233049114	-0.0088140494690105	0.003972659009953539	1.279759797416783e-05
2
149000
Ar	-0.00038860941940018623	0.0002765462728298999	0.0031754747331046796	0.015227652927263184	0.02091617151332008	3.358031544642026e-05
Xe	-0.0001459587674371848	-0.0001008491791896624	0.002802711724804007	-0.005442363662545258	0.007882781707018333	-7.618954348958535e-05
2
149200
Ar	-0.00018834442756084102	0.0004364510318344108	0.0031757649641306848	0.023835531878383834	0.01023932639456159	1.4808295064800716e-05
Xe	-0.00017679920717000167	-1.1389221714785892e-05	0.002801262034749074	-0.0006052896847416454	0.009576030145925838	-0.00018916780412670843
2
149400
Ar	6.546051903712688e-05	0.0004716585765011148	0.0031755721342814447	0.025671733771420544	-0.003371536611871223	-4.485625113253154e-05
Xe	-0.00015713894074834516	8.14326404059091e-05	0.0027995813092923463	0.004397356290274411	0.008527503889293951	-0.00012399154591316884
2
149600
Ar	0.00030000691930993196	0.0003722700977387268	0.0031747976111553473	0.02009888337069508	-0.01603339404940334	-8.646178480728906e-05
Xe	-9.276728970182144e-05	0.0001511831780633061	0.0027987339096399787	0.008153335777845556	0.005079090904573969	-4.371698758179815e-05
2
149800
Ar	0.00044823918229727397	0.00016649165132858943	0.00317395636900874	0.008835385181028227	-0.02411609377343772	-5.663982204958819e-05
Xe	-1.4501734599288943e-06	0.00017775043837523795	0.0027988170556678127	0.009654083926957706	8.793761324143878e-05	5.4952676571485656e-05
2
150000
Ar	0.0004684963148386436	-8.656760861110192e-05	0.0031739113531083943	-0.00490080962197852	-0.025284274210644497	6.160165941813588e-05
Xe	9.076059876409163e-05	0.00015327146641024432	0.0027996709088501095	0.008318762528773416	-0.0048643457487132615	9.582649820450003e-05
2
150200
Ar	0.00035502844441062957	-0.00031490850867456045	0.0031750819307826148	-0.017252429378217696	-0.01928585012268932	0.00017260135211593752
Xe	0.0001569215125832622	8.48542427298624e-05	0.002800727037412511	0.004583179627697904	-0.008461423046675309	0.00010368686097743038
2
150400
Ar	0.0001399476297632417	-0.00045371763998804484	0.003176714379990989	-0.02470397415730198	-0.007761491543373092	0.00012923129657434903
Xe	0.00017805981388131504	-7.695238619781019e-06	0.0028014135416531394	-0.00046448200641959695	-0.009614743062024485	2.314846016975494e-05
2
150600
Ar	-0.00011515305937976505	-0.0004627136710872786	0.003177356463582842	-0.02506013862083709	0.005993409066323441	-3.315542248070604e-05
Xe	0.00014819985473941052	-9.823526549071497e-05	0.002801348431744611	-0.005347936292565097	-0.008037628395287702	-3.7586017686571224e-05
2
150800
Ar	-0.0003370326194571286	-0.00033964305280424696	0.0031763066131379855	-0.018231756843087032	0.018025539923220077	-0.0001500898789719325
Xe	7.621097084154278e-05	-0.00016075536505854408	0.002800791095425647	-0.00869734154974392	-0.0041736336951140466	-6.174651049071737e-05
2
151000
Ar	-0.00046243102233332016	-0.00011974107672534177	0.0031748012797947174	-0.006236734774408428	0.024883707100110248	-0.00014310752244382785
Xe	-1.769213915066028e-05	-0.0001773147167238967	0.002800192403440742	-0.009592738868742264	0.0009295952462980573	-5.350816142111392e-05
2
151200
Ar	-0.0004559014239945841	0.00013420069560196745	0.0031737140225667868	0.00751018509845076	0.024680111909451744	-5.091664493519528e-05
Xe	-0.00010659064431271926	-0.00014330411122965637	0.002799635983426786	-0.007736552929768474	0.005680853834728776	-5.693153637386479e-05
2
151400
Ar	-0.000319369744319269	0.0003497729484424237	0.0031740053356137726	0.019123404163330276	0.017427960296559734	0.00011211788727722696
Xe	-0.00016500239869241814	-6.917988602075855e-05	0.0027992549892498827	-0.0036541020955060395	0.008815506426840833	-1.94926189975226e-05
2
151600
Ar	-9.156131483285754e-05	0.00046570374137321047	0.003175099471868693	0.025302554075642202	0.005208503757854835	9.498775608456093e-05
Xe	-0.0001762714306980758	2.449821746050026e-05	0.0027991485038187237	0.0014551170195312843	0.009478563159135197	-6.972912019443051e-06
2
151800
Ar	0.00016258295796363863	0.00044855709259977527	0.0031757764596118134	0.02426536038929374	-0.008539698159622139	3.870228302751859e-05
Xe	-0.00013696755502054744	0.00011131549683949212	0.002799594572348866	0.0062015815919166314	0.007451802599920614	9.003604808801754e-05
2
152000
Ar	0.00037033229194626227	0.00030322387326228104	0.003175922157195865	0.016264245728816813	-0.01980755893378828	-2.1813982452205428e-05
Xe	-5.8144078513866636e-05	0.00016641105245608788	0.002800696318658785	0.00918289471297141	0.0033066199328944845	0.00011539672922994302
2
152200
Ar	0.0004724201964718914	7.144991330796878e-05	0.0031752767510856163	0.003656423770121928	-0.02539153939340743	-7.986331700911639e-05
Xe	3.7577878691476896e-05	0.0001741000118976887	0.0028018598519175147	0.009514181957648426	-0.0018167794038710299	8.242353026167225e-05
2
152400
Ar	0.0004398137309650774	-0.00018068221112319484	0.0031744925942806175	-0.01000023944831757	-0.023800081683674312	-4.887158578218395e-05
Xe	0.0001227093992008801	0.00013163642547707458	0.0028021005684847286	0.0070928377379718644	-0.006454629199952222	-2.892902169585432e-05
2
152600
Ar	0.00028178323153288544	-0.00038172084296779577	0.003174411906459034	-0.020822833448909905	-0.015405852815955742	3.088689971332864e-05
Xe	0.0001724159426519638	5.14774517559499e-05	0.002801292816550711	0.0026215789957105586	-0.009197585668361328	-0.00010076470318007878
2
152800
Ar	4.3284682367994473e-05	-0.00047377843716155024	0.00317502679158707	-0.025734860089833403	-0.0025745652850003705	6.21063704198352e-05
Xe	0.00017271651474110134	-4.318054349554918e-05	0.0028002836280345373	-0.002558449768793813	-0.009279360059115761	-8.90974607213341e-05
2
153000
Ar	-0.00020775561777425664	-0.0004303792340586324	0.003175612548183951	-0.02323713562893343	0.011034351012923736	4.487735973292317e-05
Xe	0.00012346638443362653	-0.00012581979408975177	0.0027996365965815865	-0.007036942737317744	-0.006838826923117536	-3.174356697199082e-05
2
153200
Ar	-0.0003992025947242131	-0.0002636114648249808	0.0031758783348726886	-0.014105711289792303	0.02147011663634443	2.1190089721062304e-05
Xe	3.852019352145635e-05	-0.0001730819430531644	0.002799207968396904	-0.009533547081235173	-0.0023938928638925273	-7.957066278890154e-06
2
153400
Ar	-0.0004764543471817592	-2.1425987911254893e-05	0.0031759388054754117	-0.0009449871517804567	0.02577867847384673	-9.985003732414614e-07
Xe	-5.7755846776449135e-05	-0.00017113539851646833	0.002799505207434328	-0.009240371779284965	0.0027709736648130873	3.357120224816874e-05
2
153600
Ar	-0.0004176349445497816	0.00022689365320882753	0.003175463296066142	0.012415919891363082	0.022690552312400768	-8.778658505435235e-05
Xe	-0.00013741193503121127	-0.00012031783669457573	0.002799728999897784	-0.006284356032181205	0.00713635809969928	1.8787015266179622e-05
2
153800
Ar	-0.00023965676942139217	0.00041042858389788784	0.003174550287195088	0.022303436304478102	0.013109430878227458	-9.294103683843636e-05
Xe	-0.00017756448039256523	-3.515314342475795e-05	0.002799959701500515	-0.0015747821110375358	0.009479160015102711	2.8552286874759537e-05
2
154000
Ar	6.697227946138796e-06	0.0004763768214110478	0.0031738753158435766	0.025774139166051757	-0.00021859062956402348	-2.6123993806718956e-05
Xe	-0.0001669362748693331	6.008021407095251e-05	0.0028004848275429398	0.0036141806564964616	0.009103591414974715	5.888693603968627e-05
2
154200
Ar	0.0002511269940760411	0.00040625174532481	0.0031738441745954677	0.021900523033180973	-0.013458627025307169	3.0062887625255928e-05
Xe	-0.00010887747189668249	0.0001379858643054649	0.0028010516342509943	0.007723896744062468	0.006079073515626009	1.8723269947956048e-05
2
154400
Ar	0.00042390682199153077	0.00022011498311869676	0.003174498355010534	0.011827820319003568	-0.02287174529424718	0.00013003998322359622
Xe	-2.0041096614191182e-05	0.00017611234083012123	0.002801176903343055	0.009606444727651146	0.0013572744836567359	-5.777753904736952e-06
2
154600
Ar	0.00047616130406932935	-2.8940255006412133e-05	0.003175727075867076	-0.0016619234424728726	-0.0257529727314549	9.65037312551571e-05
Xe	7.43217745659408e-05	0.00016383332535806696	0.002800820768569311	0.008811461889926871	-0.003752382649771769	-7.589403202216696e-05
2
154800
Ar	0.00039221615945113814	-0.0002698004860204189	0.003176531788781399	-0.014700858339328738	-0.02125553081934848	4.638149754571059e-05
Xe	0.0001473743807919163	0.00010475395688356803	0.0027999229552966042	0.005441604389740336	-0.007787940295679413	-0.0001019206640005482
2
155000
Ar	0.00019605950799536339	-0.00043347562150215866	0.003176550643707248	-0.0235440234403175	-0.010688992996135016	-7.173655455944477e-05
Xe	0.00017835363900005777	1.5744650811605295e-05	0.002799191921114081	0.0006024405822210556	-0.009578277050458021	-2.132924474258583e-05
2
155200
Ar	-5.576178931380046e-05	-0.00047334834557696294	0.003175482343519072	-0.025591711015154117	0.0029219756139234588	-0.00012612839895270077
Xe	0.00015891535066834376	-7.784846267714798e-05	0.002799542399414617	-0.004395601852216211	-0.008651905240957533	7.34594334017044e-05
2
155400
Ar	-0.00029157155743040556	-0.0003777202524621863	0.0031742735943407424	-0.020394501975067654	0.015716134475274007	-9.80885517358783e-05
Xe	9.433189430493397e-05	-0.0001489491992006049	0.0028004226094020057	-0.00818689015005582	-0.005240018929164566	8.352458659715968e-05
2
155600
Ar	-0.0004442632618193446	-0.0001744303976453412	0.0031735300481089725	-0.009377107662960292	0.023964919127432985	-3.658112544885946e-05
Xe	3.2237860257855853e-06	-0.00017764493164822254	0.00280084061299545	-0.009574504033760001	-0.00036025747391383835	9.098896533523376e-06
2
155800
Ar	-0.0004703343735853814	7.854314527599587e-05	0.0031736806455588203	0.0043034442162397475	0.025419066812929898	8.996455500481532e-05
Xe	-8.836789378407213e-05	-0.00015587594381729716	0.002800727240991807	-0.008283329214986828	0.00460250816433923	-1.4889706779582622e-05
2
156000
Ar	-0.0003625066482140348	0.00030920372271163443	0.0031747747980614602	0.016750034604126593	0.01959762692744522	0.00012363324813786884
Xe	-0.00015439242194056058	-8.968290164037983e-05	0.0028005553348486776	-0.004604075186659495	0.008306513782052882	-1.899935207472327e-05
2
156200
Ar	-0.00015152585918291777	0.000451615277827826	0.0031760116193681395	0.02441551332576906	0.008174269178543272	9.804934641426049e-05
Xe	-0.00017640470899173624	2.0506812374625843e-06	0.0028002464258319575	0.0003058561419660734	0.009596566658607572	-3.230622170463874e-05
2
156400
Ar	0.0001024537521001804	0.00046478411181703495	0.0031766420977375515	0.025135546913590115	-0.005617319370728943	4.449835192529683e-06
Xe	-0.00014845615920319253	9.305278283393722e-05	0.002800074232714781	0.005134707106090021	0.008180987845222356	-1.291514199069302e-05
2
156600
Ar	0.0003268835957747562	0.0003452982969251072	0.003176363389705522	0.018665194036441658	-0.017684206021673747	-3.4046830718864905e-05
Xe	-7.846119047533535e-05	0.00015753558983706026	0.0027998608678233682	0.008544183394996864	0.004419057690322101	-1.868285497196493e-05
2
156800
Ar	0.0004580266950475062	0.00012750131654826828	0.00317585959851015	0.006933065717332416	-0.024804953780716295	-6.83999159329548e-05
Xe	1.4333893299136083e-05	0.00017709088709670016	0.002799776145797623	0.009533018763617819	-0.0005985924954145026	3.1689764482080146e-05
2
157000
Ar	0.0004589585612551957	-0.00012688787955109765	0.0031749543741268495	-0.006777587556617573	-0.024825504705307536	-0.00011766902125387419
Xe	0.0001028110750718679	0.0001462185967138855	0.0028001840200974474	0.007748707311688798	-0.005409690744955664	3.7473702328387e-05
2
157200
Ar	0.00032875959179660426	-0.00034517175303091103	0.00317406291925662	-0.01861157903599454	-0.017721218169642644	-5.0179824756229026e-05
Xe	0.00016178612011925926	7.391541294180194e-05	0.00280044751749894	0.0037750594505081125	-0.008707739966396283	3.5435131614617854e-05
2
157400
Ar	0.00010476651612000162	-0.0004644403124841928	0.003173926173085747	-0.02510614146349256	-0.005532887669379672	3.261089794918595e-05
Xe	0.0001746995026124869	-1.9483179139225087e-05	0.002800616667244225	-0.001255784162307381	-0.009523955392122458	-2.933551481676363e-06
2
157600
Ar	-0.00014913941994951205	-0.0004511049322367462	0.003174723987097076	-0.024414852792753763	0.008134473502717923	0.0001298473055020638
Xe	0.00013794124665135964	-0.00010735236953711762	0.0028006330904088604	-0.005924432638106737	-0.007608277632489561	-9.308477012276441e-06
2
157800
Ar	-0.0003601562942016205	-0.00030942633211746446	0.0031761768759248567	-0.016774178552528492	0.01949974353287358	0.00013437255628988927
Xe	6.15812549843643e-05	-0.00016427989551811187	0.0028002868772819623	-0.008971150044467666	-0.0035025993974964185	-4.394363102971299e-05
2
158000
Ar	-0.00046853121484433124	-7.981700848378237e-05	0.003177128164427193	-0.004362124933058983	0.025309043193770683	4.341068378276133e-05
Xe	-3.250969944604453e-05	-0.00017414190347716423	0.0027999877648075904	-0.009393446816268169	0.0015689563541150503	-3.0511903089826018e-05
2
158200
Ar	-0.0004430649721186461	0.0001726857199251102	0.003176878847451773	0.00933976028442633	0.023928761643307286	-7.032923729469867e-05
Xe	-0.00011759757359496336	-0.00013430084612023143	0.0027997743528965393	-0.007220107632527157	0.006224457446790932	-2.1185021340987e-05
2
158400
Ar	-0.0002908611516725736	0.00037597894980518487	0.0031758591711688977	0.020361664552040352	0.01572355216365621	-0.00011513815947350493
Xe	-0.0001695553791040266	-5.589662472203479e-05	0.0027997675872747083	-0.002914419513471588	0.009094887306606908	1.434756673228737e-05
2
158600
Ar	-5.565480561422254e-05	0.00047195948834379486	0.0031746119211395842	0.025542466167736394	0.0029938919843447757	-0.00012057145226715411
Xe	-0.00017308280404768468	3.865170611580306e-05	0.002800380114455077	0.0022090659672757014	0.009365184860537735	8.934091113771753e-05
2
158800
Ar	0.00019519078489333854	0.0004330833128549439	0.003173751758497041	0.023407542261248117	-0.010575383395005866	-2.5790239601394368e-05
Xe	-0.0001273721004599682	0.00012224666247031627	0.0028011968180455937	0.006713801510231866	0.006932620914170592	9.002875637419768e-05
2
159000
Ar	0.0003905072157634703	0.0002708110831391232	0.0031740338776572556	0.014681646200540101	-0.021085468792155337	6.029174942553578e-05
Xe	-4.515805271237195e-05	0.00017054825082076053	0.002801802261470896	0.009306774832934886	0.00251105703386452	1.3556894722743359e-05
2
159200
Ar	0.0004746606199705456	3.121729959764094e-05	0.003174954551176782	0.0017572554039163328	-0.025655302502448237	0.000128286751393768
Xe	4.9779420434119755e-05	0.00017037513285428067	0.0028014916083584068	0.009218810322647975	-0.0025834407906610295	-7.574195392419039e-05
2
159400
Ar	0.00042372907888879905	-0.00021751624776761665	0.0031762359258030444	-0.011705813949824655	-0.02288691271292555	0.00010559479937626282
Xe	0.00013008383873135604	0.00012128871300084891	0.0028003688551099457	0.006491329384425843	-0.006974720825802929	-0.0001254143717548202
2
159600
Ar	0.0002517331044911064	-0.00040439888955303566	0.0031771695317621353	-0.021818014701858388	-0.013555174905213678	6.02342862864348e-05
Xe	0.00017336278357559816	3.749266673818417e-05	0.002799429889662974	0.0019395851537468293	-0.009373631947532346	-6.46515475381152e-05
2
159800
Ar	8.132036517463959e-06	-0.00047574145429988684	0.003177163292014327	-0.025708952120902233	-0.0003568036158508082	-8.09449085030479e-05
Xe	0.00016710440669216018	-5.730059237002547e-05	0.002799220450452189	-0.00315141161531094	-0.009114679030925499	4.001546352669008e-05
2
160000
Ar	-0.00023768395414780084	-0.00041105652673833115	0.0031759526833716246	-0.022251742565814317	0.012957431158465827	-0.00014261864434860343
Xe	0.00011321060238819343	-0.00013613964464699143	0.002799640705294234	-0.007384910427336098	-0.006252383847229901	3.7207891089374636e-05
2
160200
Ar	-0.0004157946237782365	-0.00022909942683996818	0.0031744959221674386	-0.012490800520795462	0.02256157043359291	-0.00012610103809672477
Xe	2.6595480552487497e-05	-0.0001761078516982544	0.0027999398528880974	-0.00951739332121065	-0.001563988444812928	1.814241830946355e-05
2
160400
Ar	-0.00047565616856350747	1.8227039618026606e-05	0.003173663285095257	0.0008256641609901304	0.02570638925803263	-3.0851359392678954e-05
Xe	-6.801738365061393e-05	-0.00016582584176328847	0.0028000019595023524	-0.008929637930460784	0.0035728941372513597	1.2546647280283324e-05
2
160600
Ar	-0.0003996576456426365	0.0002605260190644732	0.00317387542370616	0.013984995619825148	0.02157214404909215	4.6977224887567655e-05
Xe	-0.00014289671722118844	-0.00010824926047199364	0.0028002410098773144	-0.005701940788099389	0.007670554848691442	3.4939200627386014e-05
2
160800
Ar	-0.000209317533802236	0.0004289191819325417	0.0031744816341589383	0.023123635220588114	0.011275401517180612	7.6144518925526e-05
Xe	-0.00017676334015469448	-1.9637996396362244e-05	0.002800556694436201	-0.0008812989329981594	0.009593040615387136	2.715996608912113e-05
2
161000
Ar	4.05101162265605e-05	0.00047519765731149545	0.0031755889852514763	0.025626229526443504	-0.0022505708082542503	0.00012093520014487126
Xe	-0.00016008766256081142	7.453002303510165e-05	0.0028006752132590934	0.004115390019246143	0.008744961856077095	-6.2403752481689395e-06
2
161200
Ar	0.0002787542082259434	0.00038636247974779543	0.003176626458849881	0.020848385084825755	-0.0150888975065941	4.990394626618917e-05
Xe	-9.806484408562117e-05	0.00014706978073314857	0.002800428536873508	0.007973743524597858	0.0054235373174514835	-3.5681974976719306e-05
2
161400
Ar	0.00043739924012399	0.00018743504947059205	0.0031766550713593802	0.010108681977504112	-0.023696215303538475	-3.336008134235076e-05
Xe	-8.072045608251306e-06	0.0001778282432678569	0.0028000432143577983	0.009570095100675918	0.000555951022649545	-5.088090345091761e-05
2
161600
Ar	0.00047117878997967244	-6.481946865118338e-05	0.0031758846752831366	-0.003537718442279394	-0.025526900826691713	-0.00013113615923989266
Xe	8.431539354751253e-05	0.00015752861496203376	0.0027995915406477867	0.008451590907984098	-0.0045170001300556765	-3.307883470281217e-05
2
161800
Ar	0.00037001168676382095	-0.0002986554313750092	0.0031749420385402552	-0.016174968952595507	-0.0200867583759269	-5.804075368670493e-05
Xe	0.00015280201279848745	9.173093831645354e-05	0.0027996301773777843	0.00489834881910164	-0.008317285614818648	3.658564257667964e-05
2
162000
Ar	0.0001636414240609413	-0.00044762338030070794	0.003174494246713581	-0.024112310112066052	-0.008961322488271101	-1.2906768379655948e-05
Xe	0.00017751796112273118	-4.400356751633691e-07	0.002800259734200324	-7.570142157708887e-05	-0.009675279456110472	5.717289903033058e-05
2
162200
Ar	-8.911571104531635e-05	-0.00046901512639104567	0.0031746771795544203	-0.025218984141414623	0.004807707648011987	5.368824682559423e-05
Xe	0.0001514530776419858	-9.272219968657348e-05	0.0028008470100599546	-0.00500472861405636	-0.008305303859792407	5.7296973953619945e-05
2
162400
Ar	-0.00031670726592171363	-0.0003565221527775495	0.003175394025918948	-0.019196951886612367	0.017153359412636234	6.261284142207534e-05
Xe	8.258846033354803e-05	-0.0001586767947367939	0.00280103735691259	-0.008455465094531885	-0.0045558970907690925	-2.7433880158246517e-05
2
162600
Ar	-0.00045432260117133743	-0.00014248449907485074	0.003175740190026548	-0.007639292466060694	0.02458817726283899	1.433812657737643e-05
Xe	-9.634453312323645e-06	-0.00017925323513735513	0.002800457090401514	-0.009541715181837525	0.0005314753819778458	-7.153839160563895e-05
2
162800
Ar	-0.0004622326230910425	0.00011191088692428866	0.0031756954572860945	0.006089635450143005	0.025012361980357663	-6.978847671741286e-06
Xe	-9.889523904984759e-05	-0.00014861767349253743	0.002799644304951536	-0.007899340603205764	0.00542452539808058	-0.00012363095805533071
2
163000
Ar	-0.00033852040614557125	0.0003340129385301273	0.0031754739674687673	0.01807819188920507	0.01831440490341883	-3.6114882332358753e-05
Xe	-0.00016028899850044828	-7.578311690052283e-05	0.00279868033045233	-0.0040670263366132725	0.008773450010447582	-6.230502912298772e-05
2
163200
Ar	-0.00011829885343950945	0.00046083412138240567	0.003175236762836531	0.02491208462463215	0.0064105368460945465	-2.4952070765779078e-05
Xe	-0.00017585495238609666	1.8629422499429804e-05	0.0027983906751076716	0.0010118149447674056	0.009633728647304786	-9.169151295468297e-06
2
163400
Ar	0.00013573362399985105	0.0004560284690920862	0.003175207442386899	0.02464328653045405	-0.0073447520375210205	2.7532029737399097e-05
Xe	-0.00014114185000686837	0.00010773060876484086	0.0027986752360567796	0.005753105007779283	0.007762831524965287	5.3768860300275474e-05
2
163600
Ar	0.0003508916675954299	0.0003209480985002767	0.0031756192652432026	0.017359882424784732	-0.019027929364897066	8.128427490395209e-05
Xe	-6.620019549194041e-05	0.00016611154689734456	0.002799404181141045	0.008871969343477693	0.0036366156216983488	8.506824460745237e-05
2
163800
Ar	0.0004659323444611738	9.370314962042031e-05	0.0031764008269509207	0.005104197206002069	-0.025284475782777108	7.337796320763277e-05
Xe	2.7991318539032896e-05	0.00017698667758405718	0.0028004819320315393	0.009475639799124146	-0.001517170592871248	0.00010793536873521107
2
164000
Ar	0.0004482544520886096	-0.00016059070629232422	0.0031766265220326702	-0.008568465946114098	-0.024335464124847297	-1.924987372112928e-05
Xe	0.00011411646174343886	0.00013733149974437677	0.002801593264873066	0.007327006182909673	-0.006231546226909138	8.894668607678792e-05
2
164200
Ar	0.00030272931347970753	-0.0003692781910181153	0.003176181379035237	-0.019848179831501098	-0.016378781915767374	-7.715499716304829e-05
Xe	0.00016742631061532194	5.841381807066121e-05	0.0028018455819752096	0.0030735203455537104	-0.009150747630865265	-1.74465177712303e-05
2
164400
Ar	7.054680550537742e-05	-0.00047253475302933364	0.003175311670856738	-0.02545622883432569	-0.00374693126600718	-9.482215054040076e-05
Xe	0.0001726971114525746	-3.697224425096731e-05	0.002801326641582774	-0.0020435267993511035	-0.009450416488513332	-0.00010433002740463132
2
164600
Ar	-0.00018164679310759944	-0.00044094270064658355	0.0031745922754132065	-0.023796530150730605	0.009900413203528254	-3.6788027634698635e-05
Xe	0.00012883044680783154	-0.00012138302377220178	0.0027999879761664947	-0.0065183829969864765	-0.007049822444764167	-0.00017314248770883487
2
164800
Ar	-0.00038225405989653484	-0.0002837279127001236	0.0031747006452241175	-0.015334003153926001	0.0207590061456127	5.3048894977307336e-05
Xe	4.8487710377154e-05	-0.00017100541030219075	0.002798348367812169	-0.009158186306636356	-0.002655491307028225	-0.00013510965077981956
2
165000
Ar	-0.0004738413787974551	-4.5435085049312565e-05	0.0031754773427502023	-0.002512114606582878	0.025694888159034292	8.233106198663134e-05
Xe	-4.5735834225597234e-05	-0.0001717229291501956	0.0027975812086525114	-0.009230784291005338	0.002508210733726904	-1.5306888687585647e-05
2
165200
Ar	-0.00042967939584291143	0.00020547219257795987	0.00317609830936825	0.011104055794563665	0.02326619960870762	5.1796154621694826e-05
Xe	-0.0001269882400576883	-0.00012305661966851997	0.0027983710287046194	-0.0066279088670128695	0.0069543142507973305	0.00014630423658036092
2
165400
Ar	-0.0002625934783704952	0.00039758522686410015	0.0031764044869121016	0.021483740762430554	0.014210751723788814	2.378351037412068e-05
Xe	-0.00017194665110687013	-3.916471416387643e-05	0.002799863508043721	-0.0021549395975987143	0.009420066576661276	0.00014532613502820835
2
165600
Ar	-2.0638894373666843e-05	0.0004758519279005647	0.003176257535617158	0.025733430603983167	0.0010949592833035917	-4.2765091926139784e-05
Xe	-0.00016809774989405167	5.640684409218523e-05	0.0028011747215623706	0.002907044099453779	0.009189884613912081	0.00010825649693132922
2
165800
Ar	0.0002271467715449605	0.0004186544387943002	0.0031759139881052303	0.02262066382835074	-0.012273491982070062	-5.189841163422717e-06
Xe	-0.00011646793381449847	0.0001358612561806583	0.0028018593246434535	0.007161109134480756	0.006314754628185284	1.076590495602972e-05
2
166000
Ar	0.000410197851300837	0.00024212843442774102	0.0031756973845014063	0.013093046568685103	-0.02218406681742726	-4.1692985590774236e-05
Xe	-3.173919978591667e-05	0.00017638033167273346	0.002801604181921322	0.009398013089179848	0.0016040453244366417	-7.196114691911462e-05
2
166200
Ar	0.0004764381374351051	-3.892205670819227e-06	0.0031751599901364345	-0.0001844368204453794	-0.025800851737532698	-5.0247245323860613e-05
Xe	6.214529613302527e-05	0.00016653251620882308	0.0028007375463379256	0.008908408576411446	-0.0035202481236928885	-8.95291661643229e-05
2
166400
Ar	0.0004068392011731	-0.0002489807159838969	0.0031748537041475385	-0.013418026572100769	-0.022005235056988783	-9.081693709482317e-06
Xe	0.00013822399875789096	0.00010937311035951509	0.002799732203228246	0.005944029471063425	-0.007642474103334124	-8.282885987860904e-05
2
166600
Ar	0.00022129568056088422	-0.0004232203443620845	0.00317490814167272	-0.022786383504563162	-0.0119726569495225	4.652544064860922e-05
Xe	0.00017504697157723204	2.1015803285546056e-05	0.0027992478756777833	0.0012407277753968557	-0.009605906960531584	-3.164137441769969e-05
2
166800
Ar	-2.7306503715468363e-05	-0.00047661802087498105	0.003175662461385214	-0.025692013027190094	0.0015349514159317245	8.224469266663871e-05
Xe	0.00016177115246950168	-7.349839708904202e-05	0.0027991206336298673	-0.0038088399039268995	-0.008855907632253378	1.0130876387427267e-05
2
167000
Ar	-0.00026798159668106375	-0.00039401085293618845	0.0031763258343611342	-0.021245143592751616	0.01457292713902809	4.1912860906271085e-05
Xe	0.00010219356848205508	-0.00014746149650029548	0.0027993687327670493	-0.007793677713694003	-0.005576432750227304	2.3618588146682012e-05
2
167200
Ar	-0.00043192043045740255	-0.00019897955004962277	0.003176507155907243	-0.0107423130099859	0.023451136227346896	-7.191692008262985e-06
Xe	1.3282181091565869e-05	-0.0001795792601195921	0.002799807313434825	-0.009541231868099579	-0.0006799490641340597	4.592221325101926e-05
2
167400
Ar	-0.00047261934158097165	5.288277981760393e-05	0.0031760153613079063	0.002839535040659547	0.025675409563268498	-8.515213010270015e-05
Xe	-7.965586963949871e-05	-0.00016013740639564544	0.002800458359953739	-0.008566394997379028	0.004454947672525236	6.635511807289061e-05
2
167600
Ar	-0.0003781687757517196	0.00028990854547140255	0.003175229607869685	0.015597075025196657	0.020570563152291627	-7.431189598322858e-05
Xe	-0.00014999126052388188	-9.480840797365221e-05	0.0028008971171251873	-0.005141666718914076	0.008300144732864499	4.250300308154128e-05
2
167800
Ar	-0.00017579121335592967	0.0004444017270777687	0.0031746611650476588	0.02387250087381755	0.009572050791194138	-1.4343573263341453e-05
Xe	-0.00017753099042704736	-2.414329052960766e-06	0.002800981274025967	-0.00021792204144879872	0.009732071464138485	-2.1562217958338784e-05
2
168000
Ar	7.652398382763295e-05	0.0004723797159421252	0.0031747994426048684	0.02535561226928956	-0.004150573244951073	3.012381609003178e-05
Xe	-0.00015433170373596085	9.028205676339794e-05	0.0028004007267080568	0.004748024898445188	0.008335751991729116	-7.309618010903098e-05
2
168200
Ar	0.00030703252544776234	0.00036560138727248785	0.0031751969559942173	0.01960648340679094	-0.016669434519160604	5.186423704052665e-05
Xe	-8.700870018417785e-05	0.0001568718243707331	0.0027998278656119844	0.008400810403732693	0.004674402847659442	-5.8351886164846125e-05
2
168400
Ar	0.00044966774333589496	0.00015470930007608656	0.003176046885133312	0.00824508685443067	-0.024472796522864777	9.830380260277645e-05
Xe	5.671883539309385e-06	0.0001787882818477976	0.0027996423280838866	0.009673602170925062	-0.00037275771249582556	3.2459975829080424e-06
2
168600
Ar	0.00046386509960620733	-0.00010015435393976545	0.0031767695262087873	-0.005471046233396123	-0.025249421898045233	2.0230467155968732e-05
Xe	9.699653244126159e-05	0.00014952455410323568	0.0027996497812609418	0.008130133602955988	-0.005335656261648385	1.4013170412174863e-05
2
168800
Ar	0.0003455918035536024	-0.00032618342802915044	0.0031767061289216863	-0.017606849551721995	-0.018858008549028856	-2.973260712185555e-05
Xe	0.00016065809460902742	7.734455719050795e-05	0.0027997385687351943	0.004292963543072305	-0.008732370018609529	2.8389059104587847e-05
2
169000
Ar	0.00012870930096185498	-0.0004592467524257424	0.0031762595120743914	-0.024710295240898145	-0.007103731978902668	-5.483083471403832e-05
Xe	0.0001785181607430308	-1.6923975904190986e-05	0.0027996455395525085	-0.0007861863074279947	-0.009646219504705534	-3.302168684010501e-05
2
169200
Ar	-0.00012496604868289084	-0.00046130796905542574	0.003175675104127331	-0.02477740321499174	0.006706386457380156	-9.629719392750669e-05
Xe	0.00014566175534184232	-0.00010641739499385114	0.002799318984091464	-0.005620433920007532	-0.007822320044978272	-4.389645169568485e-05
2
169400
Ar	-0.0003432379530773484	-0.0003314598034480171	0.0031748459464548476	-0.017797768125749413	0.018615148932533163	-6.543527187721874e-05
Xe	7.110148273122841e-05	-0.00016576507921034654	0.002799087136253072	-0.008925947449859604	-0.003744982978845044	3.196692523760961e-07
2
169600
Ar	-0.0004639078138441142	-0.00010676746400114605	0.00317446872077504	-0.005727867045399206	0.025211649824453074	-3.774157655495972e-06
Xe	-2.4039440001145804e-05	-0.0001777627741756774	0.0027993513840373152	-0.009615658374770427	0.0014192626709393793	5.1007548190865546e-05
2
169800
Ar	-0.0004524004697409097	0.00014846536045853858	0.0031748061921473866	0.007973659917833106	0.02456926794709571	7.708855602920669e-05
Xe	-0.00011216745186468342	-0.00013883861516705322	0.002799973802241783	-0.00757493586931168	0.006165041034308858	7.294921964894044e-05
2
170000
Ar	-0.0003120042611393005	0.00036115391592542124	0.0031758290958679826	0.019426463196710604	0.016938415340729873	0.00012204112835414653
Xe	-0.00016810835099849723	-6.032279635303823e-05	0.002800353770332615	-0.003353662631150633	0.009142062399409578	-4.127502835588368e-06
2
170200
Ar	-8.275658955325629e-05	0.00047066966832539465	0.0031772575836810243	0.025321356509493225	0.004456088874552919	0.00012037731395719843
Xe	-0.0001762147671381315	3.5637158045245176e-05	0.002800074754443671	0.0017610926529073746	0.009576409770313037	-3.654962849527242e-05
2
170400
Ar	0.0001702233738064375	0.0004458472902128432	0.003177809245384734	0.024016173777372765	-0.009297673753101305	-2.1816780117055257e-05
Xe	-0.000134296233375416	0.00012195411954607411	0.0027995257094358367	0.0064189348037355706	0.007253397567099633	-5.6729845669493036e-05
2
170600
Ar	0.00037451917748496284	0.0002936671611430502	0.0031772237318888606	0.015841035540654348	-0.020394655500135337	-7.50302570307079e-05
Xe	-5.3948234893803944e-05	0.00017379466687173777	0.0027989515547011097	0.009285296065179399	0.002860356631204143	-1.953635412264363e-05
2
170800
Ar	0.00047184495789086213	5.740655893407604e-05	0.003176033863666108	0.0031574284559679174	-0.02568154783685319	-0.0001560312168925479
Xe	4.233413341570362e-05	0.0001762638561633031	0.002798999139383701	0.009495982438648317	-0.002361071629063556	3.3865783144275295e-05
2
171000
Ar	0.00043466140612516673	-0.00019558759899763358	0.0031746494037303914	-0.010411506546290828	-0.02366865098618264	-9.708389169541414e-05
Xe	0.00012661148292813867	0.0001288780103742876	0.0027993456656680506	0.006956801795360561	-0.006908332662343367	3.998549956263668e-05
2
171200
Ar	0.00027339908902188076	-0.0003929257228088117	0.00317402343819618	-0.02104241178499575	-0.014855644541564756	-2.728764435353502e-05
Xe	0.00017460611154532373	4.469219999910098e-05	0.0027999092818018793	0.0024341441912703043	-0.009528556251422014	6.148397798758615e-05
2
171400
Ar	3.399573648859022e-05	-0.0004784401630539206	0.003174019142445551	-0.02568295826507601	-0.0018191431498755495	4.065142438414731e-05
Xe	0.00017311485533322163	-5.221701424634192e-05	0.0028004251854584546	-0.002750364366895526	-0.009392116475390774	5.862218083433466e-05
2
171600
Ar	-0.00021541582968512342	-0.0004276594529305522	0.0031747881338336768	-0.02297223785505664	0.011745085822590632	0.00010607949595461077
Xe	0.00012214399999390432	-0.0001342815708871821	0.0028009696186747433	-0.0071906383714958454	-0.006617678609455525	5.584811423397827e-05
2
171800
Ar	-0.00040351554994904183	-0.00025468314696454954	0.00317565643274623	-0.013734583185104059	0.021998431640635436	8.028738640191438e-05
Xe	3.628018624349569e-05	-0.00017816525112645954	0.0028015736018170766	-0.009550677377632192	-0.0019591750672475106	2.77211745543579e-05
2
172000
Ar	-0.0004767176169907088	-8.752061014694177e-06	0.0031762130131828357	-0.0005601607273007931	0.02600117603554731	4.443659660069436e-05
Xe	-5.9743111369684525e-05	-0.00017150256589435885	0.002801324303545778	-0.009174212035736342	0.0032342817242485495	-7.006522948982206e-05
2
172200
Ar	-0.00041384061046703994	0.0002398398807016734	0.003176241137444485	0.01283141864899631	0.02250040606756449	-2.8959821914986583e-05
Xe	-0.00013847345062454494	-0.00011637971253969305	0.002800604944024228	-0.006188180672457139	0.007516888196085354	-6.02648173088771e-05
2
172400
Ar	-0.0002324428476790558	0.0004194870877016789	0.0031754592885828038	0.0225572227397744	0.01256585299088176	-9.903922184358372e-05
Xe	-0.00017781481279432988	-2.832327769949705e-05	0.0027997638522969126	-0.0014961380546074082	0.009673786418792598	-7.445469042455138e-05
2
172600
Ar	1.534250997098606e-05	0.00047896454577478194	0.0031745253278761074	0.02578877387894186	-0.0009597670506622177	-9.335198935596466e-05
Xe	-0.00016680062546408896	6.776816454153821e-05	0.0027990174708575084	0.0036535577694295452	0.009078173791443744	-4.750290755605441e-05
2
172800
Ar	0.0002589039327658422	0.0004015080739930167	0.0031740040593832334	0.021733388101274564	-0.01416334943505224	-7.717543200483008e-06
Xe	-0.00010814068494308609	0.00014471943213398628	0.002799137985168948	0.007813051672239323	0.005909705224608965	4.6868870413060034e-05
2
173000
Ar	0.00042871191584505514	0.00020924170703837504	0.003174367289759265	0.01138799001710083	-0.023347040512616997	6.478695842985885e-05
Xe	-1.8533022321193075e-05	0.00018042421272844116	0.0027999567404571645	0.009697020862042693	0.0010507785016960094	0.00010998224086469286
2
173200
Ar	0.0004756664103837969	-4.297945160417868e-05	0.003175282036742838	-0.002202868731911341	-0.025831183136827713	9.304730440688822e-05
Xe	7.648581586972041e-05	0.00016461437242027416	0.0028009498343010398	0.00885861926459628	-0.004137755617009132	6.756597317784915e-05
2
173400
Ar	0.0003869517513617475	-0.0002827111912222776	0.003176157978022552	-0.015125336418057083	-0.020943411385656717	7.80543644456145e-05
Xe	0.00014986511484865145	0.00010179898969918482	0.002801318681668225	0.005468982959040369	-0.0081252959431732	2.404561855288507e-05
2
173600
Ar	0.0001876116841700562	-0.00044160327939415494	0.003176292046782521	-0.02376170671707902	-0.01005713134447423	-4.736948491750087e-05
Xe	0.0001804765668452142	1.0010846770713732e-05	0.002801532115638616	0.0004991694191418879	-0.009768183259682917	8.637682063407458e-06
2
173800
Ar	-6.533676904853084e-05	-0.00047418131638779043	0.003175634504665966	-0.02558577573047758	0.003691715373073284	-8.121868415620422e-05
Xe	0.0001594451557458238	-8.438972153747844e-05	0.0028012311877734833	-0.004603093692207015	-0.008620940577481235	-6.810757824879176e-05
2
174000
Ar	-0.0002993823457293758	-0.0003713690440996128	0.003174772381693842	-0.02008260119187489	0.01633814843871128	-8.0269626448278e-05
Xe	9.28136163026208e-05	-0.00015432675484438002	0.00280042932010653	-0.00838960808706458	-0.005045326639223503	-8.366728770338126e-05
2
174200
Ar	-0.0004478221590429753	-0.00016287661705817214	0.0031744006674651894	-0.008872083834036797	0.02436009633950004	5.948269449036193e-07
Xe	-8.51544430194994e-08	-0.0001803879494608587	0.0027997544177468187	-0.009723689330837039	-4.136080235759247e-05	-3.855744592983608e-05
2
174400
Ar	-0.00046818881263457543	9.214406865593934e-05	0.0031744637984411216	0.004880095175947174	0.025392508703473808	2.7736993343345798e-05
Xe	-9.266807658340384e-05	-0.00015503484114636864	0.002799618849471946	-0.008321005627582825	0.004986042119999235	-9.799836341458054e-06
2
174600
Ar	-0.0003550420640300426	0.0003208427838012802	0.003174948780766309	0.017206368830481607	0.019192743657839722	5.5782345297463456e-05
Xe	-0.00015861607922830188	-8.531352300918434e-05	0.002799583871185566	-0.00453058459353287	0.00863624060077332	2.779604958836507e-05
2
174800
Ar	-0.000140264736932688	0.0004577556720613708	0.0031755862314864903	0.024685198105619203	0.007504251712112885	7.987340482761604e-05
Xe	-0.0001788294677892859	9.079872800109903e-06	0.0028000971678508006	0.0005746163749333831	0.009807917833257284	6.578746219653088e-05
2
175000
Ar	0.00011472690792638238	0.00046397579489864033	0.003175884774799133	0.025078918327260353	-0.006283430212772005	1.6996387630902746e-05
Xe	-0.00014785857448764545	0.00010108770419409263	0.0028008302204436206	0.005482848400547088	0.008150850156334849	6.357013922707714e-05
2
175200
Ar	0.0003369166632516602	0.0003377630172011319	0.0031758747908873703	0.018290613331551586	-0.018351384177772722	3.2705435087373516e-06
Xe	-7.46103714273359e-05	0.0001641875771316626	0.0028013301733831523	0.008798380232733239	0.00419051370826382	2.804420107546126e-05
2
175400
Ar	0.00046329345166609866	0.00011493720478249452	0.003175856792115052	0.0063552070685157	-0.025131227147052505	-1.8101301540672793e-06
Xe	1.9815938338258947e-05	0.00018060812100184636	0.0028012281402369633	0.009615328829636748	-0.000988017928982789	-4.557811815702543e-05
2
175600
Ar	0.00045759118386973614	-0.00014070380885347205	0.0031756065397985024	-0.00749302100726891	-0.024725428882539178	-5.243674580383525e-05
Xe	0.0001083732188982783	0.00014540869911230172	0.0028005867837246085	0.0076522289723169705	-0.005887135477958349	-8.668283514675046e-05
2
175800
Ar	0.00032073448950756223	-0.0003560636754893551	0.003174842982866547	-0.019206576588493132	-0.01726296696455853	-0.00010075637371064775
Xe	0.0001657434563951551	6.858880706308638e-05	0.0027999585703691937	0.0035558264509447986	-0.009115424128846302	-4.122479291833533e-05
2
176000
Ar	9.216077339628707e-05	-0.0004694936540936027	0.0031737514816551214	-0.025373242670672366	-0.004904217668494315	-0.0001008510933213332
Xe	0.00017580461285976484	-2.7775671373604366e-05	0.00279966696919995	-0.0015583987578548682	-0.009684316326660666	2.4375364858347903e-05
2
176200
Ar	-0.00016255775443733484	-0.00044936932059548985	0.0031733461534924888	-0.02432713663311601	0.00884826393093368	2.273289505337781e-05
Xe	0.00013578833997452495	-0.0001159218548947565	0.002800108259396673	-0.006234823690462336	-0.007510241196646332	3.714083883818884e-05
2
176400
Ar	-0.00037083346039307256	-0.00030101342360208005	0.0031740933631613957	-0.016298948285398795	0.020122681804291623	0.00013284765703865494
Xe	5.713638551269384e-05	-0.00017075440703013777	0.002800439371676279	-0.00910242014634282	-0.003198373141860938	2.5817026600421285e-05
2
176600
Ar	-0.00047314052263978945	-6.632530813198874e-05	0.0031754545663651474	-0.003658081567387724	0.025651020417411352	0.00014814692637242242
Xe	-3.748874149049548e-05	-0.0001768341627510814	0.0028005193838504835	-0.009356955803234202	0.0020330621182055777	2.007008166262363e-06
2
176800
Ar	-0.00044042337442561926	0.00018738458918958402	0.0031764693798072173	0.010058591576319177	0.023840664327607026	6.228471800809496e-05
Xe	-0.00012129822289448476	-0.00013204374640226328	0.002800463106078952	-0.006993272247437385	0.006713612597112168	-8.485052959272617e-06
2
177000
Ar	-0.0002819753664314329	0.00038761272266855793	0.003176585811248628	0.020869684096244186	0.01522409929135225	-4.788268915088337e-05
Xe	-0.00017057269349470127	-4.930102427457939e-05	0.002800629483692013	-0.0026312956558506143	0.00943041800096073	3.259406249065676e-05
2
177200
Ar	-4.2888590339836483e-05	0.0004772783403597225	0.0031755065952434837	0.025769484022722704	0.00227736050536767	-0.00012231810263510108
Xe	-0.00017128873930891966	4.748016017176609e-05	0.002800969724161285	0.002467686462900964	0.009455633437557589	3.2612420988603785e-05
2
177400
Ar	0.00020860993531778154	0.0004309819295744168	0.003174425225640375	0.023295192231926744	-0.011289991686404786	-7.23190837679659e-05
Xe	-0.00012339714367693943	0.00013052502360923546	0.0028011542386640366	0.00685175611205207	0.006753505975549631	-1.0436093272489909e-05
2
177600
Ar	0.00040059964490301024	0.0002620766239836305	0.0031742038766814085	0.014172715285478263	-0.021684798464537705	1.961664790051861e-05
Xe	-4.0689795126142265e-05	0.00017599597923548092	0.002800783423587011	0.009300913039896608	0.0021466069811716215	-5.210824489756712e-05
2
177800
Ar	0.00047844697510546376	1.8098665561014686e-05	0.003174658375318403	0.0009886366705671632	-0.025907626102486887	4.939607491894195e-05
Xe	5.340003497006655e-05	0.00017148032857936113	0.0028002051212796942	0.009075565000916115	-0.003042274798092651	-4.241803485251488e-05
2
178000
Ar	0.0004193559087626771	-0.00023102177803624506	0.00317505145718094	-0.01250897276675048	-0.022705174252125884	-7.720203185337239e-07
Xe	0.000132019645659209	0.00011804511031700789	0.002799970035629207	0.006270019291282587	-0.007384485514358919	-1.949280776013883e-05
2
178200
Ar	0.00024064373480158207	-0.0004139727798175075	0.003175012134748249	-0.022371349382719674	-0.012981509041624104	-2.315549920205442e-06
Xe	0.0001730955826690474	3.088298838054479e-05	0.0028001883532466493	0.0017231076399308232	-0.009637994724173824	2.9083354188533726e-05
2
178400
Ar	-6.621798060995031e-06	-0.0004784653766994473	0.0031751115471488752	-0.025849576590736816	0.0003813358437092464	2.4513624183110747e-05
Xe	0.0001649489682950644	-6.528369827356517e-05	0.002800614996715985	-0.0033402231935875095	-0.009123496107698859	3.402542781892233e-05
2
178600
Ar	-0.0002518169529170718	-0.0004066195340811948	0.0031751804377823036	-0.02200520890810509	0.013641550011749107	-1.328458138863724e-07
Xe	0.00010962255499484831	-0.0001428939144611618	0.0028007333219413483	-0.007452780061622099	-0.006024874162422388	-3.033027712095235e-05
2
178800
Ar	-0.0004255712618026261	-0.0002187674549519187	0.0031754612776605596	-0.01186566393919113	0.022996416066511437	5.3266918895358283e-05
Xe	2.2999017940586375e-05	-0.00017938573595776327	0.0028002700485486504	-0.0094403409172287	-0.001127453833210585	-4.623390979167248e-05
2
179000
Ar	-0.00047784019825521486	3.111464496862495e-05	0.003175872469188269	0.0016604501821140955	0.025772135195040635	1.814955211762595e-05
Xe	-7.026728055556838e-05	-0.00016459428986821312	0.0027999467888475604	-0.008719149298622709	0.004021923792703152	-2.647848022628615e-05
2
179200
Ar	-0.0003938460278524928	0.00027186219529916377	0.0031758419658296107	0.01470984110478227	0.02118125802499985	-4.132730218018729e-05
Xe	-0.0001436248079384594	-0.00010285970953272265	0.002800155892514323	-0.005571209815193046	0.008007357790278415	4.5848681893451405e-05
2
179400
Ar	-0.0001977529983776878	0.00043464257622163996	0.0031752409266978484	0.0235613036825581	0.010594012322528738	-3.127169761333329e-05
Xe	-0.00017603244786750994	-1.1763081342871799e-05	0.002800737284279422	-0.0007573303754073063	0.009758446791871838	5.615762652717405e-05
2
179600
Ar	5.490785690388901e-05	0.00047368205252292954	0.00317507045543653	0.025713251457829014	-0.0029810254562454273	1.560514716879292e-05
Xe	-0.0001581327295303185	8.266264521814996e-05	0.002801158899881162	0.004245801687029827	0.008666656780482323	2.4976867735076138e-05
2
179800
Ar	0.0002919396371536558	0.0003778332732782297	0.003175120054620218	0.020523088091599986	-0.015751736681721105	5.218066505800434e-06
Xe	-9.498946855170261e-05	0.0001533552118558796	0.002801138185462094	0.008039473786382645	0.005134590184530246	-1.1938449994279926e-05
2
180000
Ar	0.0004458210627740686	0.00017375061932611767	0.0031754175403285604	0.00947876522273099	-0.024035312951114825	2.2759753911935976e-05
Xe	-5.0938691339866225e-06	0.0001804764266766654	0.0028005746243005268	0.009506657921022767	0.0001468340164462563	-8.640690498590516e-05
2
180200
Ar	0.0004723823320062221	-7.98247704231988e-05	0.003175477518836514	-0.004324193935845654	-0.02543247578540223	-8.304101457046425e-06
Xe	8.628488141703543e-05	0.00015607565617907878	0.0028000189629797246	0.008319564425514602	-0.004916077220990037	8.120758155040655e-06
2
180400
Ar	0.0003636213866636926	-0.0003102862827096956	0.003175194372707568	-0.01688357279950177	-0.019537046839528133	-5.128853985256336e-05
Xe	0.00015319906358265988	8.669998588822459e-05	0.0028003515357209944	0.0047489532857392935	-0.008635148040661358	6.417964490640441e-05
2
180600
Ar	0.00015115706139452314	-0.00045184502521621343	0.0031748700505312057	-0.02454826403413651	-0.008089123320448121	2.488340361931081e-05
Xe	0.00017681163437873907	-7.910892106635414e-06	0.0028009942081637837	-0.00017189820433531614	-0.009806038178607424	4.868988238285745e-05
2
180800
Ar	-0.00010394208421644269	-0.00046450213680449074	0.0031754568820729053	-0.025250917692135062	0.005615884436260688	0.00011451561986592683
Xe	0.00015002673790645772	-9.997690338633493e-05	0.0028012502385396402	-0.005051966871665143	-0.008172669251656656	7.552105330298841e-06
2
181000
Ar	-0.0003297564315221863	-0.00034503416091446435	0.0031766198935149854	-0.018800221771030124	0.017721225246337718	9.041153118371794e-05
Xe	8.041200177579631e-05	-0.00016337057099022025	0.0028010581244097147	-0.008535741104903976	-0.0041941851761057155	-4.43941026135382e-05
2
181200
Ar	-0.00046155431278251737	-0.00012698443800809785	0.003177124004971041	-0.006891546493581542	0.02481998444517881	6.200586489291523e-06
Xe	-1.2452428238353797e-05	-0.00017991071531457288	0.0028004851641777544	-0.009583883822849705	0.000972736047026465	-6.60471417539285e-05
2
181400
Ar	-0.00046106349685333126	0.000127213995209722	0.0031766419520076203	0.006968294578449366	0.02476320604837668	-9.840886034729847e-05
Xe	-0.00010192970017251397	-0.000144690224976109	0.0027998940207981508	-0.00787006015996818	0.005898583851577754	-4.74155533344423e-05
2
181600
Ar	-0.0003290277707392257	0.00034464036808958665	0.0031755015301091925	0.018805568475359108	0.01764520252310224	-0.00012687000638784689
Xe	-0.0001623293983784174	-6.789558837762241e-05	0.0027995952120843364	-0.003917640546085447	0.009092005020875607	-2.3192908438111374e-05
2
181800
Ar	-0.00010325610352249245	0.0004636236203332833	0.0031746918740967267	0.02525637269550933	0.005558409632269188	-1.8091427942239093e-05
Xe	-0.00017639841578027818	2.840229564160594e-05	0.0027991051294734143	0.0011809169610571947	0.009682984006069657	-5.090901857417406e-05
2
182000
Ar	0.00015182488119464641	0.00045048124517667434	0.0031749632101159032	0.024538951382868424	-0.008099835407752696	5.453141614472098e-05
Xe	-0.0001400399748552425	0.00011655700833428342	0.0027986609051532684	0.0059263788396849565	0.007505625130644377	-2.5082644795913645e-05
2
182200
Ar	0.0003638959521405419	0.00030930194620601084	0.003175855326526559	0.01681967235214292	-0.0194648066501321	0.00010105281643453301
Xe	-6.351786142072195e-05	0.00017156836642966903	0.002798637006611654	0.008994669165107053	0.003190431191319092	3.691601441378708e-05
2
182400
Ar	0.00047204660885577694	7.974853605175193e-05	0.0031764565740199347	0.004277340236857873	-0.025327499779456027	-1.8472980977733227e-06
Xe	3.120271834888798e-05	0.00017769937480680923	0.002799482507699887	0.009503646484095398	-0.0020144289863910252	0.00012795853462737138
2
182600
Ar	0.00044522192515997493	-0.00017289660227730062	0.003175865388106555	-0.009489858220796756	-0.023961455794290598	-0.000115645036604248
Xe	0.00011709523971167254	0.0001333730230156471	0.002800969579303892	0.007251154536499694	-0.006651760063805952	0.00016220608538123168
2
182800
Ar	0.00029148363010745855	-0.00037646089756027617	0.0031747916818000567	-0.02049526919180807	-0.015753220691639615	-8.032904343563207e-05
Xe	0.00016952452640489908	5.0989426074557915e-05	0.00280235119048587	0.002941897444775987	-0.009415272459424346	7.144288289853461e-05
2
183000
Ar	5.472704173388346e-05	-0.00047307240280588733	0.00317459837139193	-0.025715183003995584	-0.003068946426794664	3.72436345693202e-05
Xe	0.00017334368456097974	-4.55664718478222e-05	0.0028023829403942303	-0.002191845424761439	-0.009438986259963818	-8.618453818012475e-05
2
183200
Ar	-0.0001983214713242226	-0.0004351146663495609	0.00317531677390321	-0.0236406212759203	0.010488350273683477	8.374243667369402e-05
Xe	0.00012774258356841153	-0.00012879970238638058	0.002801289508351506	-0.006718836513881365	-0.006780791540371407	-9.95216005507289e-05
2
183400
Ar	-0.0003948520628158586	-0.0002733857914550032	0.0031759374792936492	-0.014703522591320418	0.021091619824308804	5.63262062120694e-05
Xe	4.564910018140514e-05	-0.0001750553969461515	0.002800232733138648	-0.009315163188471214	-0.0022451570241364426	-9.10750783941214e-05
2
183600
Ar	-0.0004784991422455983	-3.3551986592661033e-05	0.0031759917135416554	-0.0016203899839170397	0.025697300592566495	-4.836625267635523e-05
Xe	-4.94744212140897e-05	-0.0001714735735938456	0.0027994439841033886	-0.009241580259289233	0.002906436477857081	-6.34481542887892e-05
2
183800
Ar	-0.0004256583783810098	0.00021559314592614707	0.0031752056468219037	0.011926367765668638	0.022918297128891114	-6.673965775451219e-05
Xe	-0.0001303930240588058	-0.00011951483792996101	0.002799086734985028	-0.0065445817448257955	0.00723573548109619	-1.544079844948003e-05
2
184000
Ar	-0.00025143468382610065	0.00040290919956796574	0.003174750024626623	0.022066448807222905	0.013650187501695984	-1.853581672301445e-05
Xe	-0.00017428851697761884	-3.388602453282426e-05	0.0027988912582386748	-0.0020076507681300866	0.00950853173857172	-5.687550611189193e-06
2
184200
Ar	-5.408228853145522e-06	0.000475339949440753	0.003174775263444092	0.02592547026526268	0.0004921289212831178	2.7133688590905578e-05
Xe	-0.00016841893247023835	6.14897753860442e-05	0.0027990090357070383	0.003144109249718855	0.009094471363115685	3.36199494834713e-05
2
184400
Ar	0.0002421760587428284	0.0004121695533433375	0.0031750819786336205	0.0223739515600941	-0.012812535347884768	1.97485348001546e-05
Xe	-0.00011435442570342453	0.00013902963199996054	0.0027996086996913525	0.00741507665410495	0.006029832485608442	9.781921522938601e-05
2
184600
Ar	0.0004204065788536181	0.00023121364125777656	0.0031752029063881735	0.01239161736373362	-0.02250786403902573	1.1866200494766749e-05
Xe	-2.736770740376428e-05	0.00017672613167247272	0.0028008514947972184	0.009548660330255091	0.0013162647262388342	0.00011676116865493399
2
184800
Ar	0.0004782190364917682	-1.58879738888793e-05	0.0031751883451759636	-0.0010975535854707238	-0.025703226782840722	-1.319130570060839e-05
Xe	6.733562517115634e-05	0.00016420029329320104	0.0028018996916469668	0.008937259052392565	-0.003753706194522377	9.282696108296549e-05
2
185000
Ar	0.00039971108240689725	-0.00025809924608001603	0.0031751831274253787	-0.014233663719128131	-0.02157673604107017	2.7536877982591962e-05
Xe	0.00014288665077392165	0.00010535422327498099	0.0028023637555742763	0.005794209788463148	-0.007745325693195476	-1.2682450074814757e-05
2
185200
Ar	0.00020740825388672023	-0.00042693175865108403	0.0031759111658161802	-0.023251909664541926	-0.011353913722983066	9.289505569724685e-05
Xe	0.00017766514358405567	1.6657617861197142e-05	0.002801597728276158	0.000997610128460276	-0.009556529619965974	-0.00013767317420392748
2
185400
Ar	-4.3516046141760864e-05	-0.00047421144059076547	0.0031765544199815966	-0.02571703336800389	0.00213622301135056	2.7318410839577482e-05
Xe	0.00016167918667205972	-7.640352624733704e-05	0.0027998938714317682	-0.004116908609085094	-0.008620849979368786	-0.00020441477801526036
2
185600
Ar	-0.0002822096751860395	-0.00038600916926106804	0.0031765426976842364	-0.02085028778220982	0.015058862884642397	-3.595463529516644e-05
Xe	9.925435806246584e-05	-0.0001478655939441471	0.0027984445226391986	-0.008065736332848981	-0.005340839278133432	-8.90399122280354e-05
2
185800
Ar	-0.00044016675051813985	-0.00018748326394357038	0.0031759443895767415	-0.009956778177432268	0.023680827799613613	-6.342571115648544e-05
Xe	8.06476383363565e-06	-0.00017776299712216387	0.0027983654021302377	-0.009728807593967412	-0.00048114120659438345	6.23107567310671e-05
2
186000
Ar	-0.00047192181035067814	6.489498051769447e-05	0.0031750772346634958	0.0037501662065822163	0.025558315832870795	-0.00011043876126024278
Xe	-8.591661188783528e-05	-0.00015717541464200138	0.0027992749004482924	-0.008600297389933908	0.004499903703774135	0.00012804569345320233
2
186200
Ar	-0.0003688991028423788	0.0002992568452365977	0.0031744758176998804	0.016352350561322528	0.020169186154466143	-1.4048316147554194e-05
Xe	-0.00015529993625813235	-9.17799464447569e-05	0.002800470588950784	-0.004964168506913814	0.008225509687957913	9.547708396951254e-05
2
186400
Ar	-0.00016079242507116022	0.00044844064351481173	0.0031747279178188925	0.024287547718567684	0.008927496029649306	6.568703734708033e-05
Xe	-0.0001804500793505058	-5.151013721681674e-07	0.002801414829769844	6.410393678639742e-05	0.009598921288297115	8.198525645441963e-05
2
186600
Ar	9.330022638661364e-05	0.0004695546953550252	0.003175092721873701	0.02528714823826392	-0.004836754072442804	2.3013273063847095e-05
Xe	-0.00015392566679283193	9.089379343384223e-05	0.0028019726070513088	0.005091021706625818	0.008236456799084484	2.6459038003287795e-05
2
186800
Ar	0.0003207177194882209	0.0003564418945782013	0.003175108971126444	0.01909647728886926	-0.01723465808679529	-7.471620105267607e-06
Xe	-8.343342212352742e-05	0.00015629294417666978	0.002802108803258139	0.008655561666997772	0.004519512321467919	-3.395693337152556e-05
2
187000
Ar	0.0004569167594171159	0.00014161083981922287	0.0031748120055847258	0.0074786963661086624	-0.02470383171706899	-3.685854245999108e-05
Xe	1.0869729523316507e-05	0.00017713552405976062	0.0028011601151583187	0.009756009563914607	-0.00044114509492563776	-0.00013994373869879426
2
187200
Ar	0.00046298614844547756	-0.0001138466614757654	0.0031746299524106234	-0.0062991514414238265	-0.025132670288956865	1.6915638071997687e-05
Xe	0.00010209958795318738	0.00014773962069940458	0.0027995182587905484	0.008046968768077558	-0.005331424655026975	-0.00015905220083467362
2
187400
Ar	0.00033708391371533344	-0.0003369625118829162	0.0031750514157254765	-0.018285018799028753	-0.0184050756911979	7.200830915093386e-05
Xe	0.00016403058788583036	7.575313308103217e-05	0.00279835368911502	0.004020079895338426	-0.008708269686306204	-6.569012845562524e-05
2
187600
Ar	0.00011522104194580988	-0.0004641626846172785	0.0031756985996533827	-0.02503180041451228	-0.006402698236060714	3.2861188622086425e-05
Xe	0.00017893523105485965	-1.8012158793003472e-05	0.0027983791425150043	-0.0011296221708230793	-0.009590632560517643	3.329591752445928e-05
2
187800
Ar	-0.00013942148138112513	-0.0004585735513935553	0.0031757254517563796	-0.024638580441494896	0.0074868647114100205	-2.939373835171568e-05
Xe	0.00014278760592901035	-0.00010692780217402726	0.0027992622147695627	-0.005916508233347075	-0.007720165281444768	0.00015977329343910064
2
188000
Ar	-0.00035395774009842993	-0.0003218486845077561	0.0031752584502239157	-0.01721804546187922	0.01917436559280626	-3.7118665877829295e-05
Xe	6.607963939927986e-05	-0.00016530232671154848	0.0028013479145608086	-0.009060879354776633	-0.0036655069481233847	0.00022049639865341007
2
188200
Ar	-0.0004675278026220129	-9.361595267588863e-05	0.003175028362334737	-0.004953031522459555	0.025376093642746816	-1.5931575503829356e-05
Xe	-2.93944803866632e-05	-0.0001765541913359377	0.002803059765161549	-0.00956334296767969	0.0014749316982702251	0.00012052324654463456
2
188400
Ar	-0.00044820060820496566	0.0001612880970438636	0.003174972138558095	0.008719141592294935	0.024379042284998372	-9.506867908022637e-06
Xe	-0.00011580781594471328	-0.00013777021385059357	0.002803205491589372	-0.0073409453260680066	0.006105364687836516	-8.934525683627831e-05
2
188600
Ar	-0.0003012245753706399	0.0003704647794225926	0.0031750671008005113	0.01995994859937482	0.016417965318834035	-2.6256380534257358e-05
Xe	-0.00016925304642064913	-6.0016474860694355e-05	0.002801509635709485	-0.003067490235027369	0.009081780511895924	-0.00018863861812155468
2
188800
Ar	-6.801493271815814e-05	0.00047391349915444566	0.003174746179459736	0.025542136141572	0.003757675095223728	-4.0356712863639176e-05
Xe	-0.00017415210584655278	3.519358147414701e-05	0.0027996840051989938	0.002102600919411554	0.009503352906396855	-0.00015280806269414392
2
189000
Ar	0.0001845517358107392	0.00044202209066051564	0.003174435903844964	0.02372498446597142	-0.009970756103986778	-8.446646680849281e-07
Xe	-0.00012916768277373565	0.00012066829407893367	0.002798749688353379	0.0066489248911728175	0.007172510243103734	-2.1258308844807386e-05
2
189200
Ar	0.00038374574656905723	0.0002841158674201404	0.0031746298421710508	0.01516113628203304	-0.020837618948461957	3.8872962396528365e-05
Xe	-4.749163742308895e-05	0.00017148929165491074	0.002798876024699015	0.009316651223613987	0.0027454260131448784	2.2505057283355714e-05
2
189400
Ar	0.0004735389350435701	4.534987171886812e-05	0.0031752787951588985	0.0023246034397004928	-0.025753616892670948	7.410091124046342e-05
Xe	4.795848387687218e-05	0.00017303557334275515	0.0027992605952936013	0.009296781256612758	-0.002444478913113849	5.212007960474818e-05
2
189600
Ar	0.00042796470063039015	-0.00020611646210025092	0.0031759418166469456	-0.011218439479174792	-0.023324933338198843	5.841982122165913e-05
Xe	0.00012966123235082658	0.00012543109045081452	0.0027998406999296386	0.0066578918978572686	-0.006874100907842895	4.958642165205418e-05
2
189800
Ar	0.0002599875200891086	-0.00039865079209118974	0.003176373832090196	-0.021548342618993938	-0.014244365660756673	5.700973816729019e-06
Xe	0.00017445877739872	4.189697245519589e-05	0.0028003145921384064	0.0021045061397478738	-0.009422094379929363	4.466208520811311e-05
2
190000
Ar	1.7785332021861607e-05	-0.00047731403012085666	0.00317585696690736	-0.025719119634747538	-0.0011156711856927142	-0.0001170525200679454
Xe	0.00016937366214426306	-5.382522314741459e-05	0.002800468000850837	-0.00306770592437848	-0.00923767761451879	-1.2363400245314313e-06
2
190200
Ar	-0.00022966535586146228	-0.0004198347182058754	0.0031745635699334464	-0.02254275255798652	0.012343649681154435	-0.00011778448318459156
Xe	0.00011615214430935384	-0.00013380755807173826	0.002800434553911668	-0.0073093429248928775	-0.006362603855140524	-9.749212115992749e-06
2
190400
Ar	-0.0004114841477591757	-0.00024247075793420748	0.0031736334343253902	-0.012939634546401202	0.022265144427622067	-5.639713485183178e-05
Xe	3.0236739141171435e-05	-0.00017524799675439922	0.0028002877116362398	-0.009464916686410974	-0.001727314357585431	3.1021912996416156e-06
2
190600
Ar	-0.00047601632207099406	4.2574518005563e-06	0.0031735693213054473	0.0003467172909470135	0.025886700608624923	7.414891252274099e-05
Xe	-6.403782005438223e-05	-0.00016666148874473492	0.002800183836234881	-0.00893297488104907	0.0033899129980193123	-2.7329027965013943e-05
2
190800
Ar	-0.00040493065072882533	0.0002502957131322353	0.0031748628481237844	0.0135324383126538	0.02211416715484231	0.00014577650267959044
Xe	-0.00013988266128279043	-0.00011072122445392712	0.0027998646517292825	-0.005863882620187929	0.0075355078422090545	-1.6146975177131874e-05
2
191000
Ar	-0.00021840492602795476	0.0004252441639249104	0.0031761712281220666	0.02285152078222476	0.012007185710156515	0.00010188044406755455
Xe	-0.0001755712070836066	-2.3029230585753876e-05	0.0027999754491372913	-0.0010842412026349684	0.009595843232717081	1.2458705536103007e-05
2
191200
Ar	3.0138794184747925e-05	0.000478639797800698	0.003176607030347484	0.025645206113241087	-0.0015699588125893608	-1.592142561835476e-05
Xe	-0.0001608905725632203	7.165446511438196e-05	0.002800279548751405	0.00393797972875982	0.008867413840505106	5.69845053352365e-05
2
191400
Ar	0.0002696997181643656	0.00039556628446093617	0.0031757819181109396	0.021082514802079733	-0.014640350476086911	-0.00010194674546710656
Xe	-0.00010040450745526368	0.00014584824195288762	0.0028009144941731063	0.007853193911071553	0.005582556637935861	4.4726216968381065e-05
2
191600
Ar	0.00043189095523667485	0.00019977647769790928	0.0031749992765963747	0.010551988120877695	-0.02353413688677904	-5.6855111041625836e-05
Xe	-1.128888856369744e-05	0.00017820969523643253	0.0028011237891784396	0.009526252375466398	0.0007191670783358271	4.405928678647215e-06
2
191800
Ar	0.0004708166318358315	-5.2854040671278024e-05	0.0031747905013240433	-0.0029519537604646155	-0.0257627956970426	3.415778817231805e-06
Xe	8.088028851212512e-05	0.00015952305087943132	0.002800563555412435	0.008444506202257963	-0.004357895842448268	-9.720731399532531e-05
2
192000
Ar	0.0003755494928408385	-0.0002905591964998417	0.003175132483823455	-0.015638297569982435	-0.020638392535572845	4.0712421088058085e-05
Xe	0.00014995783327322718	9.535201621164631e-05	0.0027993394471240744	0.005043134372068474	-0.00817463849250844	-0.000106764345654474
2
192200
Ar	0.00017318205266733845	-0.00044524897379922087	0.0031755842676752374	-0.023842467090998232	-0.009541041344728723	5.720781615702929e-05
Xe	0.000176664173608669	3.8574126548288896e-06	0.002798849711520743	0.00015840246662525393	-0.009658620077742801	2.6230231217030373e-05
2
192400
Ar	-7.835557557331738e-05	-0.00047236334862598724	0.003176022362952743	-0.025251697520845766	0.00424659480792395	3.450584368889766e-05
Xe	0.000153023542069959	-8.890187264984072e-05	0.0027996409632467956	-0.004757202123931032	-0.008431983698711688	0.00013683297601657134
2
192600
Ar	-0.0003077076673922829	-0.0003646577823895113	0.003175999298816681	-0.019514721600104555	0.016740941638000096	-3.0545526862568655e-05
Xe	8.581214544752848e-05	-0.00015652997550823477	0.0028008795471774752	-0.008339478005647384	-0.00475402276151129	9.703064117269661e-05
2
192800
Ar	-0.0004494950181461007	-0.0001531053978966855	0.003175640471454156	-0.008150520519886673	0.024524989024830624	-4.19768501483135e-05
Xe	-5.711754502444116e-06	-0.0001793330116768967	0.0028010835154596058	-0.00950890204064334	0.00029263402780685524	-4.381809576270349e-05
2
193000
Ar	-0.0004630345061643703	0.00010238713274434094	0.0031756399356688285	0.005498916483371479	0.025290960855222134	-2.588046514415632e-06
Xe	-9.570856425262441e-05	-0.00015110814911140522	0.002800334900227545	-0.00804889314279516	0.005205167408522782	-8.767962365096374e-05
2
193200
Ar	-0.00034431263406682974	0.000328555151568703	0.0031755439757877074	0.017661594444838218	0.018830713439270272	7.317565734075961e-06
Xe	-0.0001590040191767991	-8.006635419479684e-05	0.002799572981572727	-0.004265278486990888	0.00866408724732759	-6.335989429421397e-05
2
193400
Ar	-0.0001268294659205221	0.0004607028083289699	0.0031752454745760587	0.024755147087896265	0.0069689700815991395	-4.5709950647976773e-05
Xe	-0.00017697135650814727	1.3946254463757623e-05	0.0027992462248447574	0.0007589653806067483	0.009656378072039997	-2.9258310174553486e-07
2
193600
Ar	0.00012714587769405738	0.00046128148259969183	0.0031748556555963306	0.02480101304576745	-0.006859117978520276	-3.5830493301385344e-05
Xe	-0.0001440759251165387	0.00010383922379801706	0.0027997228449435424	0.00563240977601975	0.007893936100617614	7.543906027900384e-05
2
193800
Ar	0.00034501718811105585	0.0003303908253432773	0.003174475651578897	0.017725028011209152	-0.018688646702198785	-1.5440112169600327e-05
Xe	-6.970775653746102e-05	0.00016409781675726383	0.002800454756639731	0.008851462088421367	0.003872819222271023	7.645431627347065e-05
2
194000
Ar	0.00046489180212236445	0.00010532269420951254	0.0031743737726869377	0.0056395675074767055	-0.025229074886281216	4.847385252698818e-06
Xe	2.425605241093967e-05	0.00017749487060292335	0.0028013973258127866	0.009483287430859577	-0.0012458131244218803	9.168959729145757e-05
2
194200
Ar	0.00045225064397955443	-0.00014988594972991276	0.0031748272997521526	-0.008097247057120031	-0.02455022521006642	6.330815347377652e-05
Xe	0.00011114341802559986	0.0001404453051001803	0.002801789951571494	0.007466240591006183	-0.0059842577838611025	-1.2055529232364105e-05
2
194400
Ar	0.000310728835988982	-0.00036214480203765467	0.003175658438247096	-0.0195083585003337	-0.016879793503230513	5.38919327807297e-05
Xe	0.0001664616818627882	6.375169349548133e-05	0.002801240398444275	0.0033360690879419234	-0.008996136882666199	-8.823626077519944e-05
2
194600
Ar	8.06082166201309e-05	-0.0004711217376838848	0.00317594250902936	-0.025381766881115427	-0.0043885494449741585	3.2519006369490224e-06
Xe	0.00017439314453250522	-3.090354282408181e-05	0.0028004105510928278	-0.0017908146152602034	-0.009485196790595394	-6.267761382261765e-05
2
194800
Ar	-0.00017230593757392012	-0.0004457570188511785	0.0031758170522895443	-0.023972843793901355	0.009334304342575542	-2.4525081674271404e-05
Xe	0.00013247804311197563	-0.00011675802408527302	0.002799694899049907	-0.006396241971252398	-0.007268610342172433	-5.9274136721052084e-05
2
195000
Ar	-0.00037587818085016694	-0.0002931797968782576	0.0031755138398102253	-0.01573369142701661	0.020408653872562695	-3.687141993520482e-05
Xe	5.2460217001035795e-05	-0.00016938851785746145	0.002799275398699662	-0.00921968705634205	-0.002982473301898027	-1.4972262589428437e-05
2
195200
Ar	-0.0004718326177800702	-5.6981403635530214e-05	0.003175513380750071	-0.0030180412600031305	0.025671367012700164	1.3074570438894805e-05
Xe	-4.307248145775868e-05	-0.00017332169584295367	0.002799089681619644	-0.009392247786885055	0.0022054502127435496	-3.269047097122948e-05
2
195400
Ar	-0.0004332684858423097	0.00019556256683007098	0.0031756553303680067	0.010539873160270314	0.0235914066332101	-5.053891334323856e-06
Xe	-0.0001263063732288955	-0.0001275135585260806	0.0027991605945327587	-0.006862025029709442	0.006714952104218384	3.645035326186619e-05
2
195600
Ar	-0.00027119767225406485	0.0003923154680768354	0.003175390832749401	0.021089003442205545	0.014786769279610246	-1.2142043652691017e-06
Xe	-0.0001736915505483795	-4.550902478225761e-05	0.002799382628351223	-0.002367031049719206	0.00929627635356716	3.346718524918687e-05
2
195800
Ar	-3.163419756825897e-05	0.00047730647009130154	0.003175440874675398	0.025647366644376102	0.0017675742728199622	-1.914750483210187e-05
Xe	-0.00017139549194338901	4.966987925770314e-05	0.0027999698395216213	0.002807871850378278	0.009265880746930234	8.359857715724918e-05
2
196000
Ar	0.00021698872950429474	0.0004260409127646636	0.003175011771646068	0.022851218282394857	-0.011793793170022535	-4.690570329994572e-05
Xe	-0.00012023442108777987	0.00013107499403517084	0.002800934364598551	0.00718028841183687	0.006613324641646419	9.7051015717309e-05
2
196200
Ar	0.00040354864295485217	0.0002530102257095993	0.003174735033578541	0.013567728434996233	-0.02198298537226584	1.4607639620805022e-05
Xe	-3.479333377124449e-05	0.00017518953196062702	0.0028019142373901496	0.009468409422086405	0.0020024072729495097	6.996753865513456e-05
2
196400
Ar	0.0004753800842128943	7.907151889452107e-06	0.0031751266156359215	0.00044954692527720256	-0.025843161582983644	5.8944930425118193e-05
Xe	6.017081970859848e-05	0.0001692825921185725	0.002802199783700092	0.009055359867364814	-0.003162632445416131	-9.264240590308306e-06
2
196600
Ar	0.0004121594222777387	-0.00023965405192140338	0.003175675449871166	-0.012810809459740871	-0.02243848075969573	5.789129349640795e-05
Xe	0.00013797527485544142	0.00011499802972142804	0.002801503973586137	0.006117792192685538	-0.007410153550768539	-0.00011346505799261884
2
196800
Ar	0.00023147555322759172	-0.0004190612716766812	0.0031758898238124413	-0.02245977626378625	-0.01255112957146775	-1.4627808321496113e-05
Xe	0.00017682096490770563	2.8044754976885616e-05	0.0028003730304002124	0.0014272697595438305	-0.009558007313944863	-0.00010793168832093207
2
197000
Ar	-1.5523071923194014e-05	-0.00047883519768968064	0.0031753796606890953	-0.02570423499087404	0.0008973847646157834	-5.858651858988172e-05
Xe	0.00016549249280879257	-6.685049025623497e-05	0.0027995078228964907	-0.0036731774612368813	-0.008980578563190263	-5.5614374163567655e-05
2
197200
Ar	-0.0002579373537122117	-0.0004020527576574247	0.0031750653282820846	-0.021600686096667574	0.014113171493634663	-8.532592888454281e-06
Xe	0.00010693433233326906	-0.00014274784302803064	0.0027992761747571183	-0.0077588622984200405	-0.005846693814840526	-1.0361791465029697e-07
2
197400
Ar	-0.0004267516834465898	-0.00021041864989222706	0.003174915102475756	-0.011340354660370464	0.02326610233800512	-1.053144140143634e-06
Xe	1.781578622049148e-05	-0.00017804341858594026	0.0027994975852202214	-0.009624555633048697	-0.0010482972578991063	3.115351148449039e-05
2
197600
Ar	-0.0004740300610685517	4.095460830548351e-05	0.0031752444456828554	0.002127878146396193	0.025803919507427376	8.160169847171641e-05
Xe	-7.642468752321505e-05	-0.00016279536914179466	0.00279988187587064	-0.008770682082315913	0.004025225883034162	4.497874365925811e-05
2
197800
Ar	-0.00038618851947412635	0.0002807513706011392	0.0031762175997683572	0.015029403736513533	0.02097764114234501	8.65911844599972e-05
Xe	-0.00014913067254836008	-0.00010102024824338711	0.0028003553579333943	-0.005416659112869945	0.00800988734358493	4.714294849555019e-05
2
198000
Ar	-0.0001878931797102762	0.000440137774139607	0.0031766477947120764	0.023627047202393395	0.010123507373135944	-3.144369982430812e-05
Xe	-0.00017955664999997614	-1.02910120544077e-05	0.0028010034844968617	-0.0005182638207190504	0.009711577231956588	7.969731683963047e-05
2
198200
Ar	6.39884964940032e-05	0.00047363487350487413	0.0031761467634058176	0.02551577600057788	-0.0036031367848377216	-9.797427167714067e-05
Xe	-0.00015901834495368633	8.370978633929805e-05	0.0028017861852003027	0.004529725309222934	0.008620135385888057	7.499022709127466e-05
2
198400
Ar	0.00029758541939147994	0.0003717139920831417	0.003175150253788585	0.020088601169901157	-0.016279307470113573	-9.233132878302166e-05
Xe	-9.331289063367203e-05	0.00015388914729149662	0.0028019743347381205	0.00826989702094288	0.005063905982451181	-4.4099731955280186e-05
2
198600
Ar	0.0004467272008905938	0.00016368317195125502	0.003174519762427803	0.00899761413374652	-0.024300789394890044	-1.0371899750716768e-05
Xe	-1.6422568784819274e-06	0.00018034685605445588	0.0028011407499023244	0.009615974560859167	5.737225542360182e-05	-0.00010530474983811054
2
198800
Ar	0.00046856849034921386	-9.101912648715009e-05	0.003174539886461859	-0.004746365698262195	-0.02540050248315055	-1.787112577390602e-05
Xe	9.017311682646867e-05	0.00015531200063203152	0.002800070305546852	0.008299635571375003	-0.004945017562773352	-8.666620917841645e-05
2
199000
Ar	0.0003565255273868951	-0.00031970724101515105	0.0031742003337892834	-0.01710552498240529	-0.01921441756879708	-3.751301377559939e-05
Xe	0.00015621836851506006	8.602673084818593e-05	0.0027995967094486627	0.004575337990746173	-0.008554955617468276	-4.3722657368411915e-05
2
199200
Ar	0.00014272926396882534	-0.0004569525295014456	0.0031739646883453434	-0.024579738891232238	-0.007547940507438843	-1.0300981814519721e-05
Xe	0.00017744750220342984	-7.680498956216507e-06	0.002799447223906835	-0.000422231150210403	-0.009733509338098911	1.5528826365071333e-05
2
199400
Ar	-0.00011161860490048105	-0.00046335371638542484	0.0031743560417833846	-0.025046156749781872	0.00628045741964457	8.016007976798163e-05
Xe	0.00014782629139751692	-9.929087417325016e-05	0.0028000202213414164	-0.005326748043752217	-0.008128789130980462	7.268335566430868e-05
2
199600
Ar	-0.00033427880265677034	-0.00033729758779046606	0.003175490551986552	-0.01840472796553962	0.01829940667211429	0.00012052086349946185
Xe	7.622279674262721e-05	-0.0001623991478365698	0.002800550163324452	-0.008652107261781195	-0.004189089900305393	2.5459171885660122e-05
2
199800
Ar	-0.0004618879792774403	-0.00011504801570456333	0.00317643054244474	-0.006475834416460082	0.025055775369185823	5.011786547725343e-05
Xe	-1.705949377810023e-05	-0.00017907434720423147	0.002800689215651297	-0.009552243628415473	0.0009495122109330777	-1.0114028802682929e-06
2
200000
Ar	-0.00045736294621869536	0.00013989574211276129	0.003176473888181591	0.00736311029158625	0.02469311825037268	-3.66982938217099e-05
Xe	-0.00010570061211970866	-0.00014458728539332088	0.0028005984948229526	-0.007727220306776492	0.00578746464304186	-1.088489971597297e-05
2
200200
Ar	-0.00032178223375508793	0.0003548212123943265	0.003175639575226803	0.019090454518068588	0.017231775836162255	-0.00012113046772128732
Xe	-0.00016413318293959732	-6.841657548484443e-05	0.0028005436780216063	-0.0036850274667407186	0.009052542892032183	1.1927834963041659e-05
2
200400
Ar	-9.404308043658992e-05	0.0004682200734950123	0.003174153079641136	0.02534937545085178	0.0049101868507015565	-0.00014411888353750067
Xe	-0.0001758406862185317	2.7487922600447797e-05	0.0028007463981969257	0.0014055913985457052	0.009670698776678328	2.6551358826871815e-05
2
200600
Ar	0.00016080869869434112	0.0004480897003939629	0.003173397202221628	0.024387197554727992	-0.00882414656727844	-1.4031870007430197e-05
Xe	-0.00013740462946931208	0.00011564300787186325	0.0028008563336002993	0.0060916529221800055	0.007508846093545428	-3.286702923736579e-06
2
200800
Ar	0.0003701750494715357	0.000300307539846614	0.0031739089830143488	0.016455874454707493	-0.020027461530319528	9.41958407184532e-05
Xe	-5.994163381000913e-05	0.00017036528758743744	0.002800481237601928	0.009027368190481135	0.0031765716570915617	-7.144173336878819e-05
2
201000
Ar	0.0004737197312358176	6.675342465170126e-05	0.0031748769785738327	0.003789273895319042	-0.02555209514417827	7.15220056511041e-05
Xe	3.4690206861141547e-05	0.00017642610144205325	0.002799943708711722	0.009473846033442113	-0.0020002355974063192	-2.1794669107834015e-05
2
201200
Ar	0.0004419251850240788	-0.0001858259771167458	0.0031756304751093998	-0.010010357286313807	-0.023713463538765068	6.933429531788214e-05
Xe	0.00012014182583634041	0.0001322494593631268	0.002800174704658718	0.007218074965121149	-0.006645723887255053	6.224278838068397e-05
2
201400
Ar	0.00028343081522222473	-0.00038501374513128656	0.0031758591170475063	-0.020914483482461787	-0.015156921237994517	-1.579573062376656e-05
Xe	0.00017169281811959394	4.994883101440036e-05	0.0028009827129345283	0.002829769761569656	-0.009423858543302546	6.353802280134594e-05
2
201600
Ar	4.3924205706614376e-05	-0.0004742358472803059	0.0031755654110937046	-0.025834795780097477	-0.0022678651225042025	-4.742811372173177e-05
Xe	0.00017406885470903243	-4.699920871421447e-05	0.0028012537447552233	-0.0023542647945244397	-0.009484173875302973	-2.931011671439702e-05
2
201800
Ar	-0.00020828862810268493	-0.0004280829881826413	0.0031753083974697866	-0.023394568582922184	0.011270738417332227	-2.4434969808895666e-05
Xe	0.00012701983518057032	-0.00013034772565529015	0.002800643658077221	-0.006851992580133488	-0.006767080279350875	-9.715741631911809e-05
2
202000
Ar	-0.0004012625373141593	-0.0002597900759460349	0.0031749600763039897	-0.014240892504847419	0.02157582815761753	-2.4229566937010516e-05
Xe	4.3571420247311194e-05	-0.00017613573392900417	0.0027996755880749552	-0.009443261371172445	-0.0021670099314839873	-6.576906838035834e-05
2
202200
Ar	-0.00047924998548934817	-1.7453468535283593e-05	0.003174766298904694	-0.0009903440194169726	0.02570694482772629	-3.582416424182263e-05
Xe	-5.271529182751116e-05	-0.00017182222156812116	0.0027993585923985352	-0.009340207638289029	0.0030467139315943255	1.0077965128003178e-06
2
202400
Ar	-0.000420062279356073	0.00022950215227241958	0.0031745037246093807	0.012513425227501436	0.022476351861097737	-1.5616233759047537e-05
Xe	-0.00013410473781284764	-0.00011798760617618988	0.002800011250169107	-0.006525514299030225	0.007464355318945043	0.00011194195394291494
2
202600
Ar	-0.00024092600136140004	0.00041069686044379195	0.003174874283357983	0.02242508484680787	0.012883893111994022	9.033689955035662e-05
Xe	-0.0001770780479257837	-3.0026294654947147e-05	0.0028009510318760555	-0.001856243977833173	0.009675930369004734	6.593166255292839e-05
2
202800
Ar	7.308891142100874e-06	0.0004748678436849946	0.003175932137486769	0.02600981401374368	-0.0003680366844735322	9.137476435290104e-05
Xe	-0.00016947325177355335	6.636090752520872e-05	0.0028012689539124833	0.003353492362700861	0.009142071111651637	1.2046870905645816e-05
2
203000
Ar	0.00025398475616703254	0.0004037014749443097	0.0031768463008711467	0.022106967638850124	-0.013520624000941171	5.790676715747444e-05
Xe	-0.0001136562416582189	0.0001438976768125586	0.00280122675062176	0.00756313223930883	0.00598592931682428	-1.2142009777322562e-06
2
203200
Ar	0.0004278457337428293	0.00021720491974246386	0.003176500240103985	0.011804284747540235	-0.022853630044611654	-0.00012064740177692293
Xe	-2.543904674093358e-05	0.00018050289903919474	0.002800954775366533	0.009647525431746927	0.0011704904838838594	-4.303122048519907e-05
2
203400
Ar	0.0004785589994440786	-3.1691497137130905e-05	0.0031748035463822436	-0.001875796224687919	-0.025684273779049277	-0.00020330249058618473
Xe	7.001676400248315e-05	0.0001659825413112641	0.0028006241083000883	0.008977707744093708	-0.003990631599620895	-1.8041671831331837e-05
2
203600
Ar	0.00039208622194028455	-0.0002719413606386005	0.0031729508000713745	-0.014969486022774389	-0.021177439560636398	-0.00014111974069320234
Xe	0.00014544814961913987	0.00010436689803605539	0.0028006275174433087	0.0057141614542891945	-0.008020133890748923	4.842938025701281e-06
2
203800
Ar	0.0001936662467125927	-0.0004347933835321301	0.0031723848426997783	-0.023729355652561027	-0.010593924830226824	4.402428789097878e-05
Xe	0.00017909009021401732	1.3281787679343307e-05	0.00280071661327082	0.0008701596896346985	-0.009748054899385407	-2.129315444106156e-05
2
204000
Ar	-6.004906954612432e-05	-0.00047389303181320737	0.003173943960742088	-0.02577003171007678	0.002995185806349447	0.00022967073914176428
Xe	0.0001617469012744309	-8.159564823632328e-05	0.0028005831510811373	-0.004256056982554568	-0.008714018170287573	-2.7962474950454143e-05
2
204200
Ar	-0.0002968827076693808	-0.00037767258281428843	0.0031763606522464886	-0.020430787737129877	0.01578693178989055	0.00022540475463128185
Xe	9.824755853296824e-05	-0.00015282110523542363	0.0028004815448309027	-0.008158877347986964	-0.005206277228452844	-1.139914512142172e-05
2
204400
Ar	-0.0004486177571258384	-0.0001732861036463434	0.003177481814566342	-0.009177872458670846	0.02407641552394344	1.5860591650396147e-05
Xe	6.444832389463417e-06	-0.0001807861839118979	0.0028007014705755855	-0.009756896037479115	-0.00022635183945455262	6.0851166947883554e-05
2
204600
Ar	-0.00047157016131771975	8.081569430515177e-05	0.0031768334983651504	0.004683179420659617	0.025493307582772805	-0.0001272315205976481
Xe	-8.759186765882936e-05	-0.0001569470465283157	0.002801171825191554	-0.008577127194257027	0.004852942083979454	4.097471449060506e-05
2
204800
Ar	-0.0003595574112819323	0.00031206768372318876	0.003174954089497479	0.017158804416602922	0.019595639615602928	-0.0002381656498112948
Xe	-0.00015671179998115223	-8.819284919588895e-05	0.0028014212361521904	-0.0048920157493417766	0.00854298817421314	5.501849047554032e-06
2
205000
Ar	-0.0001448881981424522	0.00045398124924040967	0.003172908325510157	0.024723721360914525	0.008103458025741764	-0.00016383171594751443
Xe	-0.0001807869752018558	5.731094227161975e-06	0.002801277322568809	0.0001982584751069759	0.009778391410463813	-3.770752278082444e-05
2
205200
Ar	0.00011121765853837321	0.00046636779305112003	0.0031722184744185783	0.025239192304316028	-0.005685799172587773	3.681677452095479e-05
Xe	-0.0001531353751237752	9.800180543702518e-05	0.0028007413514488837	0.005209035268185781	0.008226325642690976	-5.280328693543848e-05
2
205400
Ar	0.00033571650906686376	0.0003457192360403565	0.003173333159676439	0.018517772358925134	-0.01785570635149539	0.00016571420844654946
Xe	-8.159636817281168e-05	0.00016215827590752887	0.002800441893068494	0.008757941687707894	0.004293867312479667	1.2930013413323337e-05
2
205600
Ar	0.00046378311667374976	0.00012627206980452398	0.003174839241428749	0.00647059294758398	-0.0249638915773012	0.00012534439794187807
Xe	1.3455192935479163e-05	0.0001799215869541031	0.0028005194911677163	0.009818689683972223	-0.0008571676505665993	8.75002994584693e-06
2
205800
Ar	0.0004593012550079787	-0.00012917986621024277	0.0031757394275853204	-0.007346680251144445	-0.0249114594702869	6.650582685968214e-05
Xe	0.00010500716331500085	0.00014586533300662584	0.0028008921323791004	0.008024268477109103	-0.005775034656956822	2.8437657778149144e-05
2
206000
Ar	0.00032403294448007106	-0.0003479739648653479	0.003176401920629946	-0.01903850932992389	-0.01778684369110693	4.991310765284122e-05
Xe	0.00016641083833415202	7.022297331125025e-05	0.002801004772796037	0.003953610889460253	-0.008979627328240513	-3.690264447222308e-05
2
206200
Ar	9.663158806652899e-05	-0.00046742266499139685	0.0031763626171592667	-0.02532548918931972	-0.005520656543900479	-7.198982378332582e-05
Xe	0.00018008421227930647	-2.5115048282769888e-05	0.0028009540423692175	-0.0012818885178163516	-0.0096205368142784	2.848278863264489e-05
2
206400
Ar	-0.00015839672569207056	-0.00045326166533846135	0.0031752590218035582	-0.02440190459479389	0.008303265688747374	-0.00014473041145451917
Xe	0.00014221475636319478	-0.0001133073883323812	0.002801176048507576	-0.0060774457717313575	-0.007580028374421894	2.4251338586933137e-05
2
206600
Ar	-0.0003680422098888397	-0.0003089814074345076	0.003173661866476458	-0.01650831371912913	0.019829900228616738	-0.0001465382998925618
Xe	6.40294620055232e-05	-0.0001695130583647243	0.0028013476915208844	-0.009178911364372601	-0.003377271037054169	-2.597622087246151e-05
2
206800
Ar	-0.00047244957088071125	-7.599126176002458e-05	0.0031725761525039984	-0.0038473961147666	0.025616373805077926	-6.399017764764948e-05
Xe	-3.243750639455451e-05	-0.00017775240009830102	0.0028011389317864617	-0.009625689956284687	0.0017849604738986822	-1.1221470543998325e-05
2
207000
Ar	-0.00044173770580105035	0.00017892162765233277	0.0031727472607015602	0.009815636668420082	0.024104135123181335	9.472128698707874e-05
Xe	-0.00011937150027179036	-0.00013541602860891853	0.0028007671662840126	-0.007328641037975605	0.006490997390292908	-4.062378948230823e-05
2
207200
Ar	-0.00028533152609676684	0.0003829144267592721	0.0031741988713082274	0.02070452470824905	0.015688446146618327	0.0001837365162341206
Xe	-0.0001720783226091803	-5.425519027399617e-05	0.0028002056034116913	-0.0029483838860998816	0.009343373083677404	-5.208221112075896e-05
2
207400
Ar	-4.769350017268566e-05	0.00047744032489403315	0.0031759246602908547	0.02566408748939758	0.002738002157742063	0.00015231135702227237
Xe	-0.00017557309579916664	4.2485317819425336e-05	0.002799919682978851	0.002277931977369904	0.00953857032275875	-5.820602512922142e-06
2
207600
Ar	0.00020342232997743929	0.0004350122873774109	0.0031768821872189316	0.023331350113302625	-0.0109909360572562	3.838611172015305e-05
Xe	-0.0001286098225556564	0.00012741673519698162	0.0028002461389912804	0.006870762626998712	0.007012812397089814	5.92996044651181e-05
2
207800
Ar	0.00039636319870803467	0.0002680874210370537	0.003176575714478917	0.014320776909726246	-0.021572593458946274	-0.00011049526713970652
Xe	-4.4711231919374946e-05	0.00017591207920637973	0.002800738621285121	0.009486484753381975	0.002463442738243683	4.509295726108919e-05
2
208000
Ar	0.00047611253087897375	2.4199544778787263e-05	0.0031751613993023656	0.0012291546123384223	-0.025999388029409588	-0.00016428182866583683
Xe	5.223400442888763e-05	0.00017427534923926752	0.002801035162137331	0.009394402674544222	-0.0027586253965853104	1.7821153762792108e-05
2
208200
Ar	0.00041973728917442025	-0.00022670562763342606	0.003173729873341251	-0.012235973609873546	-0.022979704416038034	-9.524216463179177e-05
Xe	0.00013405291083739301	0.00012310536411348747	0.0028011443353168548	0.0065799623490838165	-0.007213937700086557	8.03733927501292e-06
2
208400
Ar	0.0002429829078415877	-0.0004128524338154146	0.003172844256952449	-0.022225374577997486	-0.013328649780897631	-6.296664123403493e-05
Xe	0.0001775628431847201	3.679912227072892e-05	0.002801033747286554	0.00191609517696692	-0.009599679274604981	-3.927918201840135e-05
2
208600
Ar	-3.1420547759559266e-06	-0.00048069616512734357	0.003172736393446802	-0.025789942020766923	0.00010604764697854175	4.096890819635649e-05
Xe	0.00017003999734927178	-5.966251652411478e-05	0.002800698206898742	-0.0033742199244356057	-0.009232353162752354	-3.409359500839079e-05
2
208800
Ar	-0.00024807385968638514	-0.00041098655283262474	0.0031735527499512123	-0.02199934992638114	0.013496716215687229	0.00011970336235502006
Xe	0.00011392898884083368	-0.00013921906816552994	0.002800437006131108	-0.007591532197254184	-0.006277058433340137	-4.821005884279672e-06
2
209000
Ar	-0.00042209251348638676	-0.00022382748413087272	0.0031749660931614286	-0.011937476759218675	0.023010564510008956	0.000177849206858913
Xe	2.5510259548366856e-05	-0.00017878012374868021	0.0028005091212790823	-0.009663677712706776	-0.0014493394739344277	1.9852089404649187e-05
2
209200
Ar	-0.0004753795705055845	2.7412795104497573e-05	0.003176691748569307	0.0015284644013191134	0.025992012563756363	0.00015444834571767742
Xe	-7.008692622088484e-05	-0.00016708619141455312	0.0028006783704520133	-0.008970241492990081	0.003751516528692599	2.7617564457866546e-05
2
209400
Ar	-0.0003924373458143445	0.00027086933279422704	0.003177679494867535	0.014626097324465126	0.021495063411580046	2.83943790396396e-05
Xe	-0.00014548255749239237	-0.00010757597642042872	0.002800850305210797	-0.00576358002787061	0.007850925788502884	2.2916956574856115e-05
2
209600
Ar	-0.00019689008071021485	0.0004367901864210778	0.0031769106535430927	0.023515635157647735	0.010866124164022528	-0.00019788591743714743
Xe	-0.00017950183069595803	-1.7225827184309586e-05	0.002800947092957859	-0.0008743320227744678	0.009774639847917644	1.5478068745406577e-05
2
209800
Ar	5.508072006648303e-05	0.0004777253548542898	0.0031744790874932904	0.025624394767575515	-0.002883984395137165	-0.00024963881509227205
Xe	-0.0001619641678188845	7.823628832661363e-05	0.0028011288099756867	0.004294783309767327	0.008853344617991258	4.4859940170801825e-05
2
210000
Ar	0.0002912443308723915	0.0003817311336467976	0.0031724064153825604	0.020440565968987832	-0.015840324815314263	-0.0001356694742878128
Xe	-9.812875355083975e-05	0.00015123131868206114	0.002801490943565211	0.008152880183854511	0.005382151835975408	5.6537213963591776e-05
2
210200
Ar	0.00044441316947778006	0.00017639991696518425	0.0031720023896716237	0.009464407611483266	-0.02419118375566251	4.4788130582865605e-05
Xe	-6.698356662181503e-06	0.00018070417538051267	0.002801886734901883	0.009670680405542649	0.0003726359260748177	1.6310751120158975e-05
2
210400
Ar	0.0004711156635556947	-7.91372275315281e-05	0.0031731581170511432	-0.004260864321196473	-0.02565055178632622	0.00018245938999195043
Xe	8.603340794076054e-05	0.00015842886515215923	0.0028016880824142053	0.008437169088238832	-0.004721936087847786	-5.5485858529464515e-05
2
210600
Ar	0.0003632857153698077	-0.00031211468304325027	0.0031752226051285047	-0.016807962793043016	-0.019803876124815826	0.00019313618863360193
Xe	0.00015422312477631487	9.085153262982336e-05	0.0028010589640997826	0.004863771503860195	-0.008468844245424698	-6.178506243600489e-05
2
210800
Ar	0.0001511781845354122	-0.00045586311292525854	0.003176554846734831	-0.024568881555056314	-0.008241830975408279	4.508514633450836e-05
Xe	0.00017849858717105554	-2.521493035801547e-06	0.002800520221193202	-0.000134813278920152	-0.009779198740796446	-3.5831066172342924e-05
2
211000
Ar	-0.00010410531915583142	-0.0004688872965891765	0.0031764597457240983	-0.025243881134372592	0.005689527129376066	-8.414518053055162e-05
Xe	0.0001515966579431678	-9.547554804257018e-05	0.00280050421282392	-0.005128682221693181	-0.008352871691283847	3.187966273330537e-05
2
211200
Ar	-0.00032931437778431575	-0.0003476240909380578	0.003175309640696048	-0.018702697081695224	0.01795819561463473	-0.0001326907028593194
Xe	8.122169042655553e-05	-0.0001614714596829572	0.002800724320155597	-0.008609017879794456	-0.004507669115111395	1.2322962405778175e-05
2
211400
Ar	-0.00046029325391001494	-0.00012693032597844438	0.0031738610612015274	-0.006864597226801195	0.025095500850943364	-0.00013079491904815154
Xe	-1.2534968750445277e-05	-0.00018119713782573132	0.002800836327441038	-0.009646826763040019	0.0006780699306980395	2.181594229948721e-05
2
211600
Ar	-0.0004600048879822061	0.00012999194974653284	0.0031729606794798273	0.0069276842546154935	0.025032491712105937	-4.53027961151715e-05
Xe	-0.00010263894668001063	-0.00014891498371218757	0.0028010699098472893	-0.007909432307735675	0.005646269132766133	5.095371141781812e-05
2
211800
Ar	-0.00032815796998159573	0.0003496102726987374	0.003173063104322006	0.018788694599753512	0.01781054268628119	8.134559003139428e-05
Xe	-0.00016293135375224066	-7.394238740323501e-05	0.002801769917418378	-0.0038533154028253074	0.00896306593530917	6.67790592485814e-05
2
212000
Ar	-0.00010260035443142534	0.00046917161457917455	0.0031740776397094785	0.025202598543060062	0.0055215784759444966	0.00014117134285815508
Xe	-0.0001762764600023587	2.174893418876262e-05	0.00280202935851868	0.0012327903632556626	0.00969634498122397	-1.1072143719621604e-05
2
212200
Ar	0.00015175260349225994	0.0004548050205268545	0.003175329868548951	0.02442563794617163	-0.008332947635237441	0.00012035156726196349
Xe	-0.00013952753559330332	0.00011077794993337194	0.002801600528100816	0.005928593925259601	0.007677237738806774	-4.627165914197996e-05
2
212400
Ar	0.0003625078322628897	0.0003105906824226519	0.003176482860025102	0.01668701018919004	-0.019790941198898338	0.00011300459570333012
Xe	-6.313150944194866e-05	0.0001680312985195525	0.002801167488299899	0.008960454005679706	0.0035040717261456003	-6.076193028894923e-05
2
212600
Ar	0.0004694333625608707	7.779483359293354e-05	0.0031769498765278955	0.004168144929765117	-0.025618784963785644	-3.1440960017470864e-05
Xe	3.1088657965849886e-05	0.0001773130136577766	0.0028004518373619604	0.009439318548851673	-0.0016981608499287415	-6.432456616212988e-05
2
212800
Ar	0.00044197286391504064	-0.0001774616734718634	0.003175960475195371	-0.009524811268775567	-0.024152181555921408	-0.0001693159056398883
Xe	0.00011661665889302208	0.00013573973584846512	0.0027996852029062253	0.0072571364840106	-0.006411921445778332	-7.018704815270633e-05
2
213000
Ar	0.0002881220341761711	-0.0003816983846917305	0.0031740102320064675	-0.020490470292740946	-0.01567681078701941	-0.00019965600172647073
Xe	0.00016913993618275576	5.517646917592161e-05	0.0027992448628135253	0.0029913477187321633	-0.009290744428819662	-2.2151086045418757e-05
2
213200
Ar	5.1926344464699546e-05	-0.0004761062071542757	0.0031724492607799535	-0.02560548089492591	-0.002757325886709437	-9.93640196391824e-05
Xe	0.00017363182443728417	-4.120507806428096e-05	0.0027998832129050807	-0.002125587468302527	-0.00951000765769761	0.00012828959002869896
2
213400
Ar	-0.00019936239944225273	-0.0004344006168740772	0.0031723815527877116	-0.023410979848877387	0.010907971513828715	9.262885674310239e-05
Xe	0.00012834579865744829	-0.000125721061166506	0.0028013043812684436	-0.006692450222394508	-0.006975764530789203	0.00013564443571252973
2
213600
Ar	-0.00039391935765686057	-0.0002686739185158245	0.0031737592781242168	-0.014546873428846254	0.021445239971875828	0.0001672035545347658
Xe	4.651595325814087e-05	-0.00017408865724834497	0.002802358512977636	-0.009275517137500132	-0.00244869638898165	5.384432679366766e-05
2
213800
Ar	-0.00047640476329786436	-2.620055792603017e-05	0.003175479156644223	-0.0015363983812693913	0.02588335141510366	0.0001635555923165188
Xe	-4.8126902394171655e-05	-0.00017237384589123816	0.0028024896888757048	-0.00918613109373082	0.00277821871279271	-2.575482798160125e-05
2
214000
Ar	-0.0004231541680300337	0.00022378034856123427	0.00317669496023802	0.011938437547382138	0.022876079276783083	7.417995880414676e-05
Xe	-0.00012863582464562047	-0.00012127404448681009	0.002801877690487285	-0.0065165536749832555	0.007195708097824751	-9.154147288224069e-05
2
214200
Ar	-0.00024906400196303874	0.0004095290281213533	0.003176751110587451	0.02200039132461731	0.013347391384802869	-6.508556030562007e-05
Xe	-0.00017235789286092952	-3.553735340008373e-05	0.002800793992602015	-0.0020101230666487654	0.009531022857612355	-0.00013048215203043622
2
214400
Ar	-4.272055458729726e-06	0.0004780590050069095	0.0031759406386713865	0.02577254103968139	1.2437981499272905e-05	-0.00010614267865392451
Xe	-0.0001667934177414487	6.015141308112565e-05	0.0027992223680342447	0.0030940824731314374	0.009138583256538288	-0.00016291261955942707
2
214600
Ar	0.00024163234912551453	0.0004099418223291047	0.0031746268348657467	0.022205314892697406	-0.013307224316249614	-0.00013653391100461006
Xe	-0.00011359319640466416	0.0001384969747609085	0.002797944571657207	0.007314879250576446	0.006141831789707513	-7.985036348205355e-05
2
214800
Ar	0.0004184190569789166	0.0002247999305267969	0.003173813259792554	0.012291808434152684	-0.02281680493911889	-3.506109012596678e-05
Xe	-2.7758162063541702e-05	0.00017715405220077957	0.002797804218222272	0.009422690721972918	0.0014142476637627388	3.493625243447906e-05
2
215000
Ar	0.00047547010751564236	-2.4421120333903194e-05	0.0031737658283009364	-0.0011441116409373884	-0.02581377795835424	4.863637395145532e-05
Xe	6.611944666494518e-05	0.00016555479948489072	0.002798878320272153	0.008894685106582626	-0.003686004593828926	0.00016745169101251085
2
215200
Ar	0.0003966989040758313	-0.00026686133748657945	0.0031744075164648897	-0.01423495558191832	-0.02147181339618986	8.655005796938116e-05
Xe	0.00014147351987374234	0.0001070994079523754	0.002800887685799864	0.0057833970664716225	-0.007708030176548836	0.00021549224185713544
2
215400
Ar	0.0002040332876874455	-0.00043303079987766757	0.003175113895080011	-0.023309172249419446	-0.01097938818185547	5.069035032742993e-05
Xe	0.00017626205693331885	1.8646493123107344e-05	0.002802775033262815	0.0009840987998179366	-0.009552560332886149	0.0001413438304378221
2
215600
Ar	-4.675674102624287e-05	-0.00047598593115273457	0.003175459787869286	-0.025610559296630798	0.002609679817865395	3.2175602982558943e-06
Xe	0.0001605777423305486	-7.481000916133824e-05	0.0028034884446232655	-0.00403638460976308	-0.008676187354963746	-2.2893882265037363e-06
2
215800
Ar	-0.00028397302231370126	-0.00038341442714725507	0.00317530047408336	-0.020670303208550157	0.015449844330169596	-7.723852868141077e-06
Xe	9.929786254778243e-05	-0.00014677749215794765	0.0028029123973659325	-0.007941801471510338	-0.005358326283849062	-0.0001079096238194237
2
216000
Ar	-0.000439998671926259	-0.00018147885414722075	0.003175372046455845	-0.009782900323262709	0.02394505006877346	-1.0598163509229391e-05
Xe	9.438458050596984e-06	-0.0001766259001824046	0.002801292475487723	-0.009608389712947234	-0.00048129192093851404	-0.00023618905946403137
2
216200
Ar	-0.0004700053234158453	7.238046488704785e-05	0.003175226666977021	0.003916156048440483	0.02556446556499033	-1.95260157799913e-05
Xe	-8.325793721113878e-05	-0.0001559480691655952	0.0027989537146518397	-0.008490986223983664	0.0044951800457161415	-0.00020299158879602278
2
216400
Ar	-0.0003656667916178895	0.0003050931001027717	0.003174788493095814	0.01642204336020433	0.01984856005565102	-6.573957500122485e-05
Xe	-0.00015236680161558164	-9.059383767181736e-05	0.0027974885182705123	-0.004989499637324873	0.008238385761796273	-6.249566325313455e-05
2
216600
Ar	-0.0001572025972599811	0.00045067004514579245	0.003174329326954111	0.024256328995099483	0.008548662369295827	-1.2345041672078035e-05
Xe	-0.00017802282355368015	8.739775735298082e-07	0.0027976939546659214	-3.494802490260197e-05	0.009589844796450048	8.859132564866733e-05
2
216800
Ar	9.634460411061052e-05	0.0004677272102816271	0.003174287400021087	0.025225159342742467	-0.005221963082148338	2.4868426117644323e-05
Xe	-0.00015285175208660539	9.232121510189238e-05	0.0027991357893226996	0.004948810177305066	0.008254687774332263	0.00020242223625866775
2
217000
Ar	0.00032258893642077334	0.00035117693779939226	0.003174804081622793	0.01891563984589618	-0.017489460223431907	5.193504260553257e-05
Xe	-8.4138326210631e-05	0.00015783748991898648	0.0028012279177737054	0.008471948357599379	0.004518355313146751	0.0001954115241050483
2
217200
Ar	0.00045653037372734705	0.00013478284962579714	0.003175523199412573	0.007236239554428719	-0.024756511236371615	7.301530442002725e-05
Xe	8.267458748454938e-06	0.00017839301759554953	0.0028028486000996173	0.009550838662091186	-0.00051888569041542	0.00012723451048405013
2
217400
Ar	0.0004603168734753145	-0.00012022695013386943	0.0031759127064187763	-0.00649559464445975	-0.024993290169019897	5.755266068105255e-06
Xe	9.788599844397058e-05	0.00014798821194358003	0.0028033174459675086	0.00795274701395978	-0.005394467950431679	-3.663773461040191e-05
2
217600
Ar	0.0003328194752450109	-0.0003407136931297104	0.003175636103188212	-0.018403638156247893	-0.018042844607404088	-4.724514256656013e-05
Xe	0.00015970600539197793	7.560605814253039e-05	0.0028022386108127835	0.004079218565589421	-0.008768380312199888	-0.00017683709739296316
2
217800
Ar	0.00011035327280810603	-0.0004638153577162407	0.0031750670107290576	-0.024989678542513098	-0.005964772858581978	-6.172155912885982e-05
Xe	0.00017550505881725134	-1.8544655285628277e-05	0.002800240311012614	-0.0009614291049677449	-0.009597124669148714	-0.00018796826891792325
2
218000
Ar	-0.0001433638723202362	-0.0004543093680414652	0.0031745029034178367	-0.02448472697185995	0.00781764155929971	-6.18648633512945e-05
Xe	0.00014144197662590728	-0.0001072629482069476	0.0027984774142438386	-0.005696724154628567	-0.007714160572040597	-0.00014629216007822963
2
218200
Ar	-0.0003558890111338295	-0.0003150189715846294	0.0031741869492859947	-0.01699741084446113	0.019338960246586705	1.4780302693450584e-05
Xe	6.71695165120176e-05	-0.00016536173949383744	0.002797923500408756	-0.008808281780094109	-0.003631285929326673	1.4292896557883921e-05
2
218400
Ar	-0.00046702355519355433	-8.602245312908044e-05	0.003174578706498046	-0.004688912517839369	0.025346509078355985	5.7660191458030155e-05
Xe	-2.650556712327687e-05	-0.00017630074118827647	0.0027983642888602077	-0.009476110730003866	0.0015039888226303644	8.474291553731794e-05
2
218600
Ar	-0.0004447233650942887	0.00016720972852073794	0.003175277827392624	0.009028288668552615	0.024070938643443528	8.807381767685972e-05
Xe	-0.00011299683019686057	-0.00013677276155423237	0.002799697818819686	-0.007390014380138054	0.00620310944989106	0.00017929487886412504
2
218800
Ar	-0.0002954095647432232	0.0003723590508511935	0.003175959203575972	0.020100895990807617	0.01596865589186332	3.143527701353216e-05
Xe	-0.00016747341520753306	-5.8128245383960957e-05	0.002801520421070419	-0.0031929954181325907	0.009123708778884595	0.00015826955235317733
2
219000
Ar	-6.209052276764656e-05	0.00047142615467816036	0.0031756519709023956	0.025443888971361232	0.0033408098677402097	-6.373070454063341e-05
Xe	-0.00017407991462112777	3.700982107851811e-05	0.0028028632484563215	0.001938642414752275	0.009422652326268495	9.14492536707913e-05
2
219200
Ar	0.0001890316306206947	0.00043604557283736075	0.0031750707310821695	0.023548420371656685	-0.010256891539388366	-4.2583590660328755e-05
Xe	-0.00013071638666891112	0.00012129018824599308	0.0028031039301535366	0.006506417366237886	0.007026720426609334	-4.949004861182814e-05
2
219400
Ar	0.0003862711354187696	0.0002764378108799533	0.0031748915085334064	0.014920391058401867	-0.020892882858976964	-1.068380303327349e-05
Xe	-5.033636965186631e-05	0.00017092644987746385	0.0028019027537784635	0.00919417814238945	0.0026493046696632566	-0.00017307549170336614
2
219600
Ar	0.00047334711860117846	3.796582012355427e-05	0.003174871152216135	0.0020303361074313375	-0.025626461830790124	-6.138751771260303e-06
Xe	4.41872094776054e-05	0.00017219388053333495	0.0027999448302876667	0.009264952737681952	-0.0024198528735769817	-0.00019777669017517107
2
219800
Ar	0.0004252480722445397	-0.00021146457278292511	0.0031751560440049227	-0.011400608432493553	-0.02301787733667589	4.9185668972208653e-05
Xe	0.00012604415643229985	0.0001247031898206139	0.0027981377430151646	0.006722400189426034	-0.006859528752921639	-0.00013994002269105332
2
220000
Ar	0.0002563219366940737	-0.0003999873300495124	0.003175597209534867	-0.021572973275481497	-0.013782907090620605	4.8121193399666835e-05
Xe	0.00017214917616198292	4.155773487138976e-05	0.002797645489783129	0.0022516933490561502	-0.009381161145764491	1.882264250178309e-05
2
220200
Ar	1.4198490158534204e-05	-0.0004740857370294397	0.003175959128393771	-0.025652300126045975	-0.0006699238665931554	1.31652820105218e-05
Xe	0.00016896529246014034	-5.396211036853151e-05	0.0027985073802478714	-0.0028537030169978957	-0.00924103051991911	0.0001401163463684391
2
220400
Ar	-0.00023198288713843112	-0.0004129126523126961	0.0031758637632781765	-0.02237960627797901	0.012596166892201274	-4.102673941100051e-05
Xe	0.0001174793157599914	-0.0001343206462667774	0.0028001690233483	-0.007178322770661689	-0.006459816737989964	0.00017044218563793109
2
220600
Ar	-0.0004121964884803998	-0.0002342679346619217	0.003175242090721822	-0.012776862893652801	0.02227208251311612	-5.05161912945546e-05
Xe	3.233492629435236e-05	-0.0001766873946998983	0.002801818865015184	-0.0094215125643971	-0.0017958346071316094	0.00014809399037181835
2
220800
Ar	-0.00047536474907670207	1.1201976328979387e-05	0.003174989063487142	0.00047415645241045783	0.025633554447735293	4.271593509621656e-06
Xe	-6.188902855935044e-05	-0.00016860984781551282	0.0028028781495196956	-0.00898008110416049	0.0033700393127223303	8.142480694087784e-05
2
221000
Ar	-0.0004033293563146716	0.00025364485105328695	0.003175084708175874	0.01360772272919965	0.02167482094727856	7.277593230741698e-06
Xe	-0.00013820459295085826	-0.00011280330562433469	0.0028031851967245235	-0.005919713604738764	0.007530299619964119	-3.396663041186278e-05
2
221200
Ar	-0.0002161901353859124	0.00042379443837346943	0.0031752602165045518	0.02288482380362865	0.01150086468236582	3.348631243483657e-05
Xe	-0.00017494486094729475	-2.495115451309822e-05	0.00280229344307666	-0.0012448006384827653	0.009611666876011806	-0.00013894380046517078
2
221400
Ar	3.258988095749958e-05	0.0004730931829041883	0.003175441794562929	0.025659596320458115	-0.0019082867966583577	3.632333865787557e-06
Xe	-0.0001620137527996687	7.004400778223536e-05	0.002800799337609764	0.0037891138978473136	0.008931922397030901	-0.00014962860260935606
2
221600
Ar	0.0002724369255000761	0.0003876315852515604	0.003175406165459065	0.021124896096994798	-0.014784866122676255	-9.612144154797429e-06
Xe	-0.00010289640525808069	0.00014511207931349019	0.002799371716615941	0.007746591030828349	0.005708729645117553	-0.00012729043265715818
2
221800
Ar	0.00043453139299305687	0.00019174792078081613	0.00317539388263518	0.010513108877665798	-0.023437496637343836	-4.393530725529056e-06
Xe	-1.4198961844370623e-05	0.0001786949908656912	0.0027985852780549846	0.009546150785883757	0.0008408447192028129	-2.678468208750816e-05
2
222000
Ar	0.00047260349818820796	-5.86528813089772e-05	0.0031753621746144155	-0.0030912891472649998	-0.025407181157388447	-2.564873200408811e-06
Xe	7.877776304680374e-05	0.00016121289213060763	0.002798985234112024	0.008589780777434278	-0.004244356628737944	7.464868388260163e-05
2
222200
Ar	0.000375607190276945	-0.00029224609950383103	0.003175230687714088	-0.015843814049319387	-0.02015141640850628	-2.996852490689767e-05
Xe	0.00014929305828665696	9.754063058392708e-05	0.0028000631182517888	0.005175074729046082	-0.00812191707705564	0.0001326055726065533
2
222400
Ar	0.00017133159454555714	-0.00044242849432502663	0.0031750638792137375	-0.024004313567917376	-0.009129256268608743	-3.485371976840528e-06
Xe	0.00017716535073631718	6.293097903347487e-06	0.0028013071363760986	0.0002655644361762052	-0.009668077479053596	0.00011449067460999446
2
222600
Ar	-8.159783006894874e-05	-0.0004665287674786535	0.0031751808052378977	-0.02536599623125149	0.004439786214866407	2.6919869760074066e-05
Xe	0.00015461706299372201	-8.66949457074429e-05	0.00280206886597511	-0.004665095604672927	-0.008462065328333743	1.2312832808893401e-05
2
222800
Ar	-0.00031173253737479186	-0.00035775660610993875	0.003175673644562285	-0.01954027955052553	0.016778583513105252	4.149704401642181e-05
Xe	8.826768006313637e-05	-0.00015476190614860554	0.0028019183814239988	-0.008284489781059851	-0.004829384137079951	-3.410752453282437e-05
2
223000
Ar	-0.0004535413116726964	-0.00014702201447707944	0.00317595184148048	-0.00810106689222412	0.024340700468864357	2.3298935163873693e-05
Xe	-3.0423819659778436e-06	-0.00017883202073566148	0.0028010952583663066	-0.009523002016208697	0.0001504102440642804	-0.00010364500860089888
2
223200
Ar	-0.00046566567203119895	0.00010566588374912198	0.003175794426359262	0.005728620960323131	0.024951343953702236	-4.522235221573815e-05
Xe	-9.328233228309399e-05	-0.0001518360213351348	0.0028001209258028373	-0.008107104726408161	0.005135294714147842	-0.00010143397329294096
2
223400
Ar	-0.00034456785466135904	0.0003280691288285884	0.003174838830953167	0.017914618853281605	0.018422739279047345	-0.00010887905229776062
Xe	-0.00015723671959095678	-8.127216766587773e-05	0.0027995362316621474	-0.004369745694608444	0.008638488076510813	-4.258715156686733e-05
2
223600
Ar	-0.00012498357306447167	0.00045704742697176857	0.003173799055433297	0.024933377857259503	0.006719351779025424	-8.419863647882483e-05
Xe	-0.0001764493066503687	1.252629879486393e-05	0.0027995010322259335	0.0006146327237528292	0.009679201352183673	5.893423932254297e-06
2
223800
Ar	0.000130117544380106	0.00045601219779688233	0.0031736141208767426	0.024851575379850905	-0.006934720352439302	4.584089433205204e-05
Xe	-0.00014531062912836104	0.00010284851652768122	0.0027999134984922325	0.005432243214485581	0.00793936911053224	7.168045331126593e-05
2
224000
Ar	0.0003483991614886234	0.0003247791542337208	0.0031746055626938625	0.017706988326163676	-0.018662981970737954	0.0001305899926827554
Xe	-7.27958452474212e-05	0.00016386974801146546	0.0028005550094432567	0.008714193426539016	0.003989196136190474	7.303138639512732e-05
2
224200
Ar	0.000467158415503282	0.00010062307094903434	0.0031758262116800286	0.005440663573801217	-0.025054012851045155	0.00010735611462507082
Xe	2.035584192178697e-05	0.00017846304680426908	0.0028014124767895177	0.009482098003782025	-0.0011589828592923784	0.00010838474908632934
2
224400
Ar	0.0004523043864953106	-0.00015218650148510183	0.0031763147637619595	-0.008334328467803291	-0.024292571296374323	-1.4250461303950093e-06
Xe	0.00010770001586752103	0.00014202937288498293	0.0028021273819143874	0.007567425317608701	-0.005980970356939919	2.440805873026404e-05
2
224600
Ar	0.000308246630631904	-0.00036176433807531003	0.0031756152270164097	-0.019748646880490595	-0.016603634523828792	-0.00011180713238800664
Xe	0.00016469957684275117	6.486682991355177e-05	0.002801896158996891	0.0035307600213862274	-0.009058043906029333	-6.022030241687526e-05
2
224800
Ar	7.610652831153759e-05	-0.0004681117700309753	0.0031747823327185004	-0.025540581424853756	-0.004172582477237358	-7.825634818188478e-05
Xe	0.00017479461441231332	-3.082241263229256e-05	0.0028011874144207105	-0.0015751504139510117	-0.009576474946204477	-8.799073340969443e-05
2
225000
Ar	-0.00017792211920345655	-0.00044103418509906876	0.003174291654715284	-0.024011776941270116	0.00946276320025817	-2.149632267524674e-05
Xe	0.00013514310038275078	-0.00011740259711865397	0.002800178730821616	-0.006184898783864357	-0.007350398527479487	-0.00011357494158328078
2
225200
Ar	-0.0003810874704574611	-0.0002878541111879343	0.0031744606307533584	-0.0156345084124772	0.020421679862927658	4.8708052266868204e-05
Xe	5.6630208357616186e-05	-0.0001704532807385654	0.00279921979455566	-0.009105972305547362	-0.0029858871889661045	-4.2200553508956086e-05
2
225400
Ar	-0.0004754891186881501	-5.2224380056190085e-05	0.003174934556621313	-0.0028012912134848006	0.02554464515303317	2.787573563607207e-05
Xe	-3.8510291686726356e-05	-0.00017462320375306786	0.0027993531456736577	-0.009461745098722482	0.002188920103765878	7.73609107343434e-05
2
225600
Ar	-0.000434037817838244	0.00019850305770505142	0.003174946234263199	0.010847679209830806	0.02337915093741792	-9.898528461152335e-06
Xe	-0.000123149494668144	-0.00012894809613333468	0.0028002063983990208	-0.007039270731802325	0.006735583782515437	0.00011275642456427984
2
225800
Ar	-0.0002690302842475875	0.0003927328274736139	0.0031746852052380596	0.02134914978903725	0.01451648892473853	-2.1462375386569965e-05
Xe	-0.00017225239788453624	-4.638844804470499e-05	0.0028012260320504265	-0.00254558245933766	0.009362285914613631	7.766296586286948e-05
2
226000
Ar	-2.7611377522988836e-05	0.0004749289245470271	0.0031746810841418597	0.02576202844873893	0.0015309387262268767	2.293679374399889e-06
Xe	-0.0001718936990580829	4.934755031764367e-05	0.002801557978728795	0.002609016766757288	0.00931002560380802	-1.3087091762022208e-05
2
226200
Ar	0.00022148569757987114	0.00042188015664417367	0.003174903951802094	0.02282504684874848	-0.011868171749819962	2.5783555441015688e-05
Xe	-0.00012261014094547504	0.0001306643106052483	0.0028010837090792218	0.00702181683379091	0.006558349434566975	-6.564475720328279e-05
2
226400
Ar	0.00040698129449455905	0.000248927999982756	0.0031749755551186898	0.013363675164948881	-0.021885217059528495	4.249283823224767e-06
Xe	-3.828505936722629e-05	0.0001745395253119215	0.0028003033954319325	0.009407128208492474	0.0020010869765601635	-9.734963716585424e-05
2
226600
Ar	0.0004762409837703966	5.2214038965107925e-06	0.0031749935099961647	0.00013420388823403543	-0.025703696431528766	-2.1829846381700733e-06
Xe	5.6904571505082925e-05	0.00016850534292600687	0.0027994355650598664	0.009123452794966642	-0.003198426657199029	-8.149237885460829e-05
2
226800
Ar	0.0004097956315836321	-0.0002402677527498089	0.0031751223665932434	-0.013120637188934827	-0.02220554769107341	2.5324220467226344e-05
Xe	0.00013591625510276495	0.00011401017482831562	0.0027990741793367736	0.00628063623957118	-0.00743944150756671	-1.5725966672175812e-06
2
227000
Ar	0.0002264031264912445	-0.00041730464679204	0.003175535890005359	-0.022659340193764088	-0.012330549667117673	2.9416588197135185e-05
Xe	0.00017628696709960306	2.6704497553121646e-05	0.002799451530025538	0.0016041464618025201	-0.009577284032557204	8.33876681904e-05
2
227200
Ar	-2.1450178368426626e-05	-0.00047527494578757004	0.003175774628878934	-0.02571897840552288	0.0010393196926498168	6.747460025192066e-06
Xe	0.00016653521192058632	-6.794765666669347e-05	0.002800557466334123	-0.003509906734388509	-0.00890825365296294	0.00012103158028688299
2
227400
Ar	-0.00026322800348337224	-0.0003974574190725699	0.003175657892871961	-0.02146872884894289	0.014144678669943999	-2.2210880219773354e-05
Xe	0.00010940067698283321	-0.0001432686253699747	0.0028017678912144123	-0.007642528219274198	-0.005788908961825142	9.452405724010089e-05
2
227600
Ar	-0.0004298804544443674	-0.00020593470815092696	0.0031751596092611527	-0.011042980780311634	0.02319953130141844	-7.983107688739425e-05
Xe	2.101237976983743e-05	-0.00017779323615282845	0.0028024814375944298	-0.009607034609491454	-0.0009812982921797672	3.606792971736448e-05
2
227800
Ar	-0.00047370379521481583	4.44985332982645e-05	0.0031744133435834617	0.002493432916297808	0.025678202877756497	-8.331441350194938e-05
Xe	-7.330674069008273e-05	-0.00016179229944463043	0.0028024251422471627	-0.008778975587592034	0.00410985194718923	-3.5030535706440554e-05
2
228000
Ar	-0.00038237667868383816	0.00028254836542901325	0.0031736622704552553	0.015314783836139132	0.020776937715880996	-3.543884098803014e-05
Xe	-0.0001463805426765071	-9.950753348430185e-05	0.002801762037067782	-0.005486863375894808	0.008023466737059533	-8.13189519072397e-05
2
228200
Ar	-0.00018210339084559905	0.0004401564285037614	0.0031739908852949266	0.023769682179666744	0.009935526936444063	8.847075031804141e-05
Xe	-0.0001777742483484977	-9.160422666569196e-06	0.0028008994637697374	-0.0006371810454159815	0.009603031759771476	-0.00010052541008850167
2
228400
Ar	7.012631962987289e-05	0.00047173179170619043	0.003175167393997689	0.025430066284727205	-0.0037626760549202025	0.00013330292652292817
Xe	-0.00015858860019692304	8.362251901985167e-05	0.0027999350843641926	0.004380666855072995	0.008505773766219998	-7.129413335198779e-05
2
228600
Ar	0.0003022544033730041	0.0003686329559968833	0.0031764321045013133	0.0198316968206167	-0.016373002788520812	0.00010281310479105347
Xe	-9.385186603547353e-05	0.00015268310830178884	0.0027993296172516596	0.008253289849603796	0.00497382948636214	-3.6223487685349375e-05
2
228800
Ar	0.0004476077275051167	0.00015982893715293033	0.003176777777367557	0.00854693751092073	-0.02435691072959326	-2.8637138306717045e-05
Xe	-1.6767901060028186e-06	0.0001781263442546624	0.0027992840987895802	0.009731329704796999	4.482874520898838e-06	1.7094057143489115e-05
2
229000
Ar	0.0004651709026188497	-9.486660951046073e-05	0.003176043797917709	-0.005106804226577661	-0.025317345472884615	-0.00010522731865930557
Xe	9.138098181378167e-05	0.0001526799704966407	0.0027996552311620633	0.008419590287771778	-0.004982304748473944	6.0479135994317324e-05
2
229200
Ar	0.00035013504879300556	-0.00032212304127754053	0.0031746683429444912	-0.017338405907782996	-0.019055455189841992	-0.00012667787257133122
Xe	0.0001585781610276179	8.342142118370984e-05	0.0028002835087271825	0.004676916718779166	-0.008542641090658238	5.0677815285868374e-05
2
229400
Ar	0.00013516178443335526	-0.00045763457865711344	0.003173780011164717	-0.024620028476268773	-0.0073903716329391436	-6.313873331843456e-05
Xe	0.00018041835348725626	-9.694366001764326e-06	0.0028005526919686044	-0.00040171502405823986	-0.009642854540294161	1.373735979834094e-05
2
229600
Ar	-0.00011846965975029829	-0.0004627863385745967	0.0031736351385116593	-0.024859291261483007	0.006392249683521055	2.3749707175095032e-05
Xe	0.00015082132861329235	-0.00010021784109214836	0.002800866386532529	-0.00534271618284866	-0.007999656801675428	3.287650875646253e-05
2
229800
Ar	-0.00033799278535799404	-0.00033577052946605926	0.003173851113480917	-0.017973425074820047	0.0183947132198383	2.92680149034719e-05
Xe	7.844712517798113e-05	-0.00016191375888085266	0.002800955843684534	-0.008780303431868228	-0.0040378195025332405	4.126723001288663e-06
2
230000
Ar	-0.0004607573172961065	-0.00011284160201451834	0.0031745732420005736	-0.005980672623766093	0.025114921897082365	0.00010962251301606961
Xe	-1.6215476870561346e-05	-0.00017734035649509612	0.002800664390620632	-0.009688385361699277	0.0010445877560642505	-5.4525411760651614e-05
2
230200
Ar	-0.00045194719863230533	0.0001423598103177042	0.0031759929208083734	0.007713087764861485	0.02467676005323138	0.00012666150719306893
Xe	-0.00010622114645154548	-0.00014198670565166468	0.0028000096920100786	-0.007874372770663166	0.005850499638863176	-8.773596975585271e-05
2
230400
Ar	-0.00031406921394919836	0.0003566865606165676	0.003176475925516551	0.0192163890097144	0.017157769413395477	-5.262272957833425e-06
Xe	-0.00016597704435007335	-6.6164996578594e-05	0.0027992662961144033	-0.003778356786850939	0.008970711583947102	-2.9087550871137227e-05
2
230600
Ar	-8.623073931718831e-05	0.0004691116655073852	0.0031760109247467774	0.0252434149978028	0.004784427953063012	-8.04648800953583e-05
Xe	-0.00017844695723575626	2.891740012787243e-05	0.0027992734013884226	0.0013614734482903284	0.009560796367210448	1.9444397548716642e-05
2
230800
Ar	0.00016645260704148247	0.00044749525341806	0.003174638835995203	0.024062101845673648	-0.00898744288917746	-0.00015062026836081547
Xe	-0.00013997147376180658	0.00011579420482027287	0.0027998113767419273	0.006154557864820131	0.00738945369234079	8.103760184073642e-05
2
231000
Ar	0.0003716241112066551	0.00029780198388802486	0.0031733955754257985	0.015981412708115882	-0.020201556202961393	-9.615289910081021e-05
Xe	-6.148129447914852e-05	0.00016952288578827448	0.002800717478444962	0.009185275223702346	0.0031076438853595524	8.805754827758643e-05
2
231200
Ar	0.00047077644323150234	6.308803911194775e-05	0.0031730509497909423	0.0033703994539749944	-0.025595465958485754	4.862202703864948e-05
Xe	3.459217144372702e-05	0.00017494824663831298	0.0028015545695998715	0.009571695507029524	-0.002068214698142721	7.720516747600315e-05
2
231400
Ar	0.00043599920984546236	-0.00018972151309165403	0.0031738611572346112	-0.010155796967731858	-0.02373904707838476	0.0001299063218642595
Xe	0.0001207692961833125	0.0001304936721183992	0.0028019449430876017	0.007248178321677235	-0.006604348991614969	2.607358328026441e-05
2
231600
Ar	0.00027726719508687036	-0.0003887956380955295	0.003175366636645667	-0.02079458704324369	-0.015090169938740143	0.0001715521066821292
Xe	0.00017230341836274403	4.914060717506506e-05	0.002801665107830569	0.0028208646421831757	-0.009296005244855375	-7.562674156230844e-05
2
231800
Ar	3.965337560702514e-05	-0.00047684004894157954	0.0031766820306287987	-0.025565606334945933	-0.0021024905167371707	8.048625346998361e-05
Xe	0.00017448558690420977	-4.612578835544169e-05	0.002800678731198162	-0.0023632447282162694	-0.009308159823754368	-0.00011438926000087663
2
232000
Ar	-0.00020929446675254114	-0.0004285254109694707	0.0031769048002064076	-0.02299448122162045	0.011519191682163397	-3.689149453599557e-05
Xe	0.00012695246861112457	-0.00012840953306572254	0.002799656168944472	-0.006914671567311876	-0.006728799211166568	-7.561441821529067e-05
2
232200
Ar	-0.0003984362404780226	-0.00025783695565299977	0.0031758592848600293	-0.013896704230763609	0.021785842186491218	-0.00016647018484432824
Xe	4.294213144940155e-05	-0.0001743125296901879	0.0027992517632853945	-0.009478429829516771	-0.002225412958841304	-3.574669331288741e-06
2
232400
Ar	-0.0004737156867850339	-1.3538439816990375e-05	0.003174554457995067	-0.0008170384851665024	0.025858176632186296	-0.00011338498001148219
Xe	-5.355714534824329e-05	-0.0001705677970378084	0.002799468823661684	-0.009326596268919124	0.002957869260987002	4.292102445722011e-05
2
232600
Ar	-0.00041378797252852775	0.00023448218164529619	0.003173769797433381	0.012502309921324692	0.02250834744749147	-2.4403366547169512e-05
Xe	-0.00013473368419339763	-0.00011790529200189745	0.0028001815822792137	-0.00651327386085361	0.007321250937475125	9.230982619650903e-05
2
232800
Ar	-0.00023558441949920306	0.00041523614489535915	0.0031740255149996575	0.022250223640600277	0.01275940479040021	6.856097053171499e-05
Xe	-0.00017742306064871084	-3.168010263366866e-05	0.0028008591144070274	-0.0018072667459068557	0.009529990247523868	5.1540505439247745e-05
2
233000
Ar	9.736677742384918e-06	0.00047751672312514693	0.0031746378625661623	0.025642569965303477	-0.0006169489768999936	5.554818093768812e-05
Xe	-0.00016930996338568105	6.336974878012122e-05	0.002801215922231967	0.003387385922881484	0.009040654620553161	1.4158459237888945e-05
2
233200
Ar	0.0002523248045243258	0.00040323013456249523	0.0031752215774756877	0.02168883894421003	-0.013860017734377119	4.136177489410878e-05
Xe	-0.00011306784455547317	0.00014026316652016998	0.0028012014179111806	0.00758414477084403	0.005966678822475481	-9.265755142815268e-07
2
233400
Ar	0.0004228975165458925	0.0002138324832444083	0.003175497520657348	0.011588814869248993	-0.02309353452704527	3.8408312889223464e-05
Xe	-2.479219952028567e-05	0.00017674298633000676	0.002800817778103324	0.009625045224014464	0.0011491350468290156	-7.00088483295748e-05
2
233600
Ar	0.00047257624333013804	-3.639544165929949e-05	0.00317591192237848	-0.0018526124588474965	-0.025702866119866677	1.211626623812907e-06
Xe	7.033873671757966e-05	0.0001621144600706817	0.0028002845384819874	0.008932774138199982	-0.00396024211747903	-2.16897562594008e-05
2
233800
Ar	0.0003874211772607625	-0.0002758732102131607	0.0031754450556203137	-0.014761456276589797	-0.02100148810128534	-3.9709345984284966e-05
Xe	0.00014523319962451382	0.00010129503548156713	0.0028000559047747517	0.005687125506082673	-0.007899231247528365	-2.9816375223319562e-05
2
234000
Ar	0.00019156624323512348	-0.0004362963678270882	0.0031751597121772433	-0.02346299797660887	-0.010292205143772104	-1.613534340079521e-05
Xe	0.00017863841741718356	1.1674749421659817e-05	0.0027998026129737734	0.0008387638547774549	-0.009593909470570513	-4.469925822968378e-05
2
234200
Ar	-5.894525701667216e-05	-0.00047193647743288614	0.0031752042642298074	-0.02545214913547825	0.0033170575757550673	2.0831679970898046e-05
Xe	0.00016127161861831293	-8.154334443308014e-05	0.002799442873936314	-0.004228497179732258	-0.008610621779265248	-2.7832695582502893e-05
2
234400
Ar	-0.00029309223340371997	-0.0003728299361006629	0.003175145018710019	-0.02020879481809505	0.015998594068763403	-4.7742304584827627e-05
Xe	9.797143902974725e-05	-0.00015176738692097128	0.002799372580534407	-0.008145564337843246	-0.005105074596366936	3.74700878067512e-05
2
234600
Ar	-0.00044382587284616895	-0.00016717347589756412	0.003174749912315106	-0.009167006196124783	0.02411984744605218	-4.3384347613252544e-05
Xe	6.428716936729554e-06	-0.00017878621765301335	0.0027997377215726554	-0.00971428016406227	-0.00017266333393780572	4.0189762655558306e-05
2
234800
Ar	-0.0004677585672467433	8.629302463932702e-05	0.0031743841804103222	0.004509226176802144	0.025322383302579885	-3.436957392818392e-05
Xe	-8.695955730304076e-05	-0.00015509340576040049	0.002800294462817944	-0.008509530454970512	0.004807087160494039	7.216630730152516e-05
2
235000
Ar	-0.0003580435396165834	0.00031506295017494704	0.0031743946242314227	0.016895511853334235	0.019321378689057974	1.8131189588925742e-05
Xe	-0.0001551951352748182	-8.733848646332722e-05	0.002800991689782381	-0.004825339089358404	0.008412839878649804	4.7352407851944305e-05
2
235200
Ar	-0.00014608336429747161	0.000453821183936897	0.003174912457522373	0.024464537851326833	0.007769954317661357	6.941428783173117e-05
Xe	-0.000178973080720756	5.3222605132062534e-06	0.0028013954096749614	0.00020035153519977592	0.009678395931752745	3.4212623315148455e-05
2
235400
Ar	0.00010768396946787678	0.00046335037404474924	0.0031755896697908564	0.025043135891937837	-0.005934781473532214	5.316832152506028e-05
Xe	-0.00015165053165322722	9.683739923936101e-05	0.0028014770051692462	0.005136698405874854	0.00818103764729186	-3.066762498756416e-06
2
235600
Ar	0.0003308375794005088	0.00034060128297761964	0.0031760160999300792	0.018494897308852523	-0.01801981920952932	2.6964882722688105e-05
Xe	-8.130338617120718e-05	0.0001609256692968862	0.0028011429383767226	0.008587215137959157	0.004322386221973355	-7.468324475650475e-05
2
235800
Ar	0.00045966025455388505	0.00012061686892798027	0.0031755923774070957	0.0066222014388664305	-0.024900921946470745	-9.252132612854529e-05
Xe	1.184946793550611e-05	0.00017897847082827496	0.0028002334931691145	0.009594390265265049	-0.0007803282835936185	-0.00010339729122321513
2
236000
Ar	0.0004571789699262587	-0.00013349464131576802	0.003174513049424104	-0.007110960473404226	-0.02469330640447399	-0.00010076190191544438
Xe	0.00010179136099924246	0.00014619910632217154	0.002799661000161083	0.007945523517600734	-0.005646764676193527	-3.1368531167108204e-05
2
236200
Ar	0.00032428338515357816	-0.00034923564309837174	0.0031736947253500785	-0.01884958812812377	-0.017427692487164304	-6.77247352978597e-05
Xe	0.00016295647506228795	7.173082779071458e-05	0.002799709973008694	0.0039676207476033705	-0.008872193092331447	4.172294766676311e-05
2
236400
Ar	9.845442258943963e-05	-0.00046537475116281544	0.0031736808054540536	-0.025201653405037647	-0.00522976007906645	6.821577727085125e-05
Xe	0.00017771616432469956	-2.301038211481842e-05	0.0028005720496068246	-0.0010821767768877085	-0.009624479604285313	9.571450369882105e-05
2
236600
Ar	-0.0001556426574749594	-0.0004489700179692137	0.00317476056869541	-0.024359225770377576	0.008434260359999474	0.00013101413369996374
Xe	0.00014230686968748875	-0.00011141723350860805	0.0028015124667619276	-0.005837930739537996	-0.007624951729356676	6.763524885100187e-05
2
236800
Ar	-0.00036524535557357665	-0.00030463583405580607	0.003175738435495309	-0.016535650549825115	0.019723618237288583	5.539677912678315e-05
Xe	6.661575148783692e-05	-0.00016829003772554437	0.002801980470957018	-0.008918793100042833	-0.003449776230332842	2.5067844086646816e-05
2
237000
Ar	-0.0004704786122714461	-7.348275749526058e-05	0.0031758432288690997	-0.003995528448132977	0.025389656763534652	-4.814733431079731e-05
Xe	-2.7727270918835828e-05	-0.00017717841892830083	0.0028020218961626584	-0.009488175681168718	0.0017249638057542053	-3.2281404538977645e-05
2
237200
Ar	-0.0004413198014574385	0.00017867263614072915	0.0031748932770983285	0.009682268557666188	0.02380894002958699	-0.0001128570168327096
Xe	-0.00011395152771904775	-0.00013548760584314044	0.002801376049906037	-0.007339975938324366	0.006403660476841775	-8.392787579945983e-05
2
237400
Ar	-0.0002861010420213008	0.0003797115034956814	0.003173889025077713	0.02060147807400859	0.015424860826077936	-7.113794409224074e-05
Xe	-0.0001675524101930043	-5.5023039971431253e-05	0.00280065533644168	-0.003117250005953856	0.009277516566706528	-6.156158352167044e-05
2
237600
Ar	-4.912848407211769e-05	0.0004724615615752179	0.0031733868156862766	0.025638639883751983	0.002676973228106816	-6.074567828544822e-06
Xe	-0.0001733304171026824	4.106193105955409e-05	0.0028000889523560205	0.0019876685388075977	0.009458227584676578	-3.869242464810668e-05
2
237800
Ar	0.00020180809141911866	0.00043076966126511163	0.003174071035786187	0.02332973568532081	-0.010820493411273611	0.00011203737133134417
Xe	-0.00012955148280603841	0.00012540408230494093	0.0027998990410351646	0.006534740416697569	0.006980128941512316	-9.006182942719545e-06
2
238000
Ar	0.0003950623959270721	0.0002661513474567325	0.003175286219837693	0.014373923285924354	-0.021303130481154096	0.00012615379735225445
Xe	-4.899968442134365e-05	0.00017403740756115473	0.0028000852730364627	0.009225654938245337	0.0024904636871860616	4.3189891174116696e-05
2
238200
Ar	0.00047547491655448154	2.507754354625883e-05	0.003176127631993711	0.0013149884648212852	-0.02570970607530016	3.056593798482967e-05
Xe	4.5781325414351106e-05	0.00017292760786688976	0.0028006553094414837	0.009276148689033882	-0.002690124570499233	6.305260169808267e-05
2
238400
Ar	0.0004198617403266801	-0.00022333766339857188	0.003175809147178968	-0.012144053621503746	-0.02274131002135196	-9.057350913207418e-05
Xe	0.00012755553873170755	0.00012272936435241586	0.0028010729249679494	0.006656965792389859	-0.007085675615232241	1.9031756640898426e-05
2
238600
Ar	0.0002440154572881683	-0.00040792784140218657	0.003174672709319272	-0.022150174281122068	-0.013271961352588745	-0.00014520427361420935
Xe	0.00017253030024649632	3.7710585253490415e-05	0.002801224576134725	0.0021448130674138065	-0.009499573908204138	1.8820598484797253e-05
2
238800
Ar	-1.4382411062377455e-06	-0.00047600640891210807	0.003173497000445936	-0.025761797342149614	-2.915773551281189e-05	-8.371902966029697e-05
Xe	0.00016840066454165673	-5.8190142420038474e-05	0.002801387734632136	-0.0029587780347798192	-0.00918646624292808	2.843541014539433e-06
2
239000
Ar	-0.0002464274964599032	-0.0004083000210242172	0.00317330388226301	-0.02203266451599178	0.013231799429431576	5.241752083968071e-05
Xe	0.00011632343132159898	-0.0001373064281818909	0.0028012861186501262	-0.007215786164996359	-0.006251238973838243	-1.5531530808640638e-05
2
239200
Ar	-0.0004211072078562713	-0.00022396301839370248	0.0031739273969175323	-0.01203787737069031	0.022740449142494193	7.091565202708493e-05
Xe	3.129049594648247e-05	-0.00017707302340399625	0.0028010796725769244	-0.009392660617508765	-0.0015034860699358887	-2.194309940046887e-05
2
239400
Ar	-0.0004753471978614473	2.4327967508434564e-05	0.0031748027991569585	0.001440553879781697	0.02568437681930016	7.77286096402795e-05
Xe	-6.281434373649598e-05	-0.00016628225778135116	0.0028009995939058756	-0.008967441514383955	0.003624101598215757	4.259875665233342e-06
2
239600
Ar	-0.0003939492537587808	0.00026521577926164546	0.003175470124379518	0.014461545728232428	0.021331518877435448	3.5668448235804605e-05
Xe	-0.00013908168527031415	-0.00010806291665491133	0.0028011361960915927	-0.005917823407891437	0.007734211738176232	-1.0368457066351579e-05
2
239800
Ar	-0.00020004014841054776	0.0004305926583615317	0.00317544587803437	0.02336058336452656	0.01094409585824658	-7.603399204022813e-06
Xe	-0.00017543765344296886	-1.9155125160596682e-05	0.002800807990859647	-0.0011918825485021768	0.009598557087751543	-4.0101226782233625e-05
2
240000
Ar	5.080958096725154e-05	0.00047298208777827076	0.0031752553817083174	0.025593505640036644	-0.0026428314036248965	-1.7459779460969304e-05
Xe	-0.00016143227298052754	7.492870997935287e-05	0.0028004972719439135	0.0039033549411581075	0.0087634511540145	-2.304461441893935e-05
2
240200
Ar	0.0002872101159530972	0.000380316100036937	0.0031748626091438205	0.020536070851976174	-0.015430702654147659	-4.026791373113066e-05
Xe	-0.00010100948720900698	0.00014748666952394342	0.002800334185384912	0.007850535848412155	0.005391829724302455	-4.8156921247016475e-06
2
240400
Ar	0.00044156691121415107	0.0001791615423051161	0.0031744986102475357	0.009594186782078969	-0.02381208401203011	-3.2945117128175435e-05
Xe	-1.1855850552440087e-05	0.00017777984777826668	0.0028005575768192486	0.009549195949213924	0.000501439751021154	3.200368516980024e-05
2
240600
Ar	0.0004701236367032517	-7.307684304858872e-05	0.0031739777840201987	-0.004034454218473248	-0.02539231581742494	-3.5785786744220366e-05
Xe	8.084039105235717e-05	0.0001569985074183511	0.0028009622075774827	0.008520185678865609	-0.004552367786721906	5.215226237937753e-05
2
240800
Ar	0.00036460510789689855	-0.00030432925839607607	0.003173762582473231	-0.016547871692137523	-0.019719690330695958	-6.363308193584415e-06
Xe	0.00015038110821696094	9.121898407469437e-05	0.0028013860407845492	0.005054154111129592	-0.008284140090320467	3.244856817362862e-05
2
241000
Ar	0.00015515639245959866	-0.00044875572277445466	0.0031738906042369716	-0.02434364380329416	-0.00847674301167878	4.630551974167715e-05
Xe	0.0001770159165288081	-5.089843802161371e-07	0.002801299153099767	0.0001462861414733912	-0.009607318543598403	-5.611799157918082e-05
2
241200
Ar	-9.876626825223272e-05	-0.00046538958438737017	0.003174438430628258	-0.025177440528506557	0.005247161001584462	7.190401243160484e-05
Xe	0.0001532102682150339	-9.175646532351988e-05	0.002800642028871525	-0.0047782027619557525	-0.008193436230141028	-5.9042202489174525e-05
2
241400
Ar	-0.0003242948704469014	-0.00034878558044324143	0.003175389990698819	-0.0188138466569983	0.01746928365968983	9.278723733664687e-05
Xe	8.594704021952162e-05	-0.00015664671173744963	0.0027998721701626397	-0.0083832888096723	-0.004461346545853322	-6.111053979805764e-05
2
241600
Ar	-0.00045701850407263705	-0.00013265679621705318	0.0031760778602418493	-0.007074858175122677	0.024720793041060063	1.563876047203678e-05
Xe	-6.1744456637463265e-06	-0.00017678776492624184	0.0027995896551644955	-0.009625357985936164	0.0005221303105056573	1.3049968302651993e-05
2
241800
Ar	-0.0004591642302820653	0.00012150866427302363	0.003175780766964599	0.006656633496275431	0.024867147087094792	-5.7844054619489416e-05
Xe	-9.712153485342863e-05	-0.00014656544806641866	0.002800174566798458	-0.008091044181182573	0.005394272326713373	0.00012079450425558753
2
242000
Ar	-0.0003302844533332805	0.0003410180708347814	0.0031752082498063524	0.018489087158824653	0.0179575201601494	-5.714904368543909e-05
Xe	-0.00016037236787013202	-7.432886407678558e-05	0.002801390807031087	-0.004235439510515411	0.008718639347597607	0.00011718602617775675
2
242200
Ar	-0.00010702776755239998	0.0004636207954792855	0.0031747131456938455	0.02506281066331623	0.0059485988925442775	-1.1505441828364303e-05
Xe	-0.00017786901200614842	1.9167736469424573e-05	0.002802081606189331	0.0008395298468708507	0.009520474951759944	1.9075014176590074e-05
2
242400
Ar	0.00014671670760083694	0.00045406224588869035	0.003174865943576057	0.024425360083132668	-0.007818204021756483	2.8742613619499237e-05
Xe	-0.0001445927401722441	0.00010695038254139465	0.002801906318418038	0.005662940487077758	0.007611831798326862	-3.279350435874795e-05
2
242600
Ar	0.0003583431818043545	0.0003144837431329357	0.003174942009325678	0.01684764346227665	-0.01939847051185279	7.764966203760402e-06
Xe	-7.015549992236117e-05	0.00016412826331075356	0.0028014624519239425	0.008869428611507899	0.0035415390900514344	-5.649191729225745e-05
2
242800
Ar	0.00046744333524638426	8.47318035950648e-05	0.0031749210065710287	0.0044299769413094405	-0.02541758305950463	-1.9513526879219295e-05
Xe	2.42189302515495e-05	0.00017415461159232576	0.002800938583728445	0.009549291414762432	-0.0015508643445139574	-5.956823180973466e-05
2
243000
Ar	0.00044305770803278237	-0.00016924393891135664	0.0031747313164821648	-0.009186287822908054	-0.024145373713310356	-1.906560941898072e-05
Xe	0.0001116488798696657	0.00013446555728597294	0.0028000877035170386	0.007501660151892892	-0.006190031407331136	-9.459585448842537e-05
2
243200
Ar	0.0002925366146814797	-0.0003749035207942858	0.00317484478855667	-0.020178264188881828	-0.01597600571152893	2.9082992025824206e-05
Xe	0.00016722357865051545	5.635448033001143e-05	0.002799346873223235	0.003336171524416671	-0.00904324055600358	-5.942602831754837e-05
2
243400
Ar	5.8481173836580105e-05	-0.0004733196535674151	0.0031750075201422224	-0.025495699150677856	-0.0032200367109052603	1.830642430657345e-05
Xe	0.0001750672101293053	-3.80837628465026e-05	0.002799031238067541	-0.0018122593809560593	-0.009382618697484614	1.3089661594591079e-05
2
243600
Ar	-0.00019272972086482138	-0.00043636082421375747	0.0031750471864303905	-0.02347817762568643	0.010415924946174106	-2.058208414306581e-05
Xe	0.0001327396666023554	-0.00012184266288139817	0.002799461869770117	-0.00645364352177077	-0.006971453147103585	8.300935134557925e-05
2
243800
Ar	-0.0003887440478351797	-0.0002747553275286118	0.00317493765692829	-0.014762712026546105	0.021107955908730252	-3.1948877248967485e-05
Xe	5.23093840574393e-05	-0.0001706893854864595	0.0028004994065370177	-0.0092327920059379	-0.002560771368771266	0.00013014076002073504
2
244000
Ar	-0.0004739133204345637	-3.448667279437305e-05	0.003174553963028408	-0.001860273849553541	0.02577797796620829	-4.586181256390032e-05
Xe	-4.286587133319085e-05	-0.00017073334493814473	0.0028018650227056648	-0.009336677696188723	0.0025593251726083724	0.00014043876270224245
2
244200
Ar	-0.000424032588013289	0.00021601523037908222	0.0031741566512961824	0.011595351476844401	0.023093645003006463	-2.5397406534219958e-05
Xe	-0.00012542664881811446	-0.0001221817850612503	0.0028029471851115663	-0.006772793318556091	0.00693127739596421	7.133017318370854e-05
2
244400
Ar	-0.0002530827225054067	0.00040505791110193094	0.003174523504769925	0.02173165432784897	0.013789681167154181	6.004954290580346e-05
Xe	-0.00017185889014751412	-3.907871139352981e-05	0.0028030022368771257	-0.0022839985601857144	0.009291154982487088	-6.977162180188593e-05
2
244600
Ar	-1.0302271243988219e-05	0.0004784254851628691	0.003174953570619705	0.02564047398260552	0.0005248296096825701	9.920247615046599e-06
Xe	-0.00016886359598095735	5.507985116728992e-05	0.0028018132682275333	0.0028468989873853766	0.009080002227033972	-0.00017732611869831472
2
244800
Ar	0.00023516803987544635	0.0004153150686127313	0.0031748069946829676	0.022248693020146107	-0.012859107152211415	-2.2739385232687645e-05
Xe	-0.00011767339637156103	0.0001337472566034293	0.002799858158016967	0.007161991176855258	0.0062945338942556614	-0.00017785750494048554
2
245000
Ar	0.00041335575283955395	0.0002335226853006128	0.003174664999587889	0.012514864681330591	-0.02260572997472659	-1.4614511552828153e-06
Xe	-3.2553369059990784e-05	0.00017485220259117287	0.002798681430662125	0.009430280036830186	0.0017159362206622428	-4.776489703184568e-05
2
245200
Ar	0.0004735986082062324	-1.5180527017903817e-05	0.0031748176846635775	-0.0007521654408229299	-0.02592937970013577	1.5210803934094077e-05
Xe	6.226222542494341e-05	0.00016630947444386477	0.0027985609207454945	0.009061897279121548	-0.003406882739354128	2.3216788706287298e-05
2
245400
Ar	0.00039877191931783786	-0.00025970502966393065	0.0031748115307291985	-0.013853576622732237	-0.02180483717270882	2.3785308923693953e-07
Xe	0.00013950449052387273	0.00010987726198693443	0.0027996088737756064	0.006007713147115697	-0.007595509193644051	0.00015536438675908335
2
245600
Ar	0.00020976754697359188	-0.00042999018993685324	0.0031746572144338552	-0.02300109483555135	-0.011416291265231308	-2.8190518798926236e-05
Xe	0.00017680757900930073	2.201176721553877e-05	0.0028012167688275147	0.001274277259611431	-0.009545528011867097	0.00016343442164245138
2
245800
Ar	-3.891876049084894e-05	-0.0004771301499862064	0.003174036463870096	-0.02552734772881605	0.0022368328506476394	-7.702902784777348e-05
Xe	0.00016372075582306615	-7.20947853846841e-05	0.002802765700181824	-0.0038180178671591634	-0.008819896143865169	0.00014702619554837206
2
246000
Ar	-0.0002762513375875955	-0.0003882422121929084	0.0031736616551306155	-0.02079280087320092	0.015120916476200341	1.7676044670559309e-06
Xe	0.0001040225444959972	-0.00014609549346453204	0.0028036337499032903	-0.007831539730402752	-0.005598799785713461	1.5426409402588932e-05
2
246200
Ar	-0.0004349324535993451	-0.0001887931343969697	0.003174133468005639	-0.010182668321738135	0.02378871264384708	0.00010280904719300513
Xe	1.4925825441520105e-05	-0.00017847666865522535	0.002802779458188626	-0.009566216953551683	-0.000721246416537358	-0.00016569734607432672
2
246400
Ar	-0.00046992231901834554	6.442651216501675e-05	0.0031751327922879915	0.0033629260264231753	0.025619598646030136	0.0001029727850404871
Xe	-7.816376278578072e-05	-0.00016000568841231027	0.0028006785516072434	-0.008600772858423917	0.004337625572274244	-0.00024760933105839845
2
246600
Ar	-0.00037092600470539346	0.00029899668202947814	0.003176076187640142	0.01597552187476806	0.020128957901115428	6.903467436848895e-05
Xe	-0.000148799626492158	-9.57821078696072e-05	0.0027983297471098462	-0.005181756885251575	0.008185377618881643	-0.0001989440817755351
2
246800
Ar	-0.0001659448862012685	0.0004476198086153462	0.0031759452494047337	0.02402178151321363	0.008863520829565156	-8.428955088857741e-05
Xe	-0.00017667445665810611	-3.940803991138701e-06	0.0027973351642498947	-0.00028757075825937316	0.009734990515844871	2.321247866265144e-06
2
247000
Ar	8.644296267395216e-05	0.0004679455522656846	0.003174767635650044	0.02522315048218413	-0.004882618271699269	-0.00013307074966272718
Xe	-0.00015424917984315986	8.956595585807199e-05	0.002798130905180284	0.004659434763604109	0.008504047370548266	0.0001435932537513727
2
247200
Ar	0.0003142026222310932	0.000354705328984749	0.003174048996198364	0.019223477257404628	-0.01719411362838595	-2.1894273544178978e-05
Xe	-8.771265064096746e-05	0.00015761436556406932	0.0027998037151354526	0.008320375291571206	0.004782504495324124	0.0001783330727098485
2
247400
Ar	0.00045253504611027413	0.00014062984737468377	0.003174107190428486	0.007753244838379322	-0.02459180250772588	3.0451275316195728e-05
Xe	4.066020014400985e-06	0.0001806705180006879	0.002801656424469384	0.009582412718845872	-0.000276115670240333	0.0001609027609395821
2
247600
Ar	0.0004619414060864444	-0.00011367105648012017	0.003174820041464819	-0.005940935819394728	-0.025020920969029643	8.265917348640986e-05
Xe	9.476900409208335e-05	0.00015221125890640087	0.002802998667497332	0.008131075842272033	-0.005282114463089061	8.447372365032796e-05
2
247800
Ar	0.0003392354126083631	-0.0003355570808123386	0.0031754598287666367	-0.017992794503254583	-0.018305405670229966	3.1787910267624114e-05
Xe	0.00015862489419781164	8.009346042454489e-05	0.0028032508129423855	0.004306981119006771	-0.008766388766223888	-3.678413139800275e-05
2
248000
Ar	0.00011947689051019741	-0.00046205889637185966	0.003175583685726279	-0.024877019350304255	-0.006381041202135525	1.832272527005803e-05
Xe	0.00017687622127191167	-1.4819445531767952e-05	0.0028024262764780785	-0.0007456259183208573	-0.009755805375857657	-0.0001334880307128396
2
248200
Ar	-0.0001343463695402646	-0.00045701174463361904	0.0031755830708971823	-0.024683250755101745	0.007375246045938034	-5.632773077391982e-05
Xe	0.0001444515638218543	-0.0001055290760073151	0.0028008039879497443	-0.005568949757695083	-0.007930773239228247	-0.00018959976253119887
2
248400
Ar	-0.00035032649987077485	-0.0003216869473974335	0.0031748949305815117	-0.017451195387288024	0.01904570033248375	-7.69718947054666e-05
Xe	7.04680113122905e-05	-0.00016584615521860678	0.002799014518613421	-0.008862490178210837	-0.0038196874418138377	-0.00017039890599296537
2
248600
Ar	-0.0004664946001507778	-9.438645141080686e-05	0.003174100077204749	-0.005192315300337954	0.025335674635574384	-7.50210507464695e-05
Xe	-2.423084406908364e-05	-0.0001785168246054381	0.0027978384031988085	-0.009583980082014642	0.0013314592367590673	-2.4424112580683073e-05
2
248800
Ar	-0.00044896703594258266	0.000160320877835913	0.0031736677290182804	0.0086106755138873	0.024335024774370755	-1.7159226805433663e-05
Xe	-0.00011207000179500917	-0.0001401110207946493	0.002798494776594293	-0.007580114000378528	0.006151390906122976	0.0001418576944362866
2
249000
Ar	-0.0003027487234287128	0.0003689769253518582	0.003174041571059319	0.019908542297072264	0.016368153245866025	7.831630202022659e-05
Xe	-0.00016814288846815056	-6.171917439828323e-05	0.002800429788233765	-0.0033535621112354987	0.009162832117126644	0.00023954268777814748
2
249200
Ar	-7.008091079906631e-05	0.0004720324995021854	0.0031751886951979363	0.025490430925522146	0.003736740728302644	0.000142488209559706
Xe	-0.0001760256396442867	3.428400182390429e-05	0.002802602744263816	0.001825962870749586	0.009556748274824257	0.0001709585610648545
2
249400
Ar	0.00018258505672481343	0.00044051933257268706	0.0031763771320924483	0.023819539927830872	-0.009882670643318955	9.061158838406482e-05
Xe	-0.000133442123253886	0.00012051542511900468	0.0028035469930650573	0.006489947281430343	0.0072319131538506245	9.003297037856944e-06
2
249600
Ar	0.00038350179944572735	0.0002836925465559997	0.0031767469565797467	0.015368891457262727	-0.020709636218478596	-4.85844747354918e-06
Xe	-5.260670311459627e-05	0.0001719795654194255	0.0028027795447031507	0.009268219020242443	0.0028238811853404113	-0.000138304531545436
2
249800
Ar	0.0004747282942927817	4.608115165311762e-05	0.003176165518213784	0.0024467933343735346	-0.025664795034748635	-9.097139427458165e-05
Xe	4.3246302949102625e-05	0.00017444255475768165	0.0028009491892261825	0.009416157967064022	-0.002366351148905714	-0.0002229193477924419
2
250000
Ar	0.0004302197680569071	-0.0002047321197151178	0.0031749655412265897	-0.011150595634936311	-0.023284852008139862	-0.0001289586666568407
Xe	0.0001265539171204053	0.0001271534779630078	0.00279872933538457	0.006863862664208226	-0.006864517053138974	-0.00020509101883001995
2
250200
Ar	0.0002625413822916275	-0.00039708529249716195	0.0031738199737763487	-0.021554524039734825	-0.014235995431215917	-6.261189952153717e-05
Xe	0.00017389984613251479	4.359195153382187e-05	0.0027971741946136103	0.0023626212423986516	-0.009427533457145183	-8.342233730789703e-05
2
250400
Ar	2.0103389210838435e-05	-0.00047595823511231434	0.003173682744784927	-0.025775155506477423	-0.0011532142109031405	5.16712910465437e-05
Xe	0.00017140470652019475	-5.2501136463946274e-05	0.002797426287245361	-0.0028394490723438926	-0.009334054110076604	9.683119631600557e-05
2
250600
Ar	-0.00022815464189160944	-0.000419122719317849	0.0031746219096855334	-0.022662554547293705	0.012263970593943213	0.00010788573724193386
Xe	0.00011997140735235353	-0.00013370730774341265	0.00279901363020568	-0.007187653490679386	-0.006539841898215521	0.0002051835848132393
2
250800
Ar	-0.00041124858574553277	-0.0002425570367928476	0.003175699246792687	-0.013072956283761906	0.02219118454549346	8.53087459809232e-05
Xe	3.445935535551525e-05	-0.0001769536365572909	0.0028010519092291674	-0.00948476424818565	-0.0018927435617855624	0.0001904880918765579
2
251000
Ar	-0.000476787571709909	3.561914178470975e-06	0.0031760867615183296	0.00026506752278800507	0.02581239665328224	1.732250108759342e-06
Xe	-6.0656525478468345e-05	-0.00016974184987546923	0.002802703161521883	-0.009069246372857425	0.0033325790014160942	0.00012076857564923702
2
251200
Ar	-0.00040625969201200023	0.00024892557621131346	0.003175909554135228	0.0134900742506481	0.022049837301596587	-5.1954537619468865e-05
Xe	-0.000138185825212701	-0.00011381404966688991	0.002803472614101702	-0.006063356613160948	0.007574310501971965	2.3308105685243036e-06
2
251400
Ar	-0.00021997688984934241	0.00042327191453508006	0.0031749549323271693	0.022868026266682672	0.011960593924820004	-0.0001191938444887351
Xe	-0.00017612393814084139	-2.5590563075724617e-05	0.0028027005025661965	-0.0013179596143098203	0.009659363355972268	-0.00013552210988684169
2
251600
Ar	2.903102705108885e-05	0.0004767493419488587	0.0031738229601074104	0.025709331644174667	-0.0015193057819193785	-8.516271897952339e-05
Xe	-0.00016341130565244644	6.997729806284117e-05	0.002801008238486625	0.003775728188401926	0.008984581652502202	-0.0001795112057505639
2
251800
Ar	0.0002694560341729509	0.0003943879921110006	0.0031732247303395003	0.021202628390783167	-0.014553892957123988	-2.324197103009373e-06
Xe	-0.00010420584151625254	0.00014522668666961877	0.002799271389141676	0.007769348367288179	0.005698930416278626	-0.0001313099896203932
2
252000
Ar	0.00043272263904334176	0.0001991499956986365	0.0031738842917349588	0.010641391431783442	-0.023523811052644016	0.00010975179846158007
Xe	-1.5405154210924154e-05	0.0001788610531030175	0.0027981505588476965	0.009571691993491465	0.0008532393055737261	-6.913709418539413e-05
2
252200
Ar	0.00047222882938742716	-5.289769112782098e-05	0.0031751468140587915	-0.002927051496284067	-0.025666644409017707	0.00011959560883592044
Xe	7.808008400492072e-05	0.00016153049334455911	0.0027982863967385293	0.008649640969200074	-0.0042536976375428135	7.766799743008093e-05
2
252400
Ar	0.0003771908029897254	-0.00028976909205349037	0.0031763210461561767	-0.015631614799540294	-0.02052833674356341	0.00010411969432085764
Xe	0.0001493343213855843	9.801409342938012e-05	0.00279965608123011	0.005240191622804054	-0.008141626439579065	0.00017354126925825958
2
252600
Ar	0.00017455479743652886	-0.0004438029863516805	0.003176873249408385	-0.02391144065318058	-0.00952666975639419	-9.127345071226383e-06
Xe	0.00017793818424737803	6.359951655769192e-06	0.0028014382630027804	0.0003517630433586508	-0.009725290754895713	0.00018689486786082712
2
252800
Ar	-7.820857342112766e-05	-0.00047108023779643654	0.0031763410748858463	-0.02539520993451194	0.004201060491253533	-0.0001133128288659752
Xe	0.00015595365254514242	-8.713334169757716e-05	0.0028028102900548376	-0.004663900160856993	-0.008502430135511134	8.375838814197769e-05
2
253000
Ar	-0.0003087993078600262	-0.0003641420760395975	0.0031747858895806408	-0.019638221848398325	0.016682410858551117	-0.00016876584276612972
Xe	8.951288431141211e-05	-0.00015560427647650358	0.0028030109757968807	-0.008316523618927749	-0.004839974625566349	-5.243908341133428e-05
2
253200
Ar	-0.00045203710905487697	-0.00015347976638948411	0.0031733597088965397	-0.008283802234353838	0.024408318088333256	-0.00011446906397788468
Xe	-2.23336763290566e-06	-0.00017945902165645522	0.0028018487526228746	-0.00958160881353852	0.0001839289757737718	-0.0001625505748225109
2
253400
Ar	-0.00046641814847574826	0.00010084431090968137	0.003173004400632855	0.005463619326550443	0.025212555342976384	3.197012665586521e-05
Xe	-9.330202516911905e-05	-0.00015219541932874465	0.0028001953240152488	-0.00818432370729963	0.005128008052700238	-0.00014376748909638635
2
253600
Ar	-0.00034792190925258653	0.00032630444646283147	0.0031737649331542114	0.01766408149313432	0.01877085254520115	0.000147987271321443
Xe	-0.00015786453535763013	-8.1715069468505e-05	0.0027990191200544996	-0.004396246608959503	0.008624169493244346	-7.688338953404185e-05
2
253800
Ar	-0.00013013648497447246	0.00045814392396942874	0.003175429776688591	0.024832450959882377	0.00695157638068409	0.00014983493545055342
Xe	-0.00017710675104977528	1.1895265748021432e-05	0.002798859872869519	0.0006381174616799573	0.009664592353287085	3.069689759978786e-05
2
254000
Ar	0.0001247032812006491	0.00045882819883013063	0.0031763804977744292	0.02488341257849004	-0.006809289065916623	4.6674225676655044e-05
Xe	-0.00014569972704258806	0.00010206962291644243	0.002799565312129916	0.0054736535410343685	0.007946365666103189	9.356341302035904e-05
2
254200
Ar	0.00034372265455034825	0.0003287887367334454	0.0031765685493839453	0.017855678445228125	-0.018579241933121396	-3.529554185182571e-05
Xe	-7.252118782059337e-05	0.00016321700831640004	0.0028004402683579443	0.008802050822571877	0.003985314915913994	0.00010536080838740657
2
254400
Ar	0.00046463074288584925	0.00010499930068968963	0.003176053023773823	0.005724973094885117	-0.0250788440898235	-7.823557619914699e-05
Xe	2.166108053582043e-05	0.0001779557479128072	0.0028014355869753565	0.009571380069173916	-0.0011357365462961275	8.999750968199804e-05
2
254600
Ar	0.0004529057538960105	-0.0001487624154445399	0.003175190641241626	-0.008018361806716855	-0.02443029055456418	-9.90753851642654e-05
Xe	0.0001095671466347912	0.00014146548587110316	0.0028020015950743853	0.00759031317108576	-0.005964122874042527	3.841573836467194e-05
2
254800
Ar	0.0003116784005510256	-0.00036014141032402207	0.003174264056683551	-0.019507731412818224	-0.016815751111162434	-6.017559249790054e-05
Xe	0.00016622470582758515	6.448644667230653e-05	0.002801947741068709	0.003446921771344359	-0.009040619589295482	-6.200797692958298e-05
2
255000
Ar	8.137239008608148e-05	-0.0004689716396839137	0.0031739345345194315	-0.02541779162031255	-0.004424103085841195	1.8013128089675123e-05
Xe	0.00017518975853995548	-3.077505650119475e-05	0.00280087941217054	-0.001660049079880861	-0.009541295055207566	-0.00015208609760626807
2
255200
Ar	-0.00017234689302603656	-0.0004441314822301683	0.003174242849720766	-0.02408986865975954	0.009284996186055147	4.368202797566104e-05
Xe	0.00013426008024286916	-0.00011710503991617773	0.002799404590428432	-0.006301795548365928	-0.007314137520699354	-0.00013889796141727256
2
255400
Ar	-0.0003770031833255684	-0.0002924466803025507	0.0031748577353155455	-0.015847486263166018	0.020313417865979764	8.476961918666337e-05
Xe	5.515768475352769e-05	-0.00016992085691248585	0.002798551743583028	-0.009149941830961872	-0.0029967996678867312	-2.5150516027511894e-05
2
255600
Ar	-0.00047396077992979755	-5.722061898620697e-05	0.0031756397130413565	-0.003044073389285912	0.025572911378369124	7.662912582280694e-05
Xe	-3.993940142315944e-05	-0.00017419499835622068	0.0027988421427431677	-0.009378914523206194	0.002166636555556332	7.945760913946158e-05
2
255800
Ar	-0.0004350772150031444	0.00019444671790411273	0.0031762745256999295	0.010629429103865055	0.023524301849175328	6.117574645083933e-05
Xe	-0.00012380017430236472	-0.00012864984355430572	0.0027996633909260446	-0.0069789994149424914	0.006749449386424428	7.509844918940291e-05
2
256000
Ar	-0.00027191806662201314	0.0003903478737779882	0.0031765334215123416	0.021203638730994998	0.014687514454713967	-6.020428071089659e-06
Xe	-0.0001725871998908796	-4.6034240816322585e-05	0.0028002045582359047	-0.0025402254779108274	0.009347687777261743	5.002692614171944e-05
2
256200
Ar	-3.143576616685177e-05	0.00047431065844254694	0.0031759375290516464	0.02573247388690348	0.0016995836568838721	-9.861513870526063e-05
Xe	-0.00017223459655114356	4.977891352714496e-05	0.002800613781783329	0.002583418664803941	0.00932282287501488	3.234580218401128e-05
2
256400
Ar	0.00021780062934915993	0.00042293851215662037	0.003174821031639668	0.022895395166382632	-0.011755991673398617	-0.00013413577943441611
Xe	-0.00012330870052659233	0.00013145386382496413	0.0028007934254997615	0.0069877806247429595	0.006610159592953641	-2.513333922622042e-06
2
256600
Ar	0.0004045381037207809	0.00025080407851604114	0.0031738197206698767	0.01355264115436342	-0.02183888595260382	-4.371977147374272e-05
Xe	-3.9189082622180263e-05	0.00017554448763079246	0.0028008874732181476	0.009441102341110777	0.00198840030501621	1.8597955228919528e-05
2
256800
Ar	0.0004758230393199762	7.071264307188519e-06	0.0031736818065073074	0.0003824640177301893	-0.02569714304185753	3.338127270041559e-05
Xe	5.5964794977594206e-05	0.00016943227345061416	0.002801195254862789	0.009105683153666251	-0.0031843632718585556	3.701587432575117e-05
2
257000
Ar	0.00041182324420019855	-0.00023843600926424713	0.0031743317818878425	-0.012876166878339165	-0.022219371244320354	0.0001019310314770895
Xe	0.00013462544903737343	0.00011486001462144653	0.002801355158620507	0.0062205184828335106	-0.007442387353637616	2.1319479468703944e-05
2
257200
Ar	0.0002307814827191581	-0.0004160650763108435	0.003175524787229404	-0.022465693048130196	-0.012418139827384484	0.00013707611324344362
Xe	0.00017461111911315903	2.781600847560372e-05	0.0028012165641887066	0.0015584557460301197	-0.009540191945659592	-3.170699813246251e-05
2
257400
Ar	-1.584677398392134e-05	-0.0004747370644782715	0.003176654324591629	-0.025657501584526343	0.0009575061766948419	8.774227866020158e-05
Xe	0.00016462786035662308	-6.70199388371684e-05	0.0028005866140098966	-0.003518573230602573	-0.008971739406375957	-8.50222521272941e-05
2
257600
Ar	-0.00025760894250164736	-0.0003980667746013875	0.0031771176203753966	-0.021535681944876317	0.014030464313991515	1.3222055437058903e-05
Xe	0.00010734318578915148	-0.0001428858729735392	0.0027993614471233863	-0.007648698992512721	-0.005825258849177973	-0.000109830623183742
2
257800
Ar	-0.00042568535873983886	-0.0002078055181971252	0.003176974394728131	-0.011285977894702967	0.02311980875092654	-5.929997158686512e-05
Xe	1.9053644296897086e-05	-0.0001781882399220798	0.0027985379785035783	-0.009586501228258857	-0.0010838009778330836	-4.9291704137100264e-05
2
258000
Ar	-0.00047234775279171717	4.192197977420615e-05	0.003176004930696268	0.0021678085347912254	0.025602000289699986	-0.00013935955922431804
Xe	-7.50015507098304e-05	-0.00016297593737064266	0.0027983732093226207	-0.008769701674727856	0.004046778608868473	4.065087896580017e-05
2
258200
Ar	-0.00038445711716482455	0.00027989860764375454	0.0031744987422412827	0.015001206709028072	0.02079862169751605	-0.00015007823506735105
Xe	-0.00014794653556681695	-0.00010124700799428654	0.0027993533300144594	-0.005454214526395599	0.008011999263146925	0.00011891413540459886
2
258400
Ar	-0.00018686226967118167	0.00043784100548817454	0.003173468838977716	0.02355438591632642	0.01003807654921653	-4.120058146930467e-05
Xe	-0.00017891263908332032	-1.0654139727710952e-05	0.0028007510342756624	-0.0005806036997816732	0.009669173607354137	0.00012269074973629505
2
258600
Ar	6.415225662882501e-05	0.0004712515224479921	0.0031736414240269573	0.025421097178498928	-0.0035494561244649612	7.33003904329133e-05
Xe	-0.00015907265201757953	8.253131662361372e-05	0.0028016490969442575	0.0044605151189184905	0.00850970901769498	5.84194523438626e-05
2
258800
Ar	0.0002971795005975709	0.0003702182210248882	0.003174707608204405	0.020047448778345335	-0.01615353070948482	0.00011333748255419631
Xe	-9.402793981006843e-05	0.00015153986038335418	0.0028019798679918798	0.00820968772876725	0.004936972971980279	-9.949887852066561e-06
2
259000
Ar	0.00044547141668645115	0.00016348981200603913	0.003175979068475096	0.00889976975956641	-0.024166597250871787	0.00013020189858780102
Xe	-2.5400000649935197e-06	0.00017681088389616615	0.0028014733950869936	0.009624214393689408	-1.0089576792559462e-05	-6.861401721891175e-05
2
259200
Ar	0.0004663559581461478	-8.98333200651153e-05	0.003177223719435885	-0.00481323368990984	-0.02526729303558696	9.714671883771363e-05
Xe	8.959266635088738e-05	0.0001515215644501024	0.00280068348446339	0.00835733376735854	-0.004903180346945478	-0.00010487621324836836
2
259400
Ar	0.00035394967548889474	-0.0003175928808276357	0.00317766582158272	-0.017105933243493188	-0.019132175665574576	-6.350388985493323e-06
Xe	0.00015627751225183619	8.309683839796686e-05	0.0027996429465796343	0.0046664653679450475	-0.008445038777913909	-9.351394603371061e-05
2
259600
Ar	0.00014054142714366947	-0.00045406901918339313	0.003176973926177375	-0.024520744005902817	-0.007512926861962615	-0.00012042713212845219
Xe	0.00017843007451420385	-9.393684111358216e-06	0.0027986513943331235	-0.0003391112148786492	-0.00956000591701757	-8.648664619793838e-05
2
259800
Ar	-0.00011290659403485327	-0.0004606005782511791	0.003175601869201346	-0.024931619839516906	0.006225138726085683	-0.0001598345492776053
Xe	0.00014954223291850996	-9.903944617641448e-05	0.002798043479092081	-0.005293257307754416	-0.007942854243211356	-1.3976820671652683e-05
2
260000
Ar	-0.00033422649080470875	-0.00033582376794966844	0.0031743652272312223	-0.01826121173387677	0.018131627582529272	-7.624864464616587e-05
Xe	7.782100688510468e-05	-0.00016064606033008188	0.002798471175679908	-0.008724699346898852	-0.004045814438841145	9.705698247455951e-05
2
260200
Ar	-0.0004606462812547049	-0.00011559744104732413	0.003173802864347653	-0.006389272446578309	0.024842808108933988	-1.2285436980826116e-05
Xe	-1.6367418988479055e-05	-0.0001764135218375874	0.0027997415521395447	-0.00962827087389255	0.0009745710260447662	0.0001583968947032643
2
260400
Ar	-0.0004560369228687949	0.00013746447862257268	0.003174347299917628	0.007288487252687045	0.024520647906104982	0.00010557935107058149
Xe	-0.00010555297424601043	-0.00014178230466278298	0.002801335520755506	-0.007769863519921324	0.005768278877659617	0.00010619112431319368
2
260600
Ar	-0.00032181909576354763	0.00035151129241103315	0.003175413978767867	0.01889900672417576	0.017227014263547537	0.00012132546240989283
Xe	-0.0001642172908221464	-6.673551357789383e-05	0.0028019801594799183	-0.0036875751613305676	0.008865630984395802	1.570274811173005e-05
2
260800
Ar	-9.602759662408304e-05	0.00046545176069326356	0.003176752251774337	0.02513494825663594	0.005016263562061908	0.00010419712741620356
Xe	-0.0001759528828725435	2.7194558855869212e-05	0.0028018494128431415	0.001391568788443204	0.009454055690024126	-2.836020895263528e-05
2
261000
Ar	0.00015688384752400225	0.00044676238466748733	0.003177610066097009	0.024188122094559044	-0.008642858394787963	4.329727006597299e-05
Xe	-0.0001377056404116963	0.00011334179930535702	0.0028010467359111104	0.006071040054267334	0.007370951545377169	-0.00013387677987029102
2
261200
Ar	0.00036485402798457073	0.00030103009037582123	0.003177453675343725	0.016362804126745293	-0.01978510041478697	-7.157749236431037e-05
Xe	-6.018755200097446e-05	0.00016749098645940782	0.002799420293668952	0.009067086055683661	0.003190800666741225	-0.00017803793949631023
2
261400
Ar	0.0004687684971735876	6.970774672909683e-05	0.003176417275892266	0.003915896312695545	-0.02536644655655521	-0.00014634493722441027
Xe	3.512508074221833e-05	0.00017377169341780243	0.002798070598537061	0.009533450814883836	-0.0019594780817279215	-6.783005265944413e-05
2
261600
Ar	0.00043911387542504846	-0.0001817856251644475	0.003174748638203925	-0.009702809351541362	-0.023683229818673966	-0.00014979493458616938
Xe	0.00012088750052334294	0.0001305332464621331	0.0027979552985910247	0.007196798051183901	-0.006523753235315394	2.461652926827829e-05
2
261800
Ar	0.00028412770189041467	-0.0003813410122064531	0.003173474197876232	-0.020538147211483726	-0.015274503414066661	-8.293766159071863e-05
Xe	0.00017210916847180892	4.985159497618527e-05	0.002798613062514625	0.0028423286560622894	-0.00923315592923002	0.0001013220403170434
2
262000
Ar	4.817850186821055e-05	-0.0004725199512876263	0.0031733667544720295	-0.025480703017194923	-0.0025043960308655444	6.506707846883239e-05
Xe	0.00017446421092696127	-4.512141710529395e-05	0.002799639490999345	-0.002369253064963229	-0.009300086432558152	0.00012653338718043164
2
262200
Ar	-0.00020150969826292345	-0.0004292093488212811	0.00317437594578729	-0.02324068345208614	0.010963542201451406	0.00014295730277335604
Xe	0.00012704452025030894	-0.00012711536508441343	0.0028007300380093595	-0.006872015133430825	-0.0067121139190231514	9.41700787346473e-05
2
262400
Ar	-0.0003940508671562856	-0.0002635524578480351	0.0031761738347781342	-0.014357025621347245	0.02133526897729882	0.00020110304222441348
Xe	4.370508902160817e-05	-0.00017292809818529665	0.0028012613443832786	-0.009393039613735428	-0.002225751876695294	3.1103641505647557e-05
2
262600
Ar	-0.00047463261328305754	-2.2849368234836474e-05	0.003177907749834327	-0.001360594505237635	0.025616287752467687	0.0001207707493353462
Xe	-5.1855403817383684e-05	-0.00016945710713614604	0.0028013507752860023	-0.009265390176398844	0.002878486619649692	-1.4264083656919185e-05
2
262800
Ar	-0.0004198255440187306	0.00022412438251568292	0.0031782786974668777	0.012061458997998271	0.022594640929086557	-5.7179700077130316e-05
Xe	-0.0001328221348265359	-0.00011801343558466988	0.0028007370849972724	-0.006547953842978765	0.007178293340028933	-7.122084594138683e-05
2
263000
Ar	-0.0002447619713418921	0.0004073305145372705	0.0031767987079686583	0.022077765433430683	0.01313341685474131	-0.0001987094214220201
Xe	-0.00017611098177964057	-3.2587172098560905e-05	0.0028000405396848087	-0.0019163235280077436	0.009490091159571617	-5.745780505142396e-05
2
263200
Ar	5.219871194010326e-07	0.00047443635515046845	0.003174699975996199	0.025783629845914	-7.387080152798542e-05	-0.00020704028434416995
Xe	-0.00016941620099591905	6.249201999689503e-05	0.002799455489180405	0.003231055866044303	0.009070322869157935	-5.18790750026664e-05
2
263400
Ar	0.0002460521391693982	0.00040583468924342106	0.0031731422835342177	0.022096334832867104	-0.01329743008820202	-9.028017682526145e-05
Xe	-0.0001146583036294384	0.00013973818712725245	0.002799214046614474	0.007477006117686894	0.006004234642880941	-1.3223105617684964e-06
2
263600
Ar	0.0004215795149266071	0.00022131380916523948	0.003173119122662109	0.012136782974606007	-0.022724619215798773	6.900555296100008e-05
Xe	-2.7152031331596687e-05	0.00017680483452468156	0.0027995759809820546	0.009585832197807254	0.001243045797234072	6.723568108674977e-05
2
263800
Ar	0.0004769114250792883	-2.667186875664847e-05	0.003174361869881103	-0.0013390814846442568	-0.025632057907507465	0.00015951827624750018
Xe	6.795527129493866e-05	0.00016328239492664022	0.0028004527340136304	0.008979154172180533	-0.003865422674551421	0.00012009877270186022
2
264000
Ar	0.00039615873362582103	-0.0002667056141915288	0.0031759608961221234	-0.014408446704232176	-0.02121223153002088	0.0001413605621128334
Xe	0.00014372758231967231	0.00010328995784413722	0.0028014180113310532	0.005795137908284819	-0.007864524596865891	6.957623242540219e-05
2
264200
Ar	0.00020248770313171797	-0.00043066137850005903	0.003176887836347029	-0.023368854030378007	-0.010786643195473514	5.871402317164215e-05
Xe	0.00017845956180489436	1.357240063529978e-05	0.0028018777360075877	0.0009801700242708003	-0.009635969531138492	6.133572885942416e-07
2
264400
Ar	-4.915295512561155e-05	-0.00047199087810061586	0.0031769321886517526	-0.025716394357127116	0.002732370326130536	-5.167938811049411e-05
Xe	0.0001621878272907465	-8.030742182763221e-05	0.0028013439961457106	-0.0041480945697911905	-0.008652334083969834	-8.215200197855387e-05
2
264600
Ar	-0.00028688302794114705	-0.0003785349571466795	0.0031760238860255733	-0.02064432415944675	0.015484911539983607	-0.00013087136373628405
Xe	9.92508199662231e-05	-0.00015126498383084328	0.0027999865667284202	-0.008130546842892541	-0.005201620769110546	-0.00014988450804886232
2
264800
Ar	-0.0004421974559495187	-0.00017712501576672347	0.0031746235363569633	-0.00967234083988595	0.023781412907311884	-0.00014226090356592985
Xe	7.4652394381637495e-06	-0.00017927001594562837	0.002798649408021414	-0.009779954614881799	-0.00023512370857286619	-0.00011242739564769092
2
265000
Ar	-0.00047129469826914105	7.459386418475339e-05	0.0031736051989616093	0.003983193042372698	0.025323935129979915	-5.110604792752517e-05
Xe	-8.679160527219047e-05	-0.0001560404919107836	0.002798243795005187	-0.008582940972545245	0.004765456310035552	1.809923097552846e-05
2
265200
Ar	-0.0003660609645283704	0.0003048564652315292	0.0031735939056986564	0.016532227863920307	0.01963949189999174	4.174958083706651e-05
Xe	-0.00015598139265968138	-8.838638481215804e-05	0.0027990270024354476	-0.004929737598160917	0.0084418031227681	0.00013279876313321127
2
265400
Ar	-0.00015642347576933679	0.00044856013449626723	0.003174597285914536	0.02435312468436561	0.008360539459681331	0.00013505300694752475
Xe	-0.00018059698277063312	4.399613819388212e-06	0.002800386890390331	0.00010526807421310224	0.009655439742810622	0.0001371468140310997
2
265600
Ar	9.791468223991837e-05	0.00046458248549299195	0.0031761770692065754	0.025259540708777412	-0.00527032446608336	0.00015946393865764755
Xe	-0.0001538855470022208	9.549938869173776e-05	0.0028016945433401446	0.0051337391277974775	0.008126617487792233	0.00011665751485068606
2
265800
Ar	0.0003246294215808026	0.00034810102312426365	0.003177340840568475	0.01897962133511146	-0.01746707671271559	3.949635880499927e-05
Xe	-8.30871631172129e-05	0.0001591174431130671	0.0028024624687334916	0.008708915104108601	0.0043024180417942405	2.6570335248024286e-05
2
266000
Ar	0.0004591040835516947	0.0001322603401764302	0.00317715466727512	0.007253997948440135	-0.024675029137499412	-8.312330016423559e-05
Xe	1.1800295268711203e-05	0.00017744321193051578	0.0028022147978387624	0.009802559041920173	-0.0007535465030597847	-6.538185185870181e-05
2
266200
Ar	0.0004625405589866445	-0.00012149884891299126	0.0031758069697867533	-0.006565985509546606	-0.024835929417073667	-0.00016256105811185355
Xe	0.00010334396293207784	0.00014473717071645883	0.0028011889294979396	0.008071727505676616	-0.005606155896855185	-0.0001367512372400383
2
266400
Ar	0.0003340875587951198	-0.00034048340560001336	0.0031745633825088666	-0.01849140676182047	-0.017898143714159747	-6.220842365296178e-05
Xe	0.00016530297940793118	7.057526072930514e-05	0.0027995481663972577	0.004014666297602518	-0.008834050082352789	-0.0001875446366039967
2
266600
Ar	0.00011028934122510643	-0.00046238975687517035	0.0031745755616132817	-0.02518193915001903	-0.0058717669723999735	5.7367985500268815e-05
Xe	0.00017986032827347088	-2.373695975645519e-05	0.0027980215934809496	-0.0011768665028620074	-0.009534565330469594	-0.00010346709838498246
2
266800
Ar	-0.00014537687293522772	-0.00045219625435976164	0.0031755366240917024	-0.024689738862441253	0.007866065171849724	0.00012935028444034286
Xe	0.00014285569488325096	-0.00011126020828094482	0.002797529952084802	-0.006026621752835559	-0.0075434260421368615	2.21163770051749e-05
2
267000
Ar	-0.0003596214241662081	-0.00031280788374966943	0.0031765811474393944	-0.017091321023005538	0.01931703103852967	4.155837419976867e-05
Xe	6.482329663055772e-05	-0.00016726056952713552	0.0027984272652394606	-0.009181216807681141	-0.0033783416881006337	0.00017182197231298095
2
267200
Ar	-0.00047092067189693257	-8.43417222830834e-05	0.003176589100371332	-0.004624995973300921	0.025261424619224884	-3.714750567564107e-05
Xe	-3.1764894847669294e-05	-0.0001756560682919663	0.00280078495035333	-0.00967417454214016	0.0017301830333484307	0.00024851596525855986
2
267400
Ar	-0.00044791534036583134	0.00016844955772556567	0.0031760491861033153	0.009111087836918942	0.024040935611045925	-6.828787645493066e-05
Xe	-0.00011922846614246896	-0.00013416220628100994	0.0028029390991249773	-0.007406179368204705	0.0063393421376777125	0.00016105487219959761
2
267600
Ar	-0.0002974739333463288	0.0003734314949457803	0.0031751823027439826	0.020262197570155023	0.01596423722355475	-9.576078721717722e-05
Xe	-0.0001725597519104415	-5.484821810391272e-05	0.002803616411836948	-0.0030213495085471623	0.009150630239887884	-3.068043770979681e-05
2
267800
Ar	-6.206239388433021e-05	0.00047259460473845865	0.0031746567501133084	0.02566942138841497	0.0033779876675666632	-3.526627786076938e-05
Xe	-0.00017682460671447265	3.9974803357965296e-05	0.0028026342901093407	0.0021906655809370026	0.009346683581506423	-0.00015604608235881347
2
268000
Ar	0.00019152865058267974	0.00043739402374059176	0.003174539252755175	0.023787002946753934	-0.010253500180752176	1.3945966989397368e-05
Xe	-0.0001307678267483326	0.00012334852488934015	0.002800695316732238	0.006795271598779102	0.0069226970560861655	-0.00021263389685769878
2
268200
Ar	0.00039078266649591136	0.0002775190075321278	0.00317474396297524	0.015084516063838224	-0.02096465631402219	2.203948043275992e-05
Xe	-4.734955150771153e-05	0.00017161054715604288	0.0027988453205221257	0.00948307259626928	0.002512817848572569	-0.00015144652994882428
2
268400
Ar	0.0004783282553200452	3.835061089573336e-05	0.0031749533653862767	0.001999911654202294	-0.02570058765899531	1.5001491672457331e-05
Xe	4.982606319970051e-05	0.00017106670162798576	0.002797815398331665	0.009467363556656496	-0.0026153323744110162	-4.6538449077120766e-05
2
268600
Ar	0.0004291354211942398	-0.00021166562339473572	0.0031750634396627447	-0.011600102825470367	-0.02308454428270345	1.164067272768577e-05
Xe	0.00013303124373509087	0.00012175878154515692	0.0027977675292022576	0.006745495463622725	-0.007011755234076677	5.3275683380838775e-05
2
268800
Ar	0.0002573952596684899	-0.00040123511236945646	0.003175156011540578	-0.021889686951032623	-0.013896811782720526	1.1943183007103372e-05
Xe	0.0001782304332916586	3.7397554981541905e-05	0.0027987590862716327	0.002080100513784401	-0.009426161017318385	0.00014195129737739124
2
269000
Ar	1.2106628241239549e-05	-0.00047629016396300884	0.0031755589742940874	-0.025959486602843498	-0.0007352569650668535	3.8971778484365774e-05
Xe	0.00017265169435825146	-5.7928930401782946e-05	0.0028004662338163826	-0.003168874026104417	-0.009165015113947775	0.00018912397906729623
2
269200
Ar	-0.00023682851410103802	-0.0004152899851934072	0.0031759244321545367	-0.02257646078148653	0.012658228139102777	9.499183730435829e-06
Xe	0.00011782506253149611	-0.0001369783561590187	0.002802112499195453	-0.007530939876813485	-0.006266280989838539	0.00014421753341665197
2
269400
Ar	-0.0004178407304842895	-0.00023556671293174287	0.0031758883388767582	-0.012745421228343998	0.022409514207979018	-4.711255608572655e-05
Xe	2.9320653563628615e-05	-0.00017694767177636647	0.0028031876258060207	-0.009723625720089073	-0.0015410122632007616	5.303288503706317e-05
2
269600
Ar	-0.0004796155865302621	1.1296782594342713e-05	0.003175293266756549	0.000696318848159441	0.02575376004250371	-7.740229247576045e-05
Xe	-6.745809909708348e-05	-0.0001663536580777431	0.002803072260352838	-0.009125535013169752	0.003602773596481731	-8.615602815376646e-05
2
269800
Ar	-0.00040453350428150213	0.0002548566791516706	0.0031746830651869736	0.01393802983523911	0.021759053896485775	-4.202351944401993e-05
Xe	-0.00014450204649787008	-0.00010857439140722047	0.002801727381167303	-0.0059118099990650074	0.007685666286325008	-0.0001922801988118649
2
270000
Ar	-0.00021417138676342443	0.0004257452249290011	0.003174501962222524	0.02320038926004168	0.011578987845781022	2.4823069633944115e-05
Xe	-0.000180216845539243	-2.0099007055305137e-05	0.002799591460664064	-0.0010708617237809017	0.00961429193271027	-0.00020133188964910426
2
270200
Ar	3.738169680327226e-05	0.000475250443119612	0.003174880405719401	0.025853302806236142	-0.001940459003443668	4.2945920369433996e-05
Xe	-0.00016468583825296983	7.424900639153643e-05	0.0027977107293973968	0.004100011337684737	0.008772911745258193	-0.00014220300628530456
2
270400
Ar	0.00027803834317486806	0.00038863608280969057	0.0031751976214371585	0.02109844868711519	-0.014955197087708977	3.286679360490847e-05
Xe	-0.00010199222103734676	0.00014745365349186753	0.002797211962257803	0.008093586341659022	0.005501703879080866	4.686163400811822e-05
2
270600
Ar	0.0004391084331969955	0.00019066481895497022	0.003175318873969531	0.010313952602741885	-0.023657885242303098	-1.410890724792246e-05
Xe	-1.0256281650846012e-05	0.00017896483914236005	0.0027983768116534996	0.009799531244847387	0.0006366143232975571	0.0001902835969975973
2
270800
Ar	0.0004746045101853707	-6.17129037977192e-05	0.0031752435747537055	-0.0033717026523664606	-0.02559776723604295	-2.053542947181731e-05
Xe	8.469170560727005e-05	0.00015953215452089978	0.0028006696179394288	0.008714098603915815	-0.004444171167791966	0.0002365798356453712
2
271000
Ar	0.00037494779905955137	-0.00029655031580782046	0.0031751643359238663	-0.016071016071336177	-0.020210675236741246	1.8826545719183417e-05
Xe	0.00015537796411172738	9.429881277805686e-05	0.0028026118493120577	0.005071325208182341	-0.008245321068291575	0.00014711008713477947
2
271200
Ar	0.000168510155936284	-0.00044665972837631463	0.00317539251027705	-0.024215641256650246	-0.00909701173338922	1.0275607429657613e-05
Xe	0.0001816019444218408	2.490116890194379e-06	0.0028033194480215134	4.368442305467008e-05	-0.009660827215337835	-2.5726794086182735e-05
2
271400
Ar	-8.623904687185209e-05	-0.000469454403197756	0.0031754059157327553	-0.025480947211088904	0.00464215918794607	-6.139708179005483e-06
Xe	0.0001561567420437013	-8.989697725642029e-05	0.0028024869903838707	-0.005011271419986484	-0.008359236072822226	-0.00013114527078290054
2
271600
Ar	-0.00031647926065454205	-0.0003579887408875315	0.0031752089887117185	-0.019417249664759658	0.01708894278115058	-3.2006954696756395e-05
Xe	8.634579019637371e-05	-0.00015650512255576123	0.0028007367943550915	-0.0086091725194631	-0.004621623012356803	-0.00021362458343514976
2
271800
Ar	-0.0004560478126898713	-0.00014427502082799192	0.003174682865768182	-0.007793900409649695	0.024605531653098655	-7.003881906201395e-05
Xe	-7.921744661855854e-06	-0.00017825829984890378	0.002798809789831914	-0.009779839422159752	0.00038486374741749524	-0.0001602602293598489
2
272000
Ar	-0.00046521162059618456	0.00011059654646478237	0.0031740454961674412	0.006008020333509395	0.02509125369918498	-4.573559913457829e-05
Xe	-9.992489950890952e-05	-0.00014909788109031857	0.002797883367775766	-0.008143116193681202	0.005321520535058346	-3.490050856032355e-05
2
272200
Ar	-0.00034154761547395396	0.0003340399236968132	0.003174054807568752	0.01809871066711491	0.018475843455181735	3.932185498183677e-05
Xe	-0.0001629528205574343	-7.724276338357192e-05	0.0027981472056766397	-0.0041958654469429245	0.008684392767354734	9.427866802185659e-05
2
272400
Ar	-0.00012035807568634737	0.00046203950649084094	0.0031746100616954556	0.025071700911389373	0.006512361539134783	7.219250487833081e-05
Xe	-0.0001799969763392958	1.6733599812260546e-05	0.0027996295280345272	0.0008664250704229523	0.00964322509564906	0.00019454309477453944
2
272600
Ar	0.00013558098031838368	0.0004582413741572782	0.0031753517163474465	0.024854443416478803	-0.00727875803728523	7.197604114933709e-05
Xe	-0.00014614595926297147	0.00010605632607332618	0.002801565073432779	0.005740670841039836	0.007780656416053021	0.00019195110705158222
2
272800
Ar	0.0003526233185628994	0.0003237129146164077	0.003175925387946286	0.017495256901058975	-0.01900066763863802	3.8714995699791087e-05
Xe	-7.074934047684422e-05	0.00016486175328657592	0.0028030773076388954	0.008951806895690789	0.003675415887306183	9.219558390038988e-05
2
273000
Ar	0.00046870024996671563	9.64795775177887e-05	0.00317604016932237	0.005143450406422481	-0.025323201191613312	-3.697413119265039e-05
Xe	2.4299584614322825e-05	0.00017616239440117418	0.0028034195511186526	0.0096153340229573	-0.001456571483063198	6.773773101346424e-06
2
273200
Ar	0.00045071506800173946	-0.00015836190038552212	0.0031755149957543773	-0.008620021657790775	-0.02436974891819842	-6.881324776805186e-05
Xe	0.00011213455522666671	0.00013717249510604475	0.002802627480568324	0.0075373890637057935	-0.006133123428125069	-0.00016536500786161758
2
273400
Ar	0.0003041909632550014	-0.00036779095100620694	0.00317462358926437	-0.019967087315328338	-0.01647234132545624	-6.577680416021367e-05
Xe	0.00016787840577212992	5.931420563156394e-05	0.002800780464716289	0.003355796737714928	-0.0090618898218005	-0.0001912266711605618
2
273600
Ar	7.077775892426351e-05	-0.0004722179777039326	0.0031740795571359656	-0.02557917557843357	-0.0039028329442801317	1.77643135020661e-06
Xe	0.00017580755173509486	-3.519098397805063e-05	0.0027993171933730224	-0.0018103538382510664	-0.009387004523153558	-0.00010751601276687285
2
273800
Ar	-0.00018278921050564	-0.0004417034800774701	0.0031742013574506205	-0.02389141825362699	0.009840779180459096	2.8333725286306953e-05
Xe	0.00013328953335853874	-0.00011959882709570076	0.0027987672546513852	-0.006470327887712808	-0.007085248903219353	1.144597895087753e-05
2
274000
Ar	-0.0003840298585734814	-0.0002847990800921866	0.0031748893632217185	-0.015372079103797778	0.020784207399156592	8.140239289959764e-05
Xe	5.2556883991104976e-05	-0.00017005241918903393	0.0027993133511441982	-0.00926257112366191	-0.0027498341292055187	8.841933048440561e-05
2
274200
Ar	-0.000475631617430993	-4.6286014933526736e-05	0.003175573427018229	-0.00246281440333584	0.025745174645618468	5.833798137573785e-05
Xe	-4.2892935206542946e-05	-0.00017202633858201167	0.0028005860301831484	-0.00935904939022842	0.002386797399205755	0.00014164785355483785
2
274400
Ar	-0.0004312927616297969	0.00020554180132241874	0.0031756681266093467	0.011129107990464536	0.02340141237731769	-1.984558117838956e-05
Xe	-0.0001257492118752652	-0.00012468038724241913	0.0028018461298633494	-0.006821814362063324	0.006853880326896133	9.214974701080177e-05
2
274600
Ar	-0.0002640992626503791	0.0003987115640761431	0.0031748939445461716	0.021509855252254073	0.014304883621675906	-0.00010527257362139645
Xe	-0.0001723948775699608	-4.170301798855349e-05	0.0028024717009388846	-0.002269708771479479	0.00933985680913235	3.5958087094019636e-05
2
274800
Ar	-2.1705365469318593e-05	0.0004782020377242896	0.0031741474585141663	0.025777262870304785	0.0011988353855512616	-4.733130383488862e-05
Xe	-0.00016922881268207571	5.2952791073393055e-05	0.0028024304085697976	0.002871921239307947	0.009144970303302089	-3.424895889171196e-05
2
275000
Ar	0.00022681074329931625	0.00042111119783057825	0.0031742687242934525	0.022726938219887662	-0.012298698336155935	4.782073699168084e-05
Xe	-0.00011760494862352962	0.00013235947689682685	0.0028016931252350065	0.007183518180711312	0.006348985454536463	-0.00012365940333441996
2
275200
Ar	0.0004107110307301434	0.00024404070881728853	0.0031751481927117515	0.013167813775920972	-0.0222411190399005	0.00012306585817178133
Xe	-3.2443753585686075e-05	0.00017370503723462477	0.0028001401985847116	0.009440422309183301	0.001737872113575673	-0.00018249058321693552
2
275400
Ar	0.00047743336856136766	-2.552320640087669e-06	0.00317637680553009	-0.00017261729310549272	-0.02585982423079735	8.59233257524951e-05
Xe	6.191789330996793e-05	0.00016570792072492858	0.0027985782068394864	0.0089667775515994	-0.0033187006379748964	-0.00012853967853737326
2
275600
Ar	0.0004074475085870682	-0.0002483151697969197	0.003176947687685452	-0.013472433391421039	-0.022077429552457915	-1.026937106659333e-05
Xe	0.00013850323526386243	0.00011064886577201882	0.002797944978146363	0.005988148431440223	-0.007440745097643283	1.6068443471558706e-05
2
275800
Ar	0.00022091171773466563	-0.0004228263872759223	0.003176388255542773	-0.022929320590944748	-0.011987487810530629	-9.619786417722323e-05
Xe	0.00017589105476614053	2.40670640075468e-05	0.002798500898304138	0.0012931647312409637	-0.009485082676613578	8.029287723588815e-05
2
276000
Ar	-2.90393252673674e-05	-0.00047664665242146424	0.003175331331757452	-0.025839782382802164	0.0014869529942245828	-0.00012315609695875046
Xe	0.0001630146802971008	-6.964423455725577e-05	0.0027997924515605756	-0.0038128729693376745	-0.008821489098119561	0.00018721655954977457
2
276200
Ar	-0.00027089744258545275	-0.0003945411603073334	0.0031741859549902743	-0.021356115276776992	0.014543519107123103	-8.02706494130521e-05
Xe	0.00010346711544619506	-0.00014363896782744343	0.002801286213758074	-0.007793179328244234	-0.005616552522082127	0.00012070249083466535
2
276400
Ar	-0.00043556362573087947	-0.00019985223978819623	0.003173979428336682	-0.01076964694904316	0.02345416289580765	7.265504353896504e-06
Xe	1.4470534802977955e-05	-0.0001766259230684314	0.0028024103803044897	-0.00959190875385234	-0.0008269252316140803	6.70253522162203e-05
2
276600
Ar	-0.0004760962438269696	5.171861826945809e-05	0.0031740939299138345	0.0028626714783480103	0.025641766074420105	2.2536979796714363e-05
Xe	-7.8798795598212e-05	-0.0001595339739338391	0.002802591025139243	-0.00861493457667204	0.004183139339569036	-5.490648270501411e-05
2
276800
Ar	-0.0003810073851441887	0.00028848697615177667	0.00317483992531599	0.01569754980392977	0.02054622024955309	0.00011504784532189283
Xe	-0.00014942152964691308	-9.703501350377019e-05	0.0028012909030729494	-0.005153806312532964	0.008040566714715942	-0.0001667420579481981
2
277000
Ar	-0.00017705062813764966	0.0004428695401201271	0.003175724214703216	0.024082181507588035	0.009590361903288755	5.879147214006956e-05
Xe	-0.00017718328461583988	-6.761461764204873e-06	0.0027995463427131244	-0.00026516287781154084	0.009611705925034741	-0.0001507817071296903
2
277200
Ar	7.755227830205004e-05	0.000470761309312097	0.003176217870728478	0.02557201771172026	-0.00415098133648357	3.10432345178963e-05
Xe	-0.00015458023394120297	8.596991217586547e-05	0.0027983783641904927	0.004696243118175216	0.00847819751552805	-6.102527364270311e-05
2
277400
Ar	0.0003096961924456732	0.0003638941501677273	0.0031762097734299756	0.019719286132134962	-0.016672547160420353	-1.5099019248621445e-05
Xe	-8.763327421723452e-05	0.00015439605324330313	0.0027984348134472694	0.008375438508853209	0.004882388090566323	8.632969979339454e-05
2
277600
Ar	0.0004530981482530633	0.0001533633323017842	0.0031756888584597268	0.008283841327723342	-0.024392103051732242	-7.939972362341483e-05
Xe	4.754910079216453e-06	0.0001789060814702443	0.0027996401207542212	0.009647556455108357	-0.0001117248347074248	0.00014033353895631347
2
277800
Ar	0.0004672056386860563	-0.00010071788553038001	0.003174864318684462	-0.005525903978205974	-0.02517848614558948	-5.797463223264829e-05
Xe	9.580080524366204e-05	0.0001522308877570731	0.0028012254921073103	0.008130801313939656	-0.005110912737305785	0.0001553084678285501
2
278000
Ar	0.00034805262208935747	-0.0003260616395315814	0.003174299812696301	-0.01770779674595229	-0.018800497606633267	-3.035508552514669e-05
Xe	0.00015951165431690964	8.169653939556234e-05	0.002802533925881184	0.004267673673654615	-0.00862349631574284	0.0001020917668655824
2
278200
Ar	0.00012962693934458113	-0.0004585956206077125	0.0031743517007678025	-0.024921068024242037	-0.007050680015310739	1.2692205990344976e-05
Xe	0.00017753305482243157	-1.1948972819991665e-05	0.002803087174127165	-0.0007656757649580551	-0.009667455366398403	8.58044727699771e-06
2
278400
Ar	-0.000126082954624331	-0.0004605180407002097	0.0031745027223643945	-0.024954340067707144	0.006673043383373769	1.1948835613449889e-05
Xe	0.0001447411920959142	-0.00010211915101126776	0.002802675040572814	-0.0056241031755735645	-0.007920805163176748	-0.00010571596100897326
2
278600
Ar	-0.0003456777809772944	-0.00033139347085671004	0.0031748964646397338	-0.017889225555605518	0.01852178952999932	6.819543873059475e-05
Xe	7.074658243019437e-05	-0.00016272331058232582	0.002801380444566533	-0.008798869199165208	-0.003921411459439501	-0.00017021095070247322
2
278800
Ar	-0.000466311162657886	-0.0001078361280499957	0.0031755753290377696	-0.005660686994329625	0.025105978710747504	4.8525451325356117e-05
Xe	-2.3064568737584813e-05	-0.00017699891910832869	0.0027997511350975964	-0.009495752760652523	0.0011636132815969293	-0.0001368451746629211
2
279000
Ar	-0.0004536510047352309	0.00014662574408262952	0.0031758693679563486	0.008121846263342426	0.02454668620786351	-2.263682213256917e-06
Xe	-0.00011045387167737276	-0.00014060565173364925	0.0027984588060074936	-0.007538633756795947	0.005937254009571815	-0.00010598027520066171
2
279200
Ar	-0.0003115644420303716	0.0003593523879820786	0.0031753029638722746	0.01959762483979557	0.016959520746397307	-8.056943687672984e-05
Xe	-0.0001664626253269734	-6.384278261259028e-05	0.002797936704976552	-0.003392578838029225	0.009026401613129356	-9.678480067769977e-07
2
279400
Ar	-8.083173478730118e-05	0.00046960145973040266	0.0031745599215418662	0.025449863893646434	0.004560021718160971	-6.047574849631385e-05
Xe	-0.00017513472468906022	3.124305947417883e-05	0.002798495232157173	0.0017057540404933234	0.00951727906195512	0.00012138848000839607
2
279600
Ar	0.00017300614929519032	0.00044598783471846856	0.0031742708131114123	0.02407400696173582	-0.009168021331241153	-2.0551175754992877e-06
Xe	-0.00013396588591317945	0.00011758547651820581	0.0028003035313405064	0.006345194464090133	0.00729792936989962	0.00018746858583105767
2
279800
Ar	0.0003773730972418348	0.0002950472259064066	0.003174657627728275	0.015823525007213863	-0.020275114664750668	6.819082408920719e-05
Xe	-5.4613626553949796e-05	0.00017008303907696355	0.002802157288719315	0.009142148443845482	0.0029375914029410727	0.00017936674009277263
2
280000
Ar	0.0004741523134056116	5.9903995143836e-05	0.0031755140829929362	0.0030745241345862865	-0.025595305625709237	9.471926933444511e-05
Xe	3.998199239431922e-05	0.00017394670126036457	0.0028031085228313185	0.009314619411969384	-0.0022047250808809224	3.565498577440454e-05
2
280200
Ar	0.0004359858313084585	-0.00019257239891220496	0.0031760701268578823	-0.010527406769392946	-0.023659730448208103	5.962452163316082e-06
Xe	0.00012283070289134017	0.0001282819102350106	0.002802960244487236	0.006854889719639188	-0.006701741206495975	-0.00010419099772217929
2
280400
Ar	0.0002735230760626581	-0.00039019609557297644	0.003176051799429716	-0.021157173518757164	-0.0149242795760792	-2.6674061782117917e-05
Xe	0.00017043828831950428	4.622664977769855e-05	0.0028014126222938723	0.0024564516240839656	-0.00930942516651287	-0.00019954397456584396
2
280600
Ar	3.3311520942472536e-05	-0.0004765826598519835	0.003175569482680136	-0.025732583210255677	-0.0019014149235561995	-7.13539451179519e-05
Xe	0.00016965881603678832	-4.903862585493815e-05	0.0027993391376772325	-0.0026517021946741866	-0.00928622519481588	-0.00020908002716291541
2
280800
Ar	-0.00021624273851348762	-0.0004264626372070208	0.00317477273404331	-0.022957005755272583	0.01168169258456385	-6.508917139512235e-05
Xe	0.00012021522758249206	-0.0001306499022321436	0.002797718817298984	-0.006984116071745572	-0.006646674069577435	-9.67893558992973e-05
2
281000
Ar	-0.00040378007551691603	-0.00025435575946122736	0.0031745746755576297	-0.013617338960294417	0.021889751043611853	2.050108563244482e-05
Xe	3.6612103146581175e-05	-0.00017538525436880273	0.0027973233574551688	-0.009338238281657883	-0.0020685939067205806	3.992516624036222e-05
2
281200
Ar	-0.00047594193700355354	-9.678027115800722e-06	0.0031751082888788786	-0.00043632739076648164	0.02583552660445524	5.374873791878854e-05
Xe	-5.767780974999897e-05	-0.00016976374380421274	0.0027983828709054258	-0.009037438331691275	0.0031606393737272924	0.00016424513147891544
2
281400
Ar	-0.0004121524061338576	0.0002376392535928957	0.003175826352339219	0.012877027414063885	0.022446973743744665	6.748159314972544e-05
Xe	-0.00013568377182737745	-0.00011537480818113002	0.0028002626317934227	-0.006160371508867853	0.007453037984180582	0.00019150483277765023
2
281600
Ar	-0.0002308272127850475	0.00041740569734118315	0.0031762497413943013	0.022495731314983402	0.012613730381373528	1.0115726308968186e-05
Xe	-0.00017549667797397023	-2.7947795909720883e-05	0.0028020426209898744	-0.001578045542507527	0.009612509019110196	0.00014040597308948399
2
281800
Ar	1.6366850255817876e-05	0.00047783622527099244	0.003176263549535733	0.025704827363635496	-0.0008140936784515159	-1.393202921125928e-05
Xe	-0.0001655018564470915	6.746148652491509e-05	0.0028029430385768197	0.0035195776330325724	0.009003719800878487	3.490806505492054e-05
2
282000
Ar	0.00025878386321402154	0.0004018549759136938	0.00317571225218283	0.021591459933451133	-0.013995036715311934	-9.152329033185968e-05
Xe	-0.00010835760588721836	0.00014380034149299976	0.002802628480820846	0.007629631074270573	0.0058965126861063415	-9.324006387529887e-05
2
282200
Ar	0.00042755591978150664	0.00021123628979337252	0.0031747559738354463	0.011328087738899921	-0.023188722308768273	-8.861022585689348e-05
Xe	-2.02548542357913e-05	0.00017932911449050482	0.0028012312319840404	0.00954447424564056	0.0010361633406694376	-0.0001718423754606243
2
282400
Ar	0.0004744176163020088	-3.935767805906747e-05	0.003174046826354682	-0.002198782028974182	-0.02571423046828893	-4.865186374083419e-05
Xe	7.350757100656832e-05	0.00016385733612393007	0.002799600684005151	0.008730834965167092	-0.004062949762300564	-0.00013779653916517047
2
282600
Ar	0.00038566200369093845	-0.00027866224143225537	0.0031739773480945945	-0.015089842261849038	-0.020947664563495907	3.8131928680205366e-05
Xe	0.0001460190185533542	0.0001018309440211938	0.0027985488593578745	0.005436060887227795	-0.008018943581598013	-6.624890346833333e-05
2
282800
Ar	0.0001870339332038124	-0.00043829568464243774	0.003174612794819039	-0.023659560863500056	-0.010182224596176325	9.700288910717396e-05
Xe	0.0001770548291881771	1.0919536490053652e-05	0.002798338660178405	0.0006270364349051234	-0.00972296797636527	3.4806874506436136e-05
2
283000
Ar	-6.481967760259955e-05	-0.00047263109070873013	0.003175569775220351	-0.02545951887727776	0.003474995515874994	0.00010093123902440117
Xe	0.00015764134960285424	-8.321996780543955e-05	0.002799353177349844	-0.004406421655494759	-0.008631349260591782	0.0001377890113407457
2
283200
Ar	-0.0002979567373861889	-0.00037195028273749267	0.0031762906480453023	-0.020034175506867192	0.016164581738370567	5.033338896317295e-05
Xe	9.291761371755417e-05	-0.00015353750549997408	0.002800746563001502	-0.008210540954133837	-0.005088094897392281	0.0001363934274161169
2
283400
Ar	-0.0004460835490036452	-0.00016484658888027127	0.003176562180587555	-0.008881738011986114	0.024230452371910738	-1.2925974662469232e-05
Xe	1.6206393274062127e-06	-0.00018010466143108056	0.002801929775881349	-0.009621045165818165	-0.00010272974261084933	8.06511308015739e-05
2
283600
Ar	-0.00046726672171002365	8.926713011384076e-05	0.0031761342812456285	0.004755311650058176	0.0253732157607	-6.688307751779527e-05
Xe	-9.021623182352325e-05	-0.00015556872526463605	0.0028022150763070564	-0.008305639063858918	0.0048929153864936785	-3.6959345468026585e-05
2
283800
Ar	-0.0003552930784161328	0.00031832340584886707	0.003175161983748684	0.017083630276446143	0.019288572538830564	-0.00012496762436173053
Xe	-0.00015615390432977103	-8.667814053600412e-05	0.0028013998990715668	-0.004586900710092034	0.008532391717699626	-9.023258802161137e-05
2
284000
Ar	-0.00014192231606404898	0.000456490034256513	0.0031737911337357473	0.024533033943265215	0.007681311686785038	-0.00013349664058198067
Xe	-0.0001774572559314567	7.149642584581736e-06	0.0028003879338213116	0.00041747285492542375	0.009768089102475454	-8.957568442002298e-05
2
284200
Ar	0.00011173453508625442	0.00046448400465931686	0.0031727506547828068	0.024952857659452377	-0.006099433426013235	-5.551579173488364e-05
Xe	-0.00014827635328869499	9.897187610908075e-05	0.0027998072304909363	0.005292116360633887	0.00814113551220599	-2.7942786040329964e-05
2
284400
Ar	0.00033343792666028194	0.00034025159311046067	0.0031727788997986967	0.018306078960547353	-0.01814670840532866	9.450212133611956e-05
Xe	-7.678459333037804e-05	0.00016251934871567517	0.002799552129223421	0.008664745135142166	0.004237400104212256	4.212019759462091e-06
2
284600
Ar	0.0004603496428116199	0.00011897904996602256	0.003174431765771771	0.006451106541499385	-0.025039757840220642	0.00021992195846838703
Xe	1.6513756504420088e-05	0.00017969417856326781	0.0027993760514361697	0.009546861473466317	-0.0008871116506290209	-2.0939284938095637e-05
2
284800
Ar	0.0004562025082580352	-0.00013655150236201397	0.0031765442516703255	-0.007276241406600921	-0.024823293862553022	0.00018408728747256825
Xe	0.00010484767542221582	0.0001454165213885373	0.002799475176756291	0.007695078231387253	-0.005782937544508932	5.510575068261774e-05
2
285000
Ar	0.00032158980767158445	-0.00035305193386554696	0.0031774410393037218	-0.01898201799526591	-0.017439502578170646	-4.619159542852876e-06
Xe	0.00016309869515447947	6.954101614172879e-05	0.0028002359219436762	0.003663172427690303	-0.009006744569588469	0.00011858310080066904
2
285200
Ar	9.515377995489341e-05	-0.00046857167047482647	0.0031767136711977903	-0.02519706050361019	-0.0050953551652637066	-0.00012635918458936597
Xe	0.0001749595599371508	-2.6192015563030014e-05	0.0028012555131532667	-0.001372319536979404	-0.009663061227215844	7.975822777515661e-05
2
285400
Ar	-0.00015812490018527318	-0.0004502994536405553	0.003175136352415905	-0.02422900999321706	0.008672816375734554	-0.00014449413316176645
Xe	0.00013690402848789529	-0.00011430363214382319	0.0028017332448575768	-0.006042309814072809	-0.007554735901648555	7.1722915738563695e-06
2
285600
Ar	-0.00036662212970438107	-0.0003036183625236978	0.0031739030872213045	-0.016470329118707074	0.019940050761192794	-9.59218488129124e-05
Xe	6.0090749951558634e-05	-0.00016954378139440906	0.0028013639241310836	-0.008949663209032118	-0.003232735632318716	-8.685101402477257e-05
2
285800
Ar	-0.00047114958203093763	-7.047864370486877e-05	0.0031732993655733998	-0.003937693522728959	0.025550472989908913	-3.0631830930150934e-06
Xe	-3.346326100371276e-05	-0.00017601109527894807	0.0028003530162267333	-0.009312234235822347	0.0019541788447112796	-0.00010625425865457613
2
286000
Ar	-0.00044151089146461637	0.0001829032317368182	0.0031738171797757292	0.009725279824152774	0.023875561136645934	0.00011252783852049074
Xe	-0.00011720333116473078	-0.00013231690346839737	0.0027991968026616176	-0.007046053880818222	0.0065711807576339714	-8.757113813898242e-05
2
286200
Ar	-0.0002857705693184337	0.00038412718157264446	0.003175387831075192	0.020662917623913164	0.015385582082618796	0.0001566083397812011
Xe	-0.00016784049895963616	-5.1018975267107624e-05	0.0027988750726560753	-0.0028343068002632706	0.009306616743514188	4.7618118295912275e-05
2
286400
Ar	-4.83345437948908e-05	0.0004755380917427916	0.0031766228896642004	0.025626410645928317	0.002466405800898821	0.00010340493514313951
Xe	-0.0001708463138702956	4.487798636861988e-05	0.002799897374590963	0.0022531521788218363	0.009411369359288815	0.00012109851086395865
2
286600
Ar	0.00020254359447995454	0.0004310357864978866	0.0031769383677257347	0.023328095797828213	-0.011154651501922373	-3.230881688837489e-05
Xe	-0.0001250464748762346	0.00012824299796765977	0.0028009143525892766	0.00668521371201877	0.006852921359554325	6.472203359047874e-05
2
286800
Ar	0.00039576910561679935	0.0002633089295475815	0.003176426871413553	0.014373605050845914	-0.02156239139371285	-8.243333085083257e-05
Xe	-4.3655427345637286e-05	0.00017536000298487648	0.002801552494157394	0.009201705303495995	0.002346345879144713	3.871229460849796e-05
2
287000
Ar	0.0004764119060171419	2.046437796786992e-05	0.003175102879386691	0.0013388005457237956	-0.025837927150076982	-0.0001261836146077813
Xe	5.050689647948506e-05	0.00017279671370991277	0.0028013936616144647	0.009116791262547174	-0.0028496853879938907	-4.79951249607345e-05
2
287200
Ar	0.0004207559376615776	-0.0002284992991270072	0.00317413717243518	-0.012196506004378613	-0.022713926236833958	-7.310109914866485e-05
Xe	0.00012998442502979633	0.00012082716395446528	0.0028010594343594025	0.006382542448767226	-0.0072814362113791395	-1.4194979800699181e-06
2
287400
Ar	0.0002446322743778533	-0.000412138709357162	0.0031736156985077693	-0.022200486147400642	-0.013106425984818917	-2.9761118222151465e-05
Xe	0.00017244336257471926	3.435073553729931e-05	0.002801085741304145	0.00189795974612267	-0.009601996491337823	1.2669885139488984e-05
2
287600
Ar	-1.487469291619841e-06	-0.00047804923904003535	0.003173741682905408	-0.025802913712914193	0.00023847788278118703	4.74778221746258e-05
Xe	0.00016594570241673526	-6.190866830670683e-05	0.002801222039772695	-0.0031628699673162805	-0.009158492890288477	-1.0920702186587552e-05
2
287800
Ar	-0.00024694803226386794	-0.00040757327981469203	0.003174780602218563	-0.02210958529694741	0.013494419377636116	0.00014130246781439654
Xe	0.00011196605917521313	-0.00014006709156046108	0.0028009247400991037	-0.007354645915081172	-0.0061123258637646284	-5.1179480851032365e-05
2
288000
Ar	-0.0004222426488460862	-0.00022087420067795171	0.0031759905964906824	-0.01207800327006494	0.02294233217869696	8.518611101079514e-05
Xe	2.5681638482371178e-05	-0.00017831768548662847	0.002800068594840376	-0.009459030926932996	-0.001355754219844359	-9.335977519650139e-05
2
288200
Ar	-0.00047681278089636874	2.8937045848653254e-05	0.0031764066876552527	0.001435910515154895	0.025782080927594566	8.657522131685703e-06
Xe	-6.823426947086801e-05	-0.00016570891050520574	0.0027992609836538394	-0.008839314574976677	0.0037990469220235677	-4.752717343785697e-05
2
288400
Ar	-0.0003949281069960543	0.00027018862471003043	0.0031761374661062707	0.014549525166918159	0.021270746577342573	-6.382732450472672e-05
Xe	-0.00014263108643601592	-0.000105734296641527	0.0027991658606254235	-0.005686898020580535	0.007890348700201619	4.742919912681111e-05
2
288600
Ar	-0.00020006197196046295	0.00043384254264810547	0.0031750950500936304	0.023466634564190143	0.010672928525587941	-0.00012254401764454553
Xe	-0.00017646766320986333	-1.537035352576619e-05	0.0028000497618358897	-0.0009010088422621488	0.009730421589870218	0.00012635311357532002
2
288800
Ar	5.1923874581555645e-05	0.00047358333078876863	0.0031742588935002695	0.025657588050392383	-0.0029183142715401497	-3.998548389882359e-05
Xe	-0.0001601000775445655	7.928474302074128e-05	0.0028012087623729546	0.004111941442292384	0.008715583315877821	0.00011117787879378771
2
289000
Ar	0.00028878688973438466	0.00037826018999363584	0.003174454371581532	0.020550930834300447	-0.015695719048764673	6.410795585075539e-05
Xe	-9.8171169681607e-05	0.0001509230279339925	0.0028019451985136445	0.007973788797581535	0.005258550212632061	-3.0941406362065653e-06
2
289200
Ar	0.000443263266507729	0.00017475706181214914	0.0031751169564716505	0.009572640494864932	-0.02401414729681455	8.5251896396597e-05
Xe	-8.456388764805147e-06	0.0001794260628331913	0.0028017269696514946	0.009520925379498047	0.00031217945691197683	-4.452994512565896e-05
2
289400
Ar	0.0004710761606235549	-7.863675559162922e-05	0.003175602321641553	-0.004152484461156294	-0.02541878198468439	-1.0791669491398333e-05
Xe	8.332619577481878e-05	0.00015678837275643172	0.002801095472137546	0.008374620032442453	-0.004727379084037908	-9.609843309689338e-05
2
289600
Ar	0.00036427456534195857	-0.0003092069757556844	0.0031751716575651717	-0.01669630719950992	-0.01956259144224551	-4.9527074139141964e-05
Xe	0.00015102144243652385	8.952191213891354e-05	0.002800191424120501	0.004818501369880775	-0.008404021008555631	-8.492939056888907e-05
2
289800
Ar	0.0001534071814201076	-0.0004512833876028724	0.0031747675946107398	-0.024435810624972455	-0.008153004811201467	-6.721214986324747e-05
Xe	0.00017552839291647273	-3.0566836533228968e-06	0.002799683867912765	-3.3635649790750936e-05	-0.009626513993698004	-1.1450276880246592e-05
2
290000
Ar	-0.00010105606496097677	-0.0004645835066640209	0.0031743921665094957	-0.02522069736729901	0.005568241629188425	3.219897600991064e-06
Xe	0.00015019240973548228	-9.450398272007083e-05	0.002799780362832816	-0.004898086497337104	-0.008180359792668344	3.0485393111700158e-05
2
290200
Ar	-0.0003269186786253426	-0.00034518535884124824	0.0031745903810731046	-0.018838638182649296	0.017715709770618357	6.100337318988543e-05
Xe	8.219783651161245e-05	-0.00015887588558322643	0.002799974437037589	-0.008362685059082671	-0.0043704544429481774	2.4234146766103372e-05
2
290400
Ar	-0.00045952577291915133	-0.0001272015987504051	0.0031752384236212396	-0.007031732098903014	0.02481574367418788	4.6667161991268875e-05
Xe	-9.194669533894137e-06	-0.0001778482398651945	0.0028005505929977826	-0.009474263732834802	0.0007077469068058596	6.50070540531452e-05
2
290600
Ar	-0.0004606219633782769	0.0001271709478266142	0.003175583046093861	0.006811650785838047	0.02480160663711592	9.97174900916436e-06
Xe	-9.829429737383437e-05	-0.00014564396552351253	0.002801104275533619	-0.007916917879729498	0.0055762577301630475	6.0825041869214985e-05
2
290800
Ar	-0.0003299828689825083	0.00034484771813108326	0.003175187440330121	0.018672126629329898	0.01767052142752688	-7.374809365375768e-05
Xe	-0.00015987979901837558	-7.181234032457513e-05	0.0028017633192835524	-0.004096049688466458	0.008824821341401211	3.57602453528895e-05
2
291000
Ar	-0.00010516854805509056	0.000464216356695659	0.0031746833724606432	0.025200607669233974	0.0056255293517482475	-2.7931893396325436e-05
Xe	-0.0001762870391711486	2.266437414838898e-05	0.0028014093185148247	0.0009041079255379767	0.00957955279244858	-8.291386752634323e-05
2
291200
Ar	0.0001496797809428176	0.00045156877609594517	0.0031746086991257206	0.02453033231755204	-0.008099846674613748	3.126755139369783e-05
Xe	-0.00014228853325887108	0.00011050349043128798	0.002800444881570125	0.005710420871507997	0.007574568236491339	-8.330779669076164e-05
2
291400
Ar	0.0003618496731112579	0.00031007021167840263	0.003174898468117399	0.01685881421698861	-0.019512331024861378	9.003495787734853e-06
Xe	-6.769592573914179e-05	0.00016687203024712646	0.002799773278808404	0.008866064997567006	0.0034228467727031417	-1.86382596161247e-05
2
291600
Ar	0.0004705008852133872	8.002003473537794e-05	0.0031748576682755713	0.004317221309152849	-0.025347294693972993	-2.7272798538740248e-05
Xe	2.628802432392995e-05	0.0001755959848912155	0.002799955220994192	0.009496152492024405	-0.001732201555768074	5.929461973067338e-05
2
291800
Ar	0.00044430032657376804	-0.00017276761031135172	0.003174553617462998	-0.009405790861300459	-0.02396932200177073	-4.850906057358985e-05
Xe	0.00011320182731454843	0.00013392005926078196	0.002800812233612556	0.007440224630928261	-0.006401976502688413	0.00010694689875683174
2
292000
Ar	0.00029137941239336043	-0.0003763610796777477	0.003174117398311184	-0.020411923121616674	-0.015763259224416737	-1.7654824093687544e-05
Xe	0.00016783168016277385	5.4099778646253504e-05	0.002801599499644177	0.003189726965206613	-0.009179999248074522	4.082322919646619e-05
2
292200
Ar	5.544306109893197e-05	-0.0004728168313196379	0.003174481328741736	-0.025600534095615104	-0.0030428420490719653	8.118633299236856e-05
Xe	0.00017406405112279863	-4.0857240382761594e-05	0.0028017216303315904	-0.001973348318038772	-0.009358590405900518	-1.309881203843564e-05
2
292400
Ar	-0.00019637139564005604	-0.00043419286620044	0.0031752894220923836	-0.02352278531648326	0.01057741537825368	6.926254653679495e-05
Xe	0.00013076977157642147	-0.00012399767906831434	0.0028013062967486685	-0.0064838942074144455	-0.006860090137754741	-7.815912904425004e-05
2
292600
Ar	-0.00039231801432777297	-0.0002715168858279791	0.0031757395362929175	-0.014686940428696175	0.021152623753235088	1.5344237426432072e-05
Xe	5.0226260975777186e-05	-0.00017170604672513598	0.0028004898962414745	-0.009239734447551138	-0.0024298205380512907	-0.00011455762464879786
2
292800
Ar	-0.000475948543895584	-3.154453963823626e-05	0.0031754420685733433	-0.0016234810085455425	0.025671210853442476	-6.587764708983943e-05
Xe	-4.521593387629576e-05	-0.00017030925643374465	0.0027993166200542636	-0.00936125712290582	0.0026968172633637134	-9.855956052490411e-05
2
293000
Ar	-0.0004236581768936873	0.00021742667676858312	0.0031746987798042425	0.011807007415921947	0.02289002072250049	-5.78392192624191e-05
Xe	-0.00012791386164911803	-0.00012017909956065604	0.0027987619540431425	-0.00680827002014074	0.0070886579150106765	-3.4564168182814236e-05
2
293200
Ar	-0.00025048390653949876	0.00040434427987032717	0.0031745215037619723	0.02195457493729304	0.013564230735376048	7.590111482926573e-06
Xe	-0.00017457200892761357	-3.57664599708716e-05	0.002798980434123076	-0.002304588008799489	0.009386413145350167	5.9477479792997385e-05
2
293400
Ar	-5.701530100185468e-06	0.0004759019838262817	0.0031749759477607306	0.025819438539443035	0.0004019405435369658	5.857082810118602e-05
Xe	-0.00017141053515797353	5.8797022674750315e-05	0.002799947964313402	0.002923795911583458	0.009089764558046796	0.00011302652547347925
2
293600
Ar	0.00024092260501061354	0.0004118417459643218	0.0031753387460421445	0.02228220765977746	-0.012929292221064181	2.3663521365675015e-05
Xe	-0.0001191574458783589	0.0001371702136331127	0.0028012547618445675	0.007284384079592682	0.006189377627377024	0.00015348814369307585
2
293800
Ar	0.0004186579576229098	0.00022983331233763412	0.003175311355375558	0.012398798252345657	-0.022567860117745225	-4.400322877781135e-05
Xe	-3.314171000904238e-05	0.0001765574445445802	0.002802323969688181	0.009514689358437611	0.0014861534513408226	6.353918431992647e-05
2
294000
Ar	0.00047692876552329124	-1.7807527840608872e-05	0.0031747765661200096	-0.0010172384118895654	-0.025729343006576318	-8.341365562546188e-05
Xe	6.215891303832664e-05	0.00016532278641988345	0.002802249567471311	0.009076273560201392	-0.0036702219398563624	-5.4458952223264234e-05
2
294200
Ar	0.00039931429600116515	-0.00025998275729711826	0.003173842796402068	-0.014134007515089465	-0.02153939660891809	-9.352075611325093e-05
Xe	0.00013979185441845982	0.00010688429990650617	0.0028015312471442403	0.006055954071684762	-0.007715191847722539	-7.953115705791303e-05
2
294400
Ar	0.0002079016092876711	-0.0004281091009986072	0.003173489400180191	-0.02322997796637122	-0.011251374524855272	2.6273689184602173e-05
Xe	0.00017722826663936074	1.8544420136562575e-05	0.0028004893323003875	0.0012695181118678365	-0.009532619096211958	-0.00011306632570358282
2
294600
Ar	-4.279522537006576e-05	-0.0004744710953350673	0.0031741361820416284	-0.025692825723281517	0.002218601164954721	0.00010959217725029012
Xe	0.0001638686824329759	-7.484976994302785e-05	0.002799356296694643	-0.003877987038027821	-0.008680293454314827	-8.641993092712079e-05
2
294800
Ar	-0.00028128218359722314	-0.00038569469532676563	0.0031753529792129254	-0.020836496366707057	0.015118188580500918	0.0001170765825346631
Xe	0.00010333215246016119	-0.00014681021616726566	0.0027990499466920868	-0.007925540744104013	-0.0053337060509961835	2.6929290449101343e-05
2
295000
Ar	-0.000439241265475371	-0.0001867290298281596	0.0031757123859935165	-0.009975434558245793	0.02371027658912002	-1.2594075294679329e-05
Xe	1.2954964735110932e-05	-0.0001768272024227801	0.002799822695078954	-0.00971843851917666	-0.0005340131877474238	0.0001222712261488699
2
295200
Ar	-0.00047166989823650164	6.569234602238435e-05	0.0031753885756433224	0.003660289760675515	0.02552626722828497	-4.390229187424226e-05
Xe	-8.139367786210812e-05	-0.000156862338093373	0.002801054159336125	-0.008676998597765872	0.00444006732386009	0.00012182957020341374
2
295400
Ar	-0.00036953673831668113	0.00029912601798549497	0.0031750196201996077	0.016276455381649478	0.0200511609478708	-5.684512461143367e-05
Xe	-0.0001524378014985919	-9.233451548247413e-05	0.0028018853320274555	-0.005162593898972759	0.008155353574479919	1.9804573347170876e-05
2
295600
Ar	-0.00016186667298009218	0.00044760700667090746	0.0031746672786870014	0.0242513193241436	0.008912299985194156	4.7566845859971086e-07
Xe	-0.00017988861785006322	-1.4233132959757612e-06	0.002801748685866846	-0.00019825575979803562	0.009576220066416759	-3.835787050265222e-05
2
295800
Ar	9.21518893494614e-05	0.00046848560211649456	0.003174633483325813	0.025282170211372464	-0.004830821898368422	-1.8919316336436246e-05
Xe	-0.0001561648417342312	8.997403104610482e-05	0.002801072535875395	0.004821352606996235	0.00825691654092005	-7.961791812610186e-05
2
296000
Ar	0.00031971306828070244	0.0003554528771926395	0.003174202853798597	0.019106177605769197	-0.0172443826303053	-4.604152256983062e-05
Xe	-8.818030367698841e-05	0.00015588224402209402	0.0028002691944830436	0.008467284766490205	0.004585184799082381	-8.594076342968086e-05
2
296200
Ar	0.00045577469821098186	0.00014042646485985897	0.003173850147627836	0.007444259496906049	-0.02467920765860209	-2.2580138497882576e-05
Xe	4.8716767757120096e-06	0.00017718046340996023	0.002799446223216732	0.009692376612455754	-0.00042392595001334253	-6.918043778704719e-05
2
296400
Ar	0.0004615916172419059	-0.00011432035981076947	0.0031738009061079335	-0.006315873795355715	-0.02503080252306534	2.448053537978923e-05
Xe	9.626479910243881e-05	0.00014782003025339937	0.0027992807505631376	0.008149006641076964	-0.005310193858623507	1.2764646219829892e-05
2
296600
Ar	0.000335736572029047	-0.000336239152460908	0.003174722888953787	-0.018244832250491522	-0.018280583831979582	0.00013564759220476396
Xe	0.0001601842417036981	7.630441675554127e-05	0.0027994387753541633	0.004312788062979401	-0.008651391043272188	2.6487278950545696e-05
2
296800
Ar	0.0001141584411604473	-0.0004623703049671744	0.003175990684988553	-0.024988920336416795	-0.006312195283141915	0.00010839643940272816
Xe	0.00017827386331083878	-1.7003564521068e-05	0.002799902757233365	-0.0008028144187508726	-0.009547018505606016	6.574913420958103e-05
2
297000
Ar	-0.00013996357854595445	-0.0004564330421596973	0.0031767996657699944	-0.024601251513377796	0.007469929654839675	5.875041854941968e-05
Xe	0.00014513437498550228	-0.0001053589400116716	0.0028008591568033318	-0.005653022964567411	-0.00770418393751277	0.0001222373476834391
2
297200
Ar	-0.00035403364711333976	-0.0003200753669335351	0.0031766161407690043	-0.01715845308059062	0.019141343801814144	-9.06033274497177e-05
Xe	7.04230310743122e-05	-0.0001637262976897083	0.002802113737520162	-0.008923057021674265	-0.0036634054592281843	0.00010808086894215859
2
297400
Ar	-0.0004670215397071261	-9.209275420113644e-05	0.003175230703296879	-0.004881221506289465	0.02531018458951414	-0.00016501352368739465
Xe	-2.4351108912768196e-05	-0.00017538869581922487	0.002802839023312666	-0.009600038897683532	0.0014002570969890555	9.882792169767233e-06
2
297600
Ar	-0.0004470547159306544	0.00016184955609879813	0.003173757681166045	0.008784408582709869	0.02424716342926093	-0.00010436486908286629
Xe	-0.00011209740779287353	-0.00013695544630567305	0.0028022053989907917	-0.007521512315667035	0.006097097399492346	-9.524887616533894e-05
2
297800
Ar	-0.00029988950116361583	0.00036952206834662025	0.003173173807974063	0.019941120031275704	0.0162656884056102	-1.83187554276113e-05
Xe	-0.0001677735719869821	-5.953058671716735e-05	0.002800871572763496	-0.0033403570822747915	0.009013705719949795	-0.0001428959003766856
2
298000
Ar	-6.732824196002099e-05	0.0004716742419877366	0.0031736489170410827	0.025450906805778998	0.0036869877922264113	9.812254315367302e-05
Xe	-0.00017550291436386082	3.47410923305709e-05	0.002799384760750958	0.0018237102257719151	0.009394484530010141	-0.0001347456348186608
2
298200
Ar	0.00018438909166087545	0.0004392138119344862	0.003175074743555709	0.023665541278193442	-0.010018919067303688	0.00015423817263201704
Xe	-0.00013308373200425152	0.00011922244035374077	0.002798273479996586	0.006467311194788143	0.0070881889232212334	-6.998219323928274e-05
2
298400
Ar	0.0003830357534992826	0.00028117774196120815	0.0031762832320738925	0.015105660046110652	-0.02083232655205348	9.06449566015522e-05
Xe	-5.198116558855094e-05	0.0001697784070974609	0.002798512385546388	0.009316487622451271	0.0027844035408932915	0.00011416372540500871
2
298600
Ar	0.000472127244524393	4.2900727444990434e-05	0.0031767860264979575	0.0022910431934578318	-0.02566601648322423	5.096568893152443e-06
Xe	4.4387176784408103e-05	0.00017190964037844603	0.0027998179691494894	0.00948684250826353	-0.0023613258499590793	0.00013561964086324967
2
298800
Ar	0.0004265370784341665	-0.00020753590595557508	0.00317669350261957	-0.01119462728606225	-0.02319610004993473	-2.6680229340566895e-05
Xe	0.00012838406239570055	0.00012516182793595053	0.002801266261507062	0.006907706274570702	-0.006765024416535998	0.00013435065751565736
2
299000
Ar	0.0002591026852058141	-0.0003990459728814792	0.0031761783467377162	-0.021476547574173582	-0.014141425961173962	-9.603670324864783e-05
Xe	0.00017575708712887764	4.305978113122602e-05	0.0028023726165932457	0.0023539301094656034	-0.009271478543592462	7.973858956163648e-05
2
299200
Ar	1.7979200231403708e-05	-0.00047703949863439664	0.0031749384091545895	-0.025573210599795976	-0.001042189818955924	-0.00013042047756051814
Xe	0.00017329173027939583	-5.120512442964761e-05	0.0028025000195449116	-0.002854041663709768	-0.009102981443638514	-1.6706689346310556e-05
2
299400
Ar	-0.00022833955931909154	-0.00041900718646059696	0.0031735690630381175	-0.022462688087049005	0.012337812080187487	-0.00010876272717844825
Xe	0.00012130058532897285	-0.00013036496838256606	0.002802256308172585	-0.007258845241828764	-0.0063295576935183985	-3.618513514415463e-05
2
299600
Ar	-0.0004098105189820391	-0.00024194142846264088	0.003172913383008184	-0.01294648414143295	0.02218771545709562	1.0658534340721379e-07
Xe	3.51062602561263e-05	-0.00017204277988431676	0.002801685529064012	-0.009542906896232916	-0.0018064591808743579	-6.290764509778843e-05
2
299800
Ar	-0.00047487061740016356	3.8278152091220045e-06	0.003173610435333462	0.00026479604703126005	0.02575676068906797	0.00014550980624041654
Xe	-6.043136050191198e-05	-0.00016477520966805961	0.0028007252221681385	-0.009118831974055427	0.003233137600606263	-0.0001130860205715773
