2
0
Ar	-5.132254143469854e-11	2.085530283860502e-11	0.003224804992224409	-2.0529016573879413e-06	8.342121135442008e-07	1.3062713006499967e-06
Ar	-2.450049140026904e-11	1.560345778728293e-11	0.0027427470531008816	-9.800196560107616e-07	6.241383114913172e-07	-2.122487171859625e-06
2
200
Ar	-7.071288489220113e-08	-1.1579092144831664e-07	0.0032247798382031225	-6.094397816413296e-06	-1.911134868044061e-05	-2.1094527388521467e-05
Ar	-6.207612031898818e-08	-1.147584235219935e-07	0.0027427264088918345	4.262805072904701e-06	-1.5922923289386014e-05	-1.978843323217455e-06
2
400
Ar	2.72442330246438e-08	-8.611214210589215e-08	0.003224658886977996	3.412614775054854e-05	3.2490451710742814e-05	-1.6451257747062e-05
Ar	-2.2021776035115082e-07	-3.0338896272998354e-07	0.002742669382653352	-1.8951972698673227e-05	-1.864271746705527e-05	-2.012109970584361e-06
2
600
Ar	7.839409586420099e-08	2.660118241517656e-07	0.0032243698605575887	-7.33453221040168e-06	3.729563833715937e-05	-2.5260255707616914e-05
Ar	-3.279659317474365e-07	-1.8935635546520416e-07	0.0027427724294476117	2.6543646228064865e-05	4.12792300141815e-05	2.1882888132018376e-05
2
800
Ar	-6.944644950604823e-08	6.201209982154167e-07	0.00322435389870901	-4.3557673395957285e-05	3.0117160307010403e-05	4.717951728045083e-05
Ar	4.3956625315556874e-07	3.546365206081099e-07	0.0027430225306449597	9.939077658199604e-05	6.963472181429976e-05	1.6686322012084313e-06
2
1000
Ar	-4.247676729893105e-07	5.849118941943814e-07	0.0032249316248213382	-2.2153865894723e-05	-1.8245168842596895e-05	9.59965492774264e-05
Ar	1.2860444755101975e-06	1.2399495663785685e-06	0.0027428812430426172	5.5203112576216734e-05	6.644061533227306e-05	-4.854108531863619e-05
2
1200
Ar	-5.070422260704338e-07	2.482503886315715e-07	0.0032257420227885664	2.2862877641475986e-05	-4.433525535225669e-05	5.5169734619893325e-05
Ar	1.493354361486032e-06	1.3855574763753993e-06	0.002742465307813516	-2.366580171304616e-05	-1.4555227600527221e-05	-2.3590781331259718e-05
2
1400
Ar	-4.240940597760203e-07	-3.673038797317142e-07	0.003225937086637863	-3.198924669254123e-06	-5.764631669859896e-05	-4.547036333539359e-05
Ar	8.00402662533188e-07	9.563699005331695e-07	0.002742248343640226	-9.797013535195115e-05	-7.60064255014828e-05	9.550654288566243e-06
2
1600
Ar	-3.0266931061967436e-07	-9.375423067139572e-07	0.003225069373141349	4.7133032139335726e-05	-2.220695905399814e-05	-8.875865811066925e-05
Ar	-2.76603232277364e-07	3.955689882374924e-08	0.0027424605895640247	-0.00010542871339081832	-9.325387662081367e-05	1.0800717715292029e-05
2
1800
Ar	1.6776020203709653e-07	-8.768919660918096e-07	0.003224208427788752	5.3493035965402176e-05	1.2531777629081981e-05	-8.499941214265344e-05
Ar	-1.0314697429894172e-06	-9.139402363934847e-07	0.0027423346597785295	-3.2208326002121966e-05	-8.23287217115488e-05	-1.5159019187401344e-05
2
2000
Ar	9.139370424834279e-07	-4.648679064108087e-07	0.003223710978373507	5.9311907002982535e-05	5.829231563506118e-05	-1.2942744807782297e-05
Ar	-9.565448052015833e-07	-1.6972548733822928e-06	0.0027420218750657233	4.558414227879166e-05	-2.5552035062012754e-05	-3.2778237507296745e-05
2
2200
Ar	1.2995971685237386e-06	5.70821971419211e-07	0.0032241086699919723	1.773427654380556e-05	0.00011682854358775314	5.9564175398859195e-05
Ar	-1.226584392565224e-07	-1.4251934527137202e-06	0.0027418975229034025	9.458926003869632e-05	6.734178520015161e-05	3.420348192954964e-05
2
2400
Ar	1.2700737761028354e-06	1.8949289229805693e-06	0.0032250123046113775	-4.1260238550152594e-05	0.00011470884426766446	9.116626383335008e-05
Ar	8.040147513180259e-07	-6.893229973250287e-07	0.0027423935338983566	7.341777274181234e-05	9.365023837838387e-05	6.748260052526355e-05
2
2600
Ar	6.433453758401845e-07	2.394257459307915e-06	0.0032255411493077014	-0.00010935287380809122	-1.597469447167953e-05	1.908477623988033e-05
Ar	1.2350885516917874e-06	3.5148954373931504e-07	0.0027431976441392785	1.9028335410671776e-06	8.479550171284257e-05	8.74839820753535e-05
2
2800
Ar	-5.672567639752315e-07	1.5633346052932536e-06	0.003225417427753976	-0.00013988957767672915	-0.00015905186449299358	-3.01575875249767e-05
Ar	8.549418220613564e-07	1.1552068166776013e-06	0.0027439732117698346	-6.838591424665745e-05	5.534855197842463e-05	5.745570049455211e-05
2
3000
Ar	-1.694716876132363e-06	-4.2743588892404167e-07	0.0032250510542235827	-7.261161026861074e-05	-0.00022225007084215943	-2.2359330269290215e-05
Ar	-1.9733899931275317e-07	1.3313970348633632e-06	0.002744158209848679	-0.00010561721578312507	7.028862990394272e-06	-3.243613748025458e-05
2
3200
Ar	-2.070985598990185e-06	-2.3777218103373955e-06	0.003224708233467709	-7.410309910481987e-06	-0.00014950715714213535	-4.4577341410447734e-05
Ar	-1.0727695920553061e-06	1.0365423208903093e-06	0.0027434050242507615	-4.261713023672306e-05	-5.58900451490578e-05	-0.00011388113692179933
2
3400
Ar	-1.6160551769651897e-06	-3.131298661952073e-06	0.0032242794500037964	8.18972222539348e-05	-3.661688338341138e-05	-3.317990524462074e-05
Ar	-1.28848933824193e-06	2.2591541049130036e-07	0.002742104872748596	-3.676387100784489e-06	-0.00011527737568177002	-0.00013887829996890008
2
3600
Ar	-4.976714581322678e-07	-2.7047180649000903e-06	0.0032240067990394845	0.00016259399958437607	0.00010898373045490904	-1.0718345202710656e-05
Ar	-1.0590353628129861e-06	-6.808742117678025e-07	0.0027410585298070704	4.4327209255027596e-05	-8.353775800807545e-05	-7.035816163235569e-05
2
3800
Ar	1.3514543686752453e-06	-1.1783698996964857e-06	0.0032240545202060454	0.0001769974643079925	0.00019784221255421692	3.295574714053924e-05
Ar	-2.809716752454166e-07	-1.2825092703204963e-06	0.0027408767835684295	0.00010088531285509218	-5.4594324227992124e-05	2.8926321326782626e-05
2
4000
Ar	2.7387890745108052e-06	1.1547678755831644e-06	0.0032243263829310055	9.400119535197949e-05	0.0002482472885600143	1.9542066314438648e-05
Ar	7.971536546345183e-07	-1.4598095207865874e-06	0.0027418260839336198	8.622469605443369e-05	9.628246413508726e-07	0.0001562142850958881
2
4200
Ar	2.9924256082424095e-06	2.9784794034050404e-06	0.0032246638357310863	-3.490545795241939e-05	0.0001289056881499132	4.450197793006184e-05
Ar	1.3787337202797444e-06	-1.1621480172796952e-06	0.0027433531791640074	1.1203207466380055e-05	6.910345337813367e-05	0.00014813886540790088
2
4400
Ar	2.1783394935503605e-06	3.6807988207798115e-06	0.0032251058522946357	-0.00015103724115682896	9.641399645192639e-06	6.589710968604967e-05
Ar	1.2070466161634085e-06	-4.568347815897903e-07	0.0027445007756942835	-3.97158374789673e-05	8.371831001379031e-05	7.76070627981945e-05
2
4600
Ar	2.212163150675403e-07	3.1848857117099065e-06	0.0032257317865230298	-0.00022044666296425932	-0.00011998648714333581	3.5743082068782806e-05
Ar	6.419936293698525e-07	2.6285109131242147e-07	0.0027447295009218474	-7.522009976038386e-05	4.686343736492074e-05	-3.8543091390065e-05
2
4800
Ar	-1.6825642342032492e-06	1.450446568327473e-06	0.003225669892338346	-0.00017271602680242552	-0.00022697817116251718	-3.222646148995107e-05
Ar	-1.1022796123643137e-07	7.262893839760497e-07	0.0027438966942392147	-9.363172613217575e-05	6.161204494889833e-05	-0.00011810162527328592
2
5000
Ar	-2.826484672119799e-06	-7.700830409765217e-07	0.0032252166305010905	-5.60241392944994e-05	-0.00022560896273823218	-7.478328430020926e-05
Ar	-8.737240128725797e-07	1.1028413940573127e-06	0.0027424302798555247	-5.542057145955752e-05	1.2165731097203267e-05	-0.00016169285887493402
2
5200
Ar	-2.8198545091896133e-06	-2.6955207498131987e-06	0.0032245978496542446	6.731907433442182e-05	-0.00014129397095192714	-4.785036777377015e-05
Ar	-1.4168343274357392e-06	5.752807870139621e-07	0.0027414192953204297	-2.7073005678564396e-05	-8.773950395975246e-05	-3.688622044194475e-05
2
5400
Ar	-1.3613672092416222e-06	-3.5897918333177016e-06	0.003224089132824792	0.0001969018068535833	-3.765444974158382e-05	-4.897704298749274e-05
Ar	-1.4255641628117553e-06	-1.868735474509587e-07	0.002741661276043632	4.539441598261164e-05	-7.133292736350656e-05	6.569134991854391e-05
2
5600
Ar	8.437302156104032e-07	-3.05763441523185e-06	0.0032240731823492646	0.00020346596723484474	0.00014884012291320448	5.512392547188446e-05
Ar	-6.975265124330312e-07	-1.0069824329243e-06	0.0027423564946747613	7.925714990769606e-05	-6.681684877223273e-05	7.478552856374156e-05
2
5800
Ar	2.5155435333221145e-06	-1.0294811667932213e-06	0.0032247649005448086	0.0001047181654561847	0.0002414307888944101	6.54302964604884e-05
Ar	4.2461450579101016e-07	-1.5083357359324113e-06	0.002743177058544516	0.00013721868311226517	-3.5061232422932946e-05	0.00010139750594894506
2
6000
Ar	2.8880446410099698e-06	1.683624245153731e-06	0.00322554100250795	-2.027150413037248e-05	0.0002744152882165007	8.54417033002119e-05
Ar	1.4073017512165024e-06	-1.3963733751215246e-06	0.002743863168460742	7.638684224929893e-05	4.6685331973942494e-05	3.159289230471549e-05
2
6200
Ar	2.121717985866108e-06	3.8064377170927484e-06	0.0032260360661900086	-0.0001391203565853446	0.00011073967650758313	9.295838645278683e-06
Ar	1.7219950728643418e-06	-5.33439252857586e-07	0.0027440520769978294	-3.4064500191316376e-05	0.00011134974184892113	-2.3215709172587598e-05
2
6400
Ar	1.5336011018823083e-07	4.200677412640572e-06	0.0032255883752760387	-0.00023006538627742574	-3.495309596420795e-05	-8.25849714062082e-05
Ar	1.054131725540693e-06	6.5950162302309e-07	0.0027434317074231103	-9.467685145679129e-05	0.00013452408764571974	-7.26047848477094e-05
2
6600
Ar	-1.908180623295368e-06	2.874804556146571e-06	0.003224522710763324	-0.000169377012781834	-0.00023194260629434352	-0.00010280113654269784
Ar	-4.6810432824005753e-08	1.846272874254667e-06	0.002742568502071875	-0.00011014185348312729	8.709318768088701e-05	-7.766409521799207e-05
2
6800
Ar	-3.245261584769868e-06	-9.496391118088359e-08	0.003223769715346795	-5.328033256407801e-05	-0.0003456615272079758	-4.2833906529265244e-05
Ar	-1.0551370069968227e-06	2.14912780022998e-06	0.0027417528964884396	-6.406404387954777e-05	-4.335194320707867e-05	-6.113611307347607e-05
2
7000
Ar	-2.6954152032456724e-06	-3.2347970186546674e-06	0.0032237051672469636	0.000153577738582928	-0.00024181521378372612	4.3402860477870606e-05
Ar	-1.4285122652775146e-06	1.1325440955510368e-06	0.0027413480624039503	1.4168462932121862e-05	-0.0001429262396549217	-2.4466236683475457e-05
2
7200
Ar	-8.097236240091468e-07	-4.697227144821334e-06	0.0032245661627098385	0.0002157628445529077	-3.084363722080518e-05	9.072573715376642e-05
Ar	-7.585695713860406e-07	-7.55887166712436e-07	0.002741604108420075	9.954365955467966e-05	-0.00019521715892542097	5.5729417190157875e-05
2
7400
Ar	1.324452346944568e-06	-3.969360440106273e-06	0.0032252079933106155	0.00018309241182557022	0.00017529497392321586	4.660706743813273e-05
Ar	4.5616726490341354e-07	-2.3883118492064166e-06	0.0027423787669639006	0.00012232134959593689	-0.00011437388171797573	0.00010263888319628464
2
7600
Ar	2.3997252270651565e-06	-1.2739798309674312e-06	0.0032252871017381286	3.0423308049451785e-05	0.00033548213241159163	-2.115383759853332e-05
Ar	1.6259074109454154e-06	-2.8388151022307087e-06	0.0027434942997107857	0.00010835294765513181	3.408510650256604e-05	0.00012940714311185107
2
7800
Ar	2.0106239479768793e-06	2.2875954031907267e-06	0.0032252302845730972	-9.455649198308888e-05	0.00033609558765578093	8.68167187095192e-06
Ar	2.1828818212877755e-06	-2.071200128872383e-06	0.0027443198683740643	-1.2330799513954307e-06	0.00013880239966223656	4.952890333351959e-05
2
8000
Ar	4.187708483208104e-07	4.873607138690782e-06	0.0032252966368222376	-0.0001845435866834518	0.00016105772466313572	-1.6425564627568786e-06
Ar	1.8063388771086121e-06	-3.6304605381399293e-07	0.00274439970356156	-8.244353087253957e-05	0.00020771508924600287	-5.176250180798546e-05
2
8200
Ar	-1.3392865163410504e-06	5.077943931238739e-06	0.003225315469081266	-0.00014792794415617401	-0.00012405456683041793	-5.629953260458699e-06
Ar	5.16015546996103e-07	1.6181362469456665e-06	0.0027435727037455025	-0.00015324631914260736	0.0001637343533283793	-0.0001086503647592563
2
8400
Ar	-2.3683438713528547e-06	2.8881805806665417e-06	0.0032250903036921065	-6.148135807661701e-05	-0.00031849110441673303	-5.3215248313058705e-05
Ar	-1.1904488500592998e-06	2.953110635387918e-06	0.0027425381773171784	-0.00016464100762530372	0.00010005841077033853	-8.45300277732546e-05
2
8600
Ar	-2.3954079608391145e-06	-8.025020729143806e-07	0.003224447688768722	6.657674052254234e-05	-0.00040084341650006513	-4.727112997754166e-05
Ar	-2.2431763835187424e-06	3.233421937831527e-06	0.002741773336475277	-3.808069680643224e-05	-3.782521110052652e-05	-6.472883665825083e-05
2
8800
Ar	-1.0788638609023867e-06	-4.558080090346931e-06	0.003224018390544472	0.0002061927463065829	-0.00031176117501477147	-2.383314001600747e-05
Ar	-2.0941612271444736e-06	2.0839359274300035e-06	0.0027414631511815213	5.6824987404016796e-05	-0.0001798471033122361	1.498501057561004e-05
2
9000
Ar	1.1035589463103243e-06	-6.382545743375571e-06	0.003224115595323972	0.00022283517899356146	-3.901048782923042e-05	4.004413320114224e-05
Ar	-8.157216496639766e-07	-9.268242308418017e-08	0.0027420382504773208	0.00016904953683850833	-0.00023079496002744164	9.36204517750272e-05
2
9200
Ar	3.0912694685369157e-06	-5.247494112551249e-06	0.0032246147461755027	0.00013304972203035515	0.0002593404256808359	5.779019553375143e-05
Ar	1.0961948097364525e-06	-2.062010652915399e-06	0.002742754845980811	0.00019622548475896074	-0.00014876569302438067	3.5245035453121855e-05
2
9400
Ar	3.514622805305984e-06	-1.5999221910803972e-06	0.003225485903934463	-5.825959960935185e-05	0.0004309803270530497	8.403088427698557e-05
Ar	2.8020366763945662e-06	-3.1021125571105065e-06	0.0027429752805018543	9.911350524364001e-05	-4.1815808567954445e-05	-4.654215335382323e-06
2
9600
Ar	2.0776478495544822e-06	2.772824609036045e-06	0.0032258416881736627	-0.0002542965370874031	0.0004157119147818317	-4.2026891705675476e-06
Ar	2.9995940018943353e-06	-2.850486154121358e-06	0.0027431110511274637	-8.134083476475915e-05	0.00011000027816606317	-2.3165954389583896e-06
2
9800
Ar	-5.49522255540205e-07	5.895135492503444e-06	0.003225332279068268	-0.00025742491963019846	0.00017674465367752557	-8.180602864477845e-05
Ar	1.490471756952353e-06	-1.0887268421348917e-06	0.0027430887719606793	-0.00018964686499730286	0.00020693120569838727	-9.788537825676549e-06
2
10000
Ar	-2.858407939639086e-06	6.309215736126154e-06	0.003224556762811676	-0.00018494846541292033	-0.00010699989898055784	-7.258417971584853e-05
Ar	-5.045072223387738e-07	9.97622401678379e-07	0.002742964400764772	-0.00020514728952910277	0.00019834626282656478	-2.3028405511986607e-05
2
10200
Ar	-4.012829010165971e-06	3.955819296759488e-06	0.003224036144961602	-2.2442400704212773e-06	-0.0003477959649127751	-5.4094194541103476e-05
Ar	-2.185017486529522e-06	2.497429269332681e-06	0.0027427709932042583	-0.00012787310177946512	0.00011211627237322105	-1.3017039432956736e-05
2
10400
Ar	-3.2035639194945556e-06	-2.1609908019907117e-07	0.0032239232488142536	0.00016174624705592847	-0.000456621751127818	2.801196416732432e-05
Ar	-2.7524939526918713e-06	3.0588961071898324e-06	0.00274263531219914	2.6409651911150514e-05	-3.279600503750975e-06	-1.9649519903609677e-05
2
10600
Ar	-8.566280199148839e-07	-4.4308540061213735e-06	0.003224444529020408	0.0002711185449091104	-0.0003622798094596351	5.4343430365871376e-05
Ar	-1.96682824724699e-06	2.0844939821597475e-06	0.0027425114951983493	0.0001276962164369201	-0.00016638603849438707	-3.3540399166116873e-06
2
10800
Ar	2.0689303310773047e-06	-6.841656333894574e-06	0.0032251555254338843	0.00028710745594431235	-9.046951624005456e-05	8.057371003380111e-05
Ar	-2.9845020682882675e-07	5.277681771481574e-08	0.0027425470641521104	0.0001776268382229402	-0.00022147769145631547	1.746183977025926e-05
2
11000
Ar	4.338579577650059e-06	-6.518823343121713e-06	0.0032259368024164362	0.0001437838305107295	0.00017409828063620557	7.374353557414398e-05
Ar	1.7068018182365877e-06	-2.251856993395599e-06	0.0027427600866107094	0.00020233960547021276	-0.00021454890200661982	3.6138630813268366e-06
2
11200
Ar	4.655983476730153e-06	-3.258274293015562e-06	0.003226082133402698	-7.023044356774107e-05	0.0004478367605087443	-5.739896601277391e-05
Ar	3.027147116463865e-06	-3.7842909315048996e-06	0.0027431739370507107	5.62411346791999e-05	-6.783249846749764e-05	4.2216575769826866e-05
2
11400
Ar	2.801985382979401e-06	1.7010901427113354e-06	0.0032250595110731154	-0.00027219788003661043	0.000519442330471611	-0.00013255939725825548
Ar	2.893524206696797e-06	-3.7445201951538373e-06	0.002743392286654915	-7.993818514790407e-05	0.00010152514090191946	2.930545124322332e-05
2
11600
Ar	-4.4882375720772444e-07	6.298038656963626e-06	0.003223998936042301	-0.00034297940227207653	0.00033843162042424967	-6.76044717512455e-05
Ar	1.4720438709961348e-06	-1.8005791727168914e-06	0.0027434152183492422	-0.00019722676165868477	0.00027549073972225077	-3.4818667412168837e-05
2
11800
Ar	-3.643369491959953e-06	7.924896769012443e-06	0.0032238508135048775	-0.00026160598827468977	-3.14275594335479e-05	4.7363317282910686e-05
Ar	-4.3548982163398857e-07	1.276788715420248e-06	0.0027426606070342753	-0.00015099717937237613	0.0003133362817547468	-0.00010396723642305845
2
12000
Ar	-5.09724559347171e-06	5.667629493854835e-06	0.0032245390262882877	-1.3876539709659484e-05	-0.0004117532059446942	7.186850660566074e-05
Ar	-1.9432550019259356e-06	3.939415138419905e-06	0.002741478097235902	-0.00010990364127496852	0.0001868950162837079	-0.00010660238935971775
2
12200
Ar	-3.910966405946892e-06	6.511088868680068e-07	0.0032249916110636393	0.00025659074405407547	-0.0005464401536415961	2.236792975223127e-05
Ar	-2.6002006793395723e-06	4.50131557854448e-06	0.0027411419972924625	5.297815766013136e-06	-5.858234859602821e-05	2.441448589098205e-05
2
12400
Ar	-4.847257331015729e-07	-4.687677843877577e-06	0.0032249992884630695	0.000405149369466125	-0.00047547462488649865	-4.9933001952954066e-05
Ar	-2.0811283769482727e-06	2.914853266775785e-06	0.002741642951971469	0.00011998664100031342	-0.0002275163488049781	7.819816241503086e-05
2
12600
Ar	3.228574900217115e-06	-8.106912127323299e-06	0.003224348908091351	0.00032812701531572444	-0.00018078631495399512	-5.871785362909282e-05
Ar	-6.243625268685272e-07	1.1419315599428212e-07	0.002742754355116844	0.0001912046054502182	-0.0003086569017923508	0.00011639587299869756
2
12800
Ar	5.527627717767783e-06	-7.846536075364875e-06	0.0032241500164963788	0.00012134917203173138	0.0002462899170347402	-2.068413754954022e-05
Ar	1.4062212989138062e-06	-3.0090342038473595e-06	0.002743494952437778	0.00018936962099418034	-0.0002857455619891635	4.65552074990966e-05
2
13000
Ar	5.438835694822635e-06	-3.643307173910156e-06	0.0032243413448897833	-0.0001406857764984284	0.0005654255827033046	6.726522095454211e-05
Ar	3.039170309854295e-06	-5.034626150864197e-06	0.0027435895790983308	0.00010220450726966712	-0.00010396763200725456	-2.590595886671976e-05
2
13200
Ar	2.9922476555198793e-06	2.5404788803421104e-06	0.0032251714839965488	-0.00034630183655007544	0.0006342782351379943	6.134119158577254e-05
Ar	3.346689110697917e-06	-4.4153320679851165e-06	0.0027432446620776	-5.5330594546420573e-05	0.00019840277611846691	-3.9402366322110944e-05
2
13400
Ar	-1.1179715144175978e-06	7.810713457303227e-06	0.003225528317309948	-0.00045521398290272795	0.00038362209360542806	-2.213405584569602e-05
Ar	2.0644174141506892e-06	-1.4753083492612042e-06	0.0027428003081169617	-0.00020615983261927821	0.00036522731936784465	-5.329248941652253e-05
2
13600
Ar	-4.825885844162467e-06	9.57412349357569e-06	0.003225299083651878	-0.00026533212246458514	-4.776213520036316e-05	-1.4425733043217535e-05
Ar	-1.0165360107136001e-07	2.0996844195877323e-06	0.0027424190327996617	-0.00021439517506147666	0.0003242792313288424	-1.4203700371413359e-05
2
13800
Ar	-6.128582103618781e-06	6.906504078597234e-06	0.0032247669198786663	-1.3627357034768426e-06	-0.0004964797518286402	-6.125753113240057e-05
Ar	-1.6891426113675614e-06	4.5521699918862085e-06	0.002742236434648313	-0.0001255455136729221	0.00012298814751026971	-1.2438993355200966e-05
2
14000
Ar	-4.7157059475484675e-06	5.316213436964291e-07	0.0032240297317511265	0.0002753311314005523	-0.0007082822587976308	-6.910571168411719e-05
Ar	-2.8351118798552925e-06	4.440650621197648e-06	0.0027420782509030893	-7.245748061856234e-05	-0.00013925028990345118	-6.388048979104661e-06
2
14200
Ar	-1.2537474959363439e-06	-6.233785935940462e-06	0.003223511517646687	0.00040659883654640966	-0.0005861890237616969	-2.2949165680658693e-05
Ar	-3.120583853795778e-06	2.1359061609553783e-06	0.002742249179174913	5.9189174901002e-05	-0.00030271769022629944	2.7649130162465396e-05
2
14400
Ar	2.648743610067436e-06	-1.0266041824053879e-05	0.0032238579259856676	0.0003442350275197256	-0.00016933704873052993	9.709440065253169e-05
Ar	-2.0077636127154225e-06	-1.1767001525611219e-06	0.002742519326473654	0.0001545457739523358	-0.00032483610266623907	1.7334278415595998e-05
2
14600
Ar	5.430958919045783e-06	-9.109779616448532e-06	0.0032250112925447335	0.0001691686923886532	0.00039278754257297707	0.00011777897529868418
Ar	-6.45839576566819e-08	-3.9213564975947725e-06	0.002742867896944189	0.00023183244769606778	-0.00022399261890880182	3.158117562067843e-05
2
14800
Ar	5.638923255751814e-06	-3.3441899972020285e-06	0.0032257465408794023	-0.00013363035768707037	0.0007120055792975621	3.325413469065494e-05
Ar	2.073893551962873e-06	-5.076392321845861e-06	0.00274315146869404	0.00017274465399561551	1.2815348846985775e-05	1.0306872022802645e-05
2
15000
Ar	3.3457294174933936e-06	4.142330697814286e-06	0.003225947501080966	-0.0003011775168045891	0.0007105539092657891	-3.4132967807981215e-05
Ar	3.301789315801489e-06	-3.955962253207036e-06	0.002743223240356676	5.6731844744113624e-05	0.00020725957511922452	3.580633833822066e-06
2
15200
Ar	-3.1602800981545686e-07	9.576624689661356e-06	0.0032255480008574213	-0.00041493000661782997	0.00036861401419023895	-4.509895230974897e-05
Ar	2.900870093526072e-06	-1.1096367954236013e-06	0.002743135570740419	-0.00011885957453365075	0.0003475079736786246	-2.096873879073583e-05
2
15400
Ar	-4.133671774275131e-06	1.064244974574304e-05	0.00322496744819604	-0.0003127080287516626	-0.0001571386092009763	-5.349574379412622e-05
Ar	1.0725683377679962e-06	2.3540663612403756e-06	0.0027427985432705907	-0.0002354853939386703	0.0002989082452705774	-1.9048318619970707e-05
2
15600
Ar	-6.1561239951514505e-06	6.606946182355405e-06	0.0032244646348455696	-6.067931078224879e-05	-0.000612561812666995	-4.968587149028403e-05
Ar	-1.4437541785330332e-06	4.661922435524023e-06	0.0027426212462178397	-0.00024615065320771903	0.00014560610530163764	-1.948958515232048e-05
2
15800
Ar	-5.053539096012331e-06	-9.061627869476682e-07	0.0032237431204876796	0.00030303501067521635	-0.0008151468839911428	-8.190207368006266e-05
Ar	-3.4244212311412582e-06	4.990748806694567e-06	0.002742398527844364	-0.00013220026182577058	-9.80959478080971e-05	-3.058255294295418e-05
2
16000
Ar	-9.14341987758535e-07	-8.157034050657125e-06	0.003223535930007516	0.0004938040802622773	-0.0005660554837189062	2.0916350902661265e-05
Ar	-3.861240482036364e-06	2.5984073870641926e-06	0.002742297478287743	4.408452317190532e-05	-0.0003422276891263807	1.2572535474006367e-05
2
16200
Ar	4.039597332100565e-06	-1.1515697362621553e-05	0.0032242518733396957	0.0004493869141004967	-6.992009453335911e-05	0.00010019498385670025
Ar	-2.566919243373468e-06	-1.278486657848236e-06	0.0027426316815612763	0.0002038440344759358	-0.000417082967325532	5.01770655783453e-05
2
16400
Ar	7.407918703828366e-06	-9.372004916619145e-06	0.0032253782845433976	0.000183380603879372	0.00047490091913977975	0.00012812815721495682
Ar	-9.975036721027005e-08	-4.827912512934573e-06	0.0027430119995590346	0.000264501716713785	-0.0002617163220918203	2.6750822467028148e-05
2
16600
Ar	7.300874556094518e-06	-2.673626357696555e-06	0.0032264858621670047	-0.0002081173630567021	0.0008089057758856996	7.43939523817165e-05
Ar	2.316829679392047e-06	-6.077000672379848e-06	0.0027433393530700238	0.00022250281393059034	-4.002321224891284e-06	5.218862941425966e-05
2
16800
Ar	3.6418127920134397e-06	5.757353869148534e-06	0.003226556214224776	-0.0004906873367398336	0.0007984762616583499	-6.13893514701272e-05
Ar	3.921092278270979e-06	-4.627619675808213e-06	0.002743550198089569	6.581633820988773e-05	0.000265737483047037	6.895651913797033e-06
2
17000
Ar	-2.0328318732117025e-06	1.2059006245438765e-05	0.00322551837908366	-0.0005672573551495296	0.00039396370955956247	-0.00014863687480236147
Ar	3.703136409239409e-06	-6.710962427556868e-07	0.0027433597084304674	-9.273220935306747e-05	0.00047447707416794257	-3.989455210897333e-05
2
17200
Ar	-7.118715396250386e-06	1.303661533081282e-05	0.003224259975371501	-0.000404189215539121	-0.00021539184866729114	-0.00010153875731807619
Ar	1.8999936571395838e-06	3.808112317533669e-06	0.0027426814910484166	-0.00025491939927257853	0.0003717481302334861	-0.0001233453882930084
2
17400
Ar	-9.363973765175558e-06	8.017176300395125e-06	0.0032234815255990316	-2.336510051784986e-05	-0.0007516289896623569	-4.340519069833382e-05
Ar	-8.500195878729302e-07	6.350490404135383e-06	0.0027419210671375395	-0.0002820607170675045	0.00014861355487168736	-3.962118468474837e-05
2
17600
Ar	-7.609477515335338e-06	-8.297745521455463e-07	0.003223708106288695	0.00036665895056222167	-0.0009657448397000309	5.6295464043982706e-05
Ar	-3.249814849844928e-06	6.13013458914262e-06	0.002741790996578217	-0.00019986691158447808	-0.00019697765938095935	2.9837280029741405e-05
2
17800
Ar	-2.3976155711147043e-06	-9.663024488813638e-06	0.0032243627687573427	0.000651939667906604	-0.0007448863411140714	5.529110320205986e-05
Ar	-4.280495305998322e-06	2.9542623335436006e-06	0.0027419955723651294	2.8435408645077975e-06	-0.00042330449914425625	3.492293507907339e-05
2
18000
Ar	4.252840204155611e-06	-1.4540717156086667e-05	0.003225185051421205	0.0006128791007275874	-0.00017160182650149318	9.852997009882907e-05
Ar	-3.2976575625033347e-06	-1.7094679249731509e-06	0.0027425921769048222	0.0001835953438171902	-0.0004621134887961034	6.459674752156752e-05
2
18200
Ar	9.02560999615215e-06	-1.2343295942869029e-05	0.003225772118593143	0.00030890703372239947	0.0006099270985353153	1.4486537130914707e-05
Ar	-7.961113265272999e-07	-5.9340394262804915e-06	0.002743203554702744	0.0003056370153532747	-0.00032354435041997894	4.9382072057142306e-05
2
18400
Ar	9.62381348732133e-06	-3.841928609220188e-06	0.003225739450895452	-0.000173560769733613	0.0010476645444517571	-3.399669250476026e-05
Ar	2.525418576003269e-06	-7.4668194749269e-06	0.0027435359748614243	0.0003288149525621082	4.5253047050534416e-05	1.5064030639608914e-06
2
18600
Ar	5.7120419510409235e-06	6.969312644763378e-06	0.0032251735149438758	-0.0005644351907104999	0.0010170927278217454	-5.510656993348892e-05
Ar	4.988458921988526e-06	-5.190871055659812e-06	0.0027434070792432593	0.0001508294073237133	0.0003886087455837083	-3.083917699085061e-05
2
18800
Ar	-9.651887949080309e-07	1.446428564396217e-05	0.0032245588094911804	-0.0007229368907539676	0.00044334508175974697	-5.146434698793465e-05
Ar	5.323014914401994e-06	-5.972354701209044e-07	0.00274289009887468	-0.00011935999483781198	0.0005125971208686946	-4.362671138945539e-05
2
19000
Ar	-7.375499780534348e-06	1.5185170282524615e-05	0.0032243472740121726	-0.0005224174091001412	-0.00031930224654483624	-1.849190439504618e-05
Ar	2.9903569601269494e-06	4.362586034301641e-06	0.0027424183345372594	-0.0003134118617143744	0.0004441172946376919	-4.216107189099128e-05
2
19200
Ar	-1.0435601494709947e-05	8.775591452669789e-06	0.003224475496161153	-8.17318119618584e-05	-0.0009155489264765259	3.9594312450757894e-05
Ar	-6.157460610629321e-07	7.449366328071625e-06	0.0027423099652474077	-0.0003833736931507953	0.00014683000749181902	-3.360115864652368e-08
2
19400
Ar	-8.790325635980614e-06	-2.0094651149495467e-06	0.0032248283959494957	0.0004100484380424702	-0.001161528230318276	3.7227506821404744e-05
Ar	-4.090972426226646e-06	7.024870994909687e-06	0.0027425272854142684	-0.0002888170603509641	-0.00022950618686246241	3.407683707230016e-05
2
19600
Ar	-2.769626607517603e-06	-1.241384192120576e-05	0.0032250136513372715	0.0007370942442567773	-0.0008192108476919297	-8.504736561033803e-06
Ar	-5.709053510840674e-06	3.47686126323852e-06	0.0027429591044633712	7.0980169727607286e-06	-0.00046914507193505836	3.7015125969349186e-05
2
19800
Ar	4.9261531617498945e-06	-1.738711081134905e-05	0.0032248078768481753	0.0007137559910608576	-0.0001389439714774421	-6.373106955525637e-06
Ar	-4.058867451653084e-06	-1.7083292195163837e-06	0.0027432581537761955	0.0002948138849129467	-0.0005381252074623163	1.3783392199852144e-05
2
20000
Ar	1.0559193941006348e-05	-1.4741808817311109e-05	0.0032246310969704078	0.0003618499223316658	0.000637647076095749	-4.3967138146392764e-05
Ar	-1.9766568520739487e-07	-6.462669134943672e-06	0.002743279254174646	0.0004398916452512287	-0.0003626574925309661	7.174460420724842e-06
2
20200
Ar	1.1140016792211166e-05	-5.159419731406719e-06	0.003224406680927434	-0.00023467723903325944	0.001177986079462972	2.501176077326951e-06
Ar	4.209436098442032e-06	-8.52286062140558e-06	0.002743260551195502	0.0003817324152583306	-1.8721879080967002e-05	-1.3505339758810298e-05
2
20400
Ar	6.237151676664452e-06	7.020539030017521e-06	0.003224386344843792	-0.0007375238234749707	0.0011580175304244178	1.696948911268505e-05
Ar	6.834769421828974e-06	-6.853906601725215e-06	0.002742816593835878	0.00010723007366076472	0.0003556651173374238	-5.585558133388619e-05
2
20600
Ar	-2.1332681291514926e-06	1.6291640815510932e-05	0.0032247365411634896	-0.000883818203105293	0.0006245376066011039	1.827593823286088e-05
Ar	6.186674633960745e-06	-1.8764939010141848e-06	0.002742460344268698	-0.00023718940215386916	0.0006182620841963388	7.847206055715008e-06
2
20800
Ar	-9.951161027557526e-06	1.82474923958109e-05	0.0032248058648950352	-0.0006109202644997815	-0.000258097681429081	4.152435631376546e-06
Ar	2.391358015616785e-06	4.2722039623007044e-06	0.0027426517514354777	-0.0004831187999271829	0.0005515747965244018	9.127561513552856e-06
2
21000
Ar	-1.3274010984884567e-05	1.1649380390930372e-05	0.0032250338004984123	-4.351318211035955e-05	-0.0010085276641249902	4.7953260404855305e-05
Ar	-2.704484888353059e-06	8.649573207327042e-06	0.002743036340810305	-0.0004986702166072854	0.0002721697770026637	5.735609473385978e-05
2
21200
Ar	-1.060549976110352e-05	-5.334404111266642e-07	0.003225319906662137	0.0005625761114399782	-0.0013151644394673195	2.0473607436309377e-05
Ar	-6.84621469763544e-06	9.070236414924817e-06	0.00274352638494402	-0.00030425321139877787	-0.00019009500329907034	4.700516278670922e-05
2
21400
Ar	-2.705351194202981e-06	-1.2949866427307801e-05	0.0032254449181462457	0.0009398836755074921	-0.0010785788631730601	-1.497101034908684e-05
Ar	-8.044180109574281e-06	5.216279285553737e-06	0.002743702651841177	7.964744622560111e-05	-0.0005740862973168798	2.705174682448235e-05
2
21600
Ar	6.748842337700688e-06	-2.0285960534107046e-05	0.0032253071385032694	0.0008651363748087832	-0.00029127177904494597	-4.52803387980765e-06
Ar	-5.352354154700429e-06	-1.26301277179733e-06	0.002743742509786373	0.0004685229243033167	-0.0006852755961097714	-5.9069088317463145e-06
2
21800
Ar	1.3326381824830667e-05	-1.8276390226829734e-05	0.0032251097567993136	0.00039080692564948393	0.0006681830243581862	-4.816992956365692e-05
Ar	2.9338776160828775e-07	-7.548291842115234e-06	0.002743531027629328	0.0006433967625156477	-0.0005193430174018108	-2.7734807377847713e-05
2
22000
Ar	1.373067204709318e-05	-7.7493086383559e-06	0.003224692770673002	-0.0003085432386938924	0.0013684977603025254	-3.1045646272848115e-05
Ar	6.16940883697164e-06	-1.0728834191784142e-05	0.0027432370112581016	0.0004924820550944711	-8.167597631550898e-05	-3.9718939562438513e-05
2
22200
Ar	7.459956665358122e-06	7.085090608913962e-06	0.00322445345104897	-0.0008793272303854862	0.0014532503027346489	4.6697476106846085e-06
Ar	9.066889159635193e-06	-8.773328692411231e-06	0.002742485549628708	6.129004849881116e-05	0.0004657508034471605	-8.376716054571706e-05
2
22400
Ar	-2.590878884749231e-06	1.9088753905122837e-05	0.003224354024381552	-0.0010388555628846044	0.0008399354703278871	-3.9772416320373966e-05
Ar	7.413518751484965e-06	-2.3206549981631323e-06	0.0027420493068961225	-0.00038640068829971384	0.0007715001399646476	3.0852376085829875e-06
2
22600
Ar	-1.1733714821984903e-05	2.2536288260522456e-05	0.0032239604330797323	-0.00070292994745205	-0.00020777447838536	-4.352203674134276e-05
Ar	2.072937702167921e-06	5.245791890163553e-06	0.0027422299466004683	-0.0006338992308578226	0.0006978081131059058	3.473386581173309e-05
2
22800
Ar	-1.549295312674908e-05	1.5302751963645014e-05	0.0032239460157940294	9.462324685425568e-07	-0.0011904445470334404	2.057870229773619e-05
Ar	-4.092148411437662e-06	1.0731043447407033e-05	0.0027429047953389206	-0.0005648617302279901	0.0003064259106715019	9.087090822289112e-05
2
23000
Ar	-1.1620205751562025e-05	2.637891594580643e-07	0.0032245840147214727	0.0007343754696995589	-0.0016662635552894543	0.00014230946491559885
Ar	-8.478405184381875e-06	1.1064580742043362e-05	0.0027435401535892204	-0.0002839219417591743	-0.0002681354864539052	4.6382776412223295e-05
2
23200
Ar	-1.9109920812641713e-06	-1.553739338866903e-05	0.0032261911100511776	0.001143522483662795	-0.0013482091190899113	0.00013440522826744703
Ar	-9.070098540962851e-06	5.829784464185599e-06	0.0027437013466049946	0.00017758112387291416	-0.0007432389548660059	-1.0869209253049747e-05
2
23400
Ar	9.014895632395207e-06	-2.4590122470099607e-05	0.0032266487322518303	0.000971980063240755	-0.00038172099456573494	-4.2169394469059816e-05
Ar	-5.2730488736631445e-06	-2.554141476748633e-06	0.0027436135325687085	0.0005442806029122866	-0.0008857144655002733	-1.1696648119754484e-05
2
23600
Ar	1.59466730340682e-05	-2.2362752568937063e-05	0.0032257495203760157	0.0003528321017204652	0.0008262367535756701	-0.00013183038436604986
Ar	1.3414763640670696e-06	-1.0140892619487554e-05	0.002743399507037816	0.0007281855307777853	-0.000551210042204079	-4.165429459003275e-05
2
23800
Ar	1.5239131189389868e-05	-9.026204156041813e-06	0.0032243269843544504	-0.0004788868585847271	0.0017257056885550766	-0.00014122417443846187
Ar	7.941804162157744e-06	-1.2674827737998392e-05	0.0027427986262418737	0.0005255954556457371	6.005239243644309e-05	-6.664243257035755e-05
2
24000
Ar	7.08277669057033e-06	9.191128125332442e-06	0.0032233003282862538	-0.001084379536666746	0.0017442371077732873	-2.902400376626807e-05
Ar	1.105004459688535e-05	-8.957103637622117e-06	0.0027418979205385747	5.245454179299404e-05	0.0006619753927371767	-9.492283711167765e-05
2
24200
Ar	-5.089096521377168e-06	2.3304163481526553e-05	0.0032235267656797392	-0.0012147974110847325	0.0009664237244357607	9.723862994920395e-05
Ar	8.626137605665613e-06	-7.513838773027256e-07	0.0027413677603661873	-0.0005047958043328451	0.0009200718389046915	1.9940707452366876e-05
2
24400
Ar	-1.559971534979468e-05	2.7059193612658667e-05	0.003224419086908853	-0.0007820383263998874	-0.000271653210725535	7.605879528818437e-05
Ar	1.9486309615540703e-06	7.987629049451434e-06	0.0027422144088248518	-0.0007836930474942343	0.000774350895212087	0.00011162348753562592
2
24600
Ar	-1.9327663553469376e-05	1.8303297123749298e-05	0.003225110847158934	7.23983138941218e-05	-0.0014087883628539	5.19924391257683e-05
Ar	-5.9015536741791e-06	1.3122015156832763e-05	0.0027434292866056692	-0.0006976311067087127	0.00020564022184466218	0.00010443945874475965
2
24800
Ar	-1.4135771355735569e-05	7.271857881753048e-07	0.0032253556859692645	0.0009291650909055332	-0.001936697343134671	1.290930287021725e-06
Ar	-1.0887300217362623e-05	1.2035838507380987e-05	0.0027442085564172046	-0.00023082344416122222	-0.0004243195275549642	4.26346216827143e-05
2
25000
Ar	-2.018569903958447e-06	-1.7503123201536885e-05	0.003225315676300476	0.0014159041663679025	-0.0015744361205789626	-1.505853009281781e-05
Ar	-1.0454027204919864e-05	5.476751124614222e-06	0.0027443336227964588	0.00031581037175196285	-0.0008642392197754651	-1.58443265310438e-05
2
25200
Ar	1.18500591910936e-05	-2.799883131023524e-05	0.0032248595078326675	0.0012294026177130965	-0.0004409995768112195	-5.60137623514242e-05
Ar	-5.185433203658908e-06	-3.8430977245125925e-06	0.0027439006476081694	0.0007034379467935369	-0.0009298655140851601	-5.207408729110525e-05
2
25400
Ar	2.0420748346737864e-05	-2.541155491786699e-05	0.00322437500209877	0.0003973793967742292	0.0009335986917443421	-3.434724225929987e-05
Ar	2.650305787009236e-06	-1.1605935699900723e-05	0.0027431849478504753	0.000768503157581188	-0.0005462000474300294	-7.415553194430109e-05
2
25600
Ar	1.953263761301988e-05	-1.0459956335497673e-05	0.003224352913358495	-0.0006150390662581083	0.001946495210222307	3.5828261760730214e-05
Ar	9.301864983385707e-06	-1.3743753899184912e-05	0.0027423274766703964	0.0004819134861899128	0.0001262139890715448	-7.059184291488618e-05
2
25800
Ar	8.965924459861535e-06	1.0416961551441822e-05	0.003224754696148095	-0.001391000695450857	0.002050219865288321	4.2100139693330213e-05
Ar	1.1487074067446494e-05	-9.424282310698268e-06	0.002741763415311549	-6.242230430010785e-05	0.0007164522106887294	-7.909829913714213e-06
2
26000
Ar	-5.8803965577187224e-06	2.7031289630672218e-05	0.003224930565109913	-0.0014831316671518908	0.0011164881225448104	-1.2529440570882417e-05
Ar	8.158360675733971e-06	-4.151608802160525e-07	0.0027421023424085774	-0.0005862851946918155	0.0010090347148655012	7.204457912318547e-05
2
26200
Ar	-1.8317807103488817e-05	3.117910913778486e-05	0.003224355698237496	-0.0008971409314852312	-0.0003328483489591386	-9.678999331856374e-05
Ar	6.596981741076446e-07	9.118736538591652e-06	0.002742954244937938	-0.0008331178768753876	0.0008289400118222304	0.00010574184013490643
2
26400
Ar	-2.2341465664276584e-05	2.073827564225229e-05	0.0032236726771891953	0.00013891778740713077	-0.0016795343939941278	-9.162760051821976e-06
Ar	-7.065194059844281e-06	1.4594524668030884e-05	0.002743966226600355	-0.000669669511459185	0.0002454782704674139	6.891275163881605e-05
2
26600
Ar	-1.5612308808288696e-05	2.2598812640517324e-07	0.0032241544026935308	0.0011641982059014992	-0.0022801538920927456	9.283914538255523e-05
Ar	-1.1514201441603234e-05	1.325296868113421e-05	0.002744071578462681	-0.00020449488862764225	-0.0005028003406160822	-2.7702169830195554e-05
2
26800
Ar	-9.710106923499094e-07	-2.098124427769648e-05	0.0032253324295465433	0.0016460311640127965	-0.0017745303663745486	0.00011627525995886661
Ar	-1.0626165815248174e-05	5.472153544480197e-06	0.002743355088475626	0.0003753561158959209	-0.000970024274797877	-0.00010885169437214114
2
27000
Ar	1.464250084976457e-05	-3.274026058966495e-05	0.003226114726129574	0.0013357920166332787	-0.0004470117384990456	1.2684435516741929e-05
Ar	-4.607063519394288e-06	-4.81269897086758e-06	0.0027424140961114056	0.0007698178796511303	-0.0010138494398604402	-6.249418573303997e-05
2
27200
Ar	2.3772221995018043e-05	-2.8833029578488442e-05	0.0032251666776433596	0.0004041214071737474	0.0011943092244887106	-0.00016803290226184275
Ar	3.395205663975398e-06	-1.3283087657365687e-05	0.0027422407507255234	0.0007602951868339	-0.0005994954015624686	2.772477296639405e-05
2
27400
Ar	2.1824425870296672e-05	-1.098725806367332e-05	0.0032234804973878995	-0.0007582625995922552	0.002244057842444674	-0.0001312672937399108
Ar	9.551782485316826e-06	-1.567906047250466e-05	0.0027425259747144593	0.00039946173006445696	0.00013754842988439073	1.4330971786819131e-05
2
27600
Ar	9.657584077065805e-06	1.2722043094386071e-05	0.003223065452912152	-0.0015828526163181858	0.002279662656239326	4.108741588151068e-05
Ar	1.1037845310117145e-05	-1.0744922596907343e-05	0.0027426566962384193	-0.0001313394536678653	0.0008209818173486289	1.81521582400205e-05
2
27800
Ar	-7.324050110639042e-06	3.1205490173804856e-05	0.003224114840411611	-0.0016748077497013905	0.0012601141020531434	0.00014632741341581438
Ar	7.38533471092728e-06	-4.311025818760362e-07	0.0027429921767132743	-0.000581513218489398	0.0011681944547655397	5.165944717729283e-05
2
28000
Ar	-2.0943030222698973e-05	3.565536341763734e-05	0.003225637818960652	-0.0009295595933609301	-0.0004123668091066954	0.00013993521392443833
Ar	5.019784621201703e-07	1.0635733542200852e-05	0.0027434411259103187	-0.0007659532380031791	0.0009557872110562017	6.263036938072691e-05
2
28200
Ar	-2.47629728392542e-05	2.332970471484738e-05	0.0032264252783798515	0.0002036962117826581	-0.0019576151191336025	4.013306941770198e-05
Ar	-6.66393429747131e-06	1.7193235199552996e-05	0.0027438565548431187	-0.0006094282286480422	0.0002929108776583853	1.9155002911523286e-05
2
28400
Ar	-1.69167583156395e-05	-6.94778341180952e-07	0.0032261099815903208	0.0013299757885723053	-0.002645840045706938	-0.00011080033981200301
Ar	-1.0921209073716528e-05	1.5728243050216464e-05	0.0027437557357529304	-0.00019815952541041792	-0.0005834671829518407	-2.9768174530300474e-05
2
28600
Ar	-4.2910935969437634e-07	-2.519125064344629e-05	0.003224593484328844	0.0018356247109180494	-0.002052973827890683	-0.00016878408756836895
Ar	-1.0287523287939786e-05	6.425855586333256e-06	0.0027431885430627056	0.00033352409143244335	-0.00117569811208492	-8.755046982169946e-05
2
28800
Ar	1.6832493813528514e-05	-3.825504961925966e-05	0.0032231799567183105	0.001470031135756415	-0.00044088699513682796	-9.591900900291392e-05
Ar	-4.64265782904977e-06	-6.093203828469561e-06	0.002742293051747757	0.0007597253277948267	-0.0012113586091661904	-7.914663086153622e-05
2
29000
Ar	2.641148640064052e-05	-3.328553658683497e-05	0.0032226772266571338	0.00037564632579691363	0.0013874397012361337	8.14360163418542e-06
Ar	3.6108588656996913e-06	-1.590025234993654e-05	0.0027415465721169355	0.0008372473713608272	-0.0006674973813319975	-4.1885799094310304e-05
2
29200
Ar	2.3799339177856384e-05	-1.2567159464892729e-05	0.0032233007204397527	-0.0008849896679644576	0.0025868999937093116	8.786525743526936e-05
Ar	1.0642936023698177e-05	-1.8592116471065158e-05	0.002741551244313873	0.0005134107492931711	0.00019559696356714302	5.270480395759158e-05
2
29400
Ar	9.871598911942185e-06	1.4536236240537652e-05	0.0032246252599977526	-0.0017907105064257599	0.0026114050151138223	0.0001553353957381955
Ar	1.2987545038125255e-05	-1.2564111026744988e-05	0.002742415098197319	-7.449738126248734e-05	0.0009426300702825548	9.867701780146698e-05
2
29600
Ar	-9.45725522267522e-06	3.5322357187657576e-05	0.003225598529169064	-0.001910437733981159	0.0013907149369508623	3.516956699410486e-05
Ar	9.051446815733101e-06	-7.67431367561231e-07	0.002743655407419044	-0.000676840007479313	0.0013234657427170311	0.00016416262221355353
2
29800
Ar	-2.4834937578556615e-05	4.000307797171256e-05	0.0032254352757272444	-0.0010409106510477794	-0.0004921124786232616	-5.38281941755586e-05
Ar	4.866843882269948e-07	1.1780826038864279e-05	0.002745272994639529	-0.000958068893738518	0.0010843407729340985	0.00012324029146871103
2
30000
Ar	-2.8675573790768807e-05	2.5922416646710365e-05	0.003224975517979191	0.0003159155881209357	-0.0022437725565064696	-3.243097910065173e-05
Ar	-8.425291156016358e-06	1.89502346980376e-05	0.002745907219740312	-0.0007524136755696628	0.0003265380137588732	-2.676808041663378e-05
2
30200
Ar	-1.8941525410608654e-05	-1.2545445517783002e-06	0.003224856460511922	0.0015496970595671197	-0.0029708491887974896	2.8538884564323573e-06
Ar	-1.3378982725761698e-05	1.7597510753160307e-05	0.0027446831717204707	-0.00019240706610163788	-0.0006026556047975498	-0.00018627591322932345
2
30400
Ar	1.871351277702579e-07	-2.8651460404916994e-05	0.0032248037798007843	0.002138789271711762	-0.0022812143675973186	-4.8684386106004384e-05
Ar	-1.2158242230580298e-05	7.808367732322346e-06	0.002742435358676471	0.00043830602057386424	-0.0012748423773349604	-0.00020839997736949275
2
30600
Ar	2.0168657625085478e-05	-4.3108145484788484e-05	0.003223857734954012	0.0016708970965564633	-0.0004936567988397994	-0.00014819812138809063
Ar	-5.113880112227003e-06	-5.88078524756573e-06	0.002741042442047366	0.0009092676717201825	-0.0013509221181118578	-2.527337162301734e-05
2
30800
Ar	3.097825314733523e-05	-3.7493413733732985e-05	0.0032225478033662863	0.00038299283778811267	0.0015825389363001464	-6.919170741193088e-05
Ar	4.687968010625192e-06	-1.7138559974721328e-05	0.0027415106387293823	0.0009769660330078951	-0.000804839071851092	8.273707180714472e-05
2
31000
Ar	2.686430330630966e-05	-1.3579666943296151e-05	0.0032226973056501055	-0.0011462164348689152	0.0030072277508787055	0.00012241850120680607
Ar	1.2763457462288466e-05	-2.0591338212081374e-05	0.0027424265638403625	0.0005599082039596392	0.00016947348450099597	9.459636979779281e-05
2
31200
Ar	1.0225067224452975e-05	1.7546865173833042e-05	0.0032243201447429925	-0.00208626720689468	0.0029641696315029988	0.00017943008372178432
Ar	1.4819617073890952e-05	-1.3976706544941594e-05	0.0027433757089588826	-0.00017614856699708806	0.001111457656285925	8.052205505711738e-05
2
31400
Ar	-1.1473450840807864e-05	4.1082586119317114e-05	0.003225849895489815	-0.0020847372078925735	0.0015306052565175416	0.00010834004096495353
Ar	9.534592543389422e-06	-2.028294275385184e-07	0.0027441535075298745	-0.0008333194564810783	0.0015293635865892329	5.6075420910589695e-05
2
31600
Ar	-2.7848401033610493e-05	4.54065135653825e-05	0.0032261437443768656	-0.0010744468263503403	-0.0007054020357744474	-5.382207075211372e-05
Ar	-4.163255925663107e-07	1.4180126315301665e-05	0.0027446322890734903	-0.0010903105010000482	0.0012279847938205016	2.0630985500346633e-05
2
31800
Ar	-3.102000901193206e-05	2.7841723814111458e-05	0.0032253000680646246	0.00046364277550480767	-0.002661538801382064	-9.760851693574328e-05
Ar	-1.0580230618394548e-05	2.218874258414663e-05	0.002744318893015693	-0.000846509045108191	0.00032235721270000334	-7.696563564211123e-05
2
32000
Ar	-1.9308202469546685e-05	-3.5927526489041957e-06	0.003224393725716507	0.0017902463479514985	-0.0033958379849195024	-8.375328315395929e-05
Ar	-1.579788241688186e-05	2.0196149511792423e-05	0.00274346883335561	-0.00017530901133858883	-0.0007480828054241265	-6.636681999641282e-05
2
32200
Ar	1.9344048277092748e-06	-3.418643621846413e-05	0.00322402564093873	0.0022884802710991204	-0.0024865848848616154	-2.6863035939445593e-05
Ar	-1.3692017073734083e-05	8.434675971598015e-06	0.0027428604858662263	0.0005752803744671996	-0.0015295835321782383	-5.108559291470664e-05
2
32400
Ar	2.3122819074157633e-05	-4.935973497455929e-05	0.003223907337083576	0.0017681017372210136	-0.00041808413582648156	-3.0505942251084286e-05
Ar	-5.076566174571838e-06	-7.668870059208614e-06	0.0027425783024049716	0.0010606318901022988	-0.0015585879841375123	-1.043447652622388e-05
2
32600
Ar	3.402365499715128e-05	-4.153451737150848e-05	0.003223730691057527	0.0003261885095068391	0.0019316391955788166	8.533225362132453e-06
Ar	6.124476890431472e-06	-2.0490026151479188e-05	0.002743003963346291	0.001098145478100268	-0.0008773213942032131	7.906501389287358e-05
2
32800
Ar	2.8817687719688796e-05	-1.3841128321115168e-05	0.003224122160771956	-0.001317497793214227	0.0033938036037460856	7.871286719051506e-05
Ar	1.471438026025394e-05	-2.354197914062613e-05	0.0027436445935557223	0.0005350221724756871	0.00029882236956036405	4.007162648970359e-05
2
33000
Ar	9.715691540157528e-06	2.1093264356264597e-05	0.003224814201899215	-0.0023368903378544028	0.003331985495995687	8.38681106459626e-05
Ar	1.6129392067277286e-05	-1.528494255971344e-05	0.002743669234628657	-0.00025972241621426975	0.0013065054264902395	-2.54268214389235e-05
2
33200
Ar	-1.4467429158225503e-05	4.698964761133166e-05	0.003225094671150587	-0.002271150198381462	0.0016116909967734483	-3.8368399260710094e-05
Ar	1.0123509026648778e-05	3.3868693926355624e-07	0.0027434299253553084	-0.0009248894478018394	0.001706899256838722	-9.833819507297139e-06
2
33400
Ar	-3.223082154521837e-05	5.072118876123914e-05	0.0032241483793967124	-0.0011340215393882116	-0.0008833951556903759	-0.00010843867974685778
Ar	-1.032316817355376e-06	1.595760358617014e-05	0.0027435831927249904	-0.0012233492799965304	0.0013025180234319139	1.255865560357297e-05
2
33600
Ar	-3.5247714031466545e-05	3.0277543483519092e-05	0.0032233931242849423	0.0005647252707751144	-0.003022721945200285	-2.7184075732159255e-05
Ar	-1.1960777527901273e-05	2.4249320616304452e-05	0.002743504011476199	-0.0009049291954399944	0.00026797896317632677	-4.957873947622923e-05
2
33800
Ar	-2.1739320438064483e-05	-4.911953611864802e-06	0.0032237439951160905	0.002044924821767123	-0.003751202728171868	7.697479721371091e-05
Ar	-1.7650635769616544e-05	2.0894278232316805e-05	0.002742759143959115	-0.0001676709666503766	-0.0008989585245837251	-0.00010012337939282775
2
34000
Ar	2.415079403299936e-06	-3.8979663804115415e-05	0.003224532423423587	0.0025800924183451935	-0.0027427557431260936	3.872908462570814e-05
Ar	-1.4876563423686966e-05	7.761818162686449e-06	0.002742007164975578	0.0006827362929472625	-0.001616173128879926	-1.8219535015225576e-05
2
34200
Ar	2.5950463575312554e-05	-5.521386559362837e-05	0.0032244686385238144	0.0019344426396126246	-0.00033988664920680053	-4.2246733973942315e-05
Ar	-4.718123369854014e-06	-9.260869756964624e-06	0.0027426060534341324	0.0012450070611400724	-0.001651084221682321	0.00011928210137049807
2
34400
Ar	3.781012368253754e-05	-4.534499908325105e-05	0.0032235530090241023	0.00032048389078141514	0.00225945476678006	-7.543490961966473e-05
Ar	7.99889124412381e-06	-2.210804892352449e-05	0.0027440737131273376	0.0011903290528679927	-0.0008467055174552373	0.00014608243851768106
2
34600
Ar	3.1994575120846216e-05	-1.3929150710303283e-05	0.0032233353368561054	-0.00147083710121336	0.0037812082051153864	5.083664085878946e-05
Ar	1.737439961520116e-05	-2.4493444418594208e-05	0.0027445998638472753	0.0005918546563335081	0.0003766111160760163	-5.1581879155904285e-05
2
34800
Ar	1.05974014921246e-05	2.4485266198480742e-05	0.0032244728256445427	-0.0026165492328747	0.003591643238968554	0.00014169677893638858
Ar	1.8910573197623474e-05	-1.526705003322776e-05	0.002743886897845727	-0.0002846664070632783	0.0014172691727404284	-8.707542700393101e-05
2
35000
Ar	-1.6550991656043677e-05	5.211892985981503e-05	0.003225479332622065	-0.0025817109337413265	0.0016860045531801027	2.6679432476344013e-05
Ar	1.1724033937561315e-05	1.8347506680730667e-06	0.0027430274686234602	-0.0010963051652363057	0.0018832109620233776	-6.574242206916038e-05
2
35200
Ar	-3.6426611983796694e-05	5.5250995568572665e-05	0.0032248278571985435	-0.0012261690868784153	-0.0011024649401451816	-0.0001623165909526742
Ar	-1.4035552530615155e-06	1.8984223602175973e-05	0.0027427271432267472	-0.0014222885335585383	0.0013948319974883521	1.635728950717061e-05
2
35400
Ar	-3.918888674413088e-05	3.1812865111507164e-05	0.0032227599800361034	0.0007111941234642198	-0.0034089500421476395	-0.0001748060646469489
Ar	-1.4481350031253462e-05	2.7489560134223984e-05	0.0027428342684878886	-0.0010576923521109758	0.0002301586661014775	-1.3209316652333605e-05
2
35600
Ar	-2.3154445048334735e-05	-7.385227326545027e-06	0.0032219457547298515	0.002370626538840412	-0.00411941233478898	3.7731352948414895e-05
Ar	-2.074023094352457e-05	2.3167326635365104e-05	0.0027425949037402503	-0.00011890606389048336	-0.001080997605563075	-3.622341049336475e-05
2
35800
Ar	4.719642586940691e-06	-4.427570251048123e-05	0.00322304929183009	0.0029616062049883096	-0.0029334278589257692	0.00015038059963910669
Ar	-1.69735680807039e-05	7.726780534357049e-06	0.0027421570094554024	0.0008605931295319896	-0.001891013691823925	-2.715260581031102e-05
2
36000
Ar	3.10963847608335e-05	-6.099469494367095e-05	0.0032242022606082917	0.002098622888913705	-0.0002714192533038596	6.610116317664582e-05
Ar	-4.649197268655699e-06	-1.1890760877241929e-05	0.002742205191223897	0.001504319684796164	-0.0018772131420699638	7.611112300063423e-05
2
36200
Ar	4.314888529031503e-05	-4.883670723325005e-05	0.0032244419092351787	0.0002117793931390632	0.002600524067919801	-1.2541406531437248e-05
Ar	1.0422502205860146e-05	-2.661463052165917e-05	0.0027435124031000924	0.0013717090020030234	-0.000913443836660927	0.0001619667097190491
2
36400
Ar	3.453064526518642e-05	-1.2927145710249839e-05	0.0032244296509614193	-0.0018627901584114368	0.004290400944017882	3.238332292115657e-05
Ar	2.0608947912719346e-05	-2.8840619855677598e-05	0.002744873232007054	0.0005872062079921841	0.0005006759745502185	8.801427548655275e-05
2
36600
Ar	8.789072987249521e-06	3.0186264752165976e-05	0.00322482948921854	-0.003096810204875121	0.003975868056468746	4.4377716772162096e-05
Ar	2.149372884552558e-05	-1.727015905964005e-05	0.0027448761192724355	-0.0004221245952977074	0.001738104180765381	-5.897103641889975e-05
2
36800
Ar	-2.2390160040860258e-05	6.0040025463970716e-05	0.0032249921798795703	-0.0028669938338083986	0.0017513200601418759	-2.066767597884405e-05
Ar	1.243442909088441e-05	3.1355550179962245e-06	0.002744110210046947	-0.0013207365595259454	0.0021613986594165185	-7.534703147501043e-05
2
37000
Ar	-4.380673261588745e-05	6.207606749627255e-05	0.0032242765353117063	-0.0012317951252324565	-0.0013755074915691202	-8.528564791710184e-05
Ar	-2.8685980869632395e-06	2.2512888699899065e-05	0.0027438559637657754	-0.001608119814673421	0.0015463755418621268	-2.2847971189748695e-05
2
37200
Ar	-4.489986715352857e-05	3.425906137818961e-05	0.0032235490465766055	0.0010531491501869048	-0.00396422454504712	-4.0668607045378914e-05
Ar	-1.7206855855483114e-05	3.141121099278221e-05	0.0027436908057043097	-0.001145840378575048	0.0001410455748926854	-1.8566627756947158e-05
2
37400
Ar	-2.419479875728458e-05	-1.112714494464982e-05	0.0032235431622647257	0.0029219513323988137	-0.004745671861441432	2.9369847186305496e-05
Ar	-2.3872216330290864e-05	2.508486067181351e-05	0.0027436209676884337	-0.00010777524786128685	-0.0013324628821500695	-3.0676405612462646e-05
2
37600
Ar	8.908408740044517e-06	-5.279571255531719e-05	0.0032241515567613087	0.003427111222510464	-0.003204718366551407	5.0387888710886793e-05
Ar	-1.921555492839353e-05	6.995372003106604e-06	0.0027434163801959835	0.0010038107333414884	-0.002146652109229322	3.7713664240047124e-05
2
37800
Ar	3.8642690960544484e-05	-7.017316046466858e-05	0.003224026929903586	0.0022929970685780215	-8.353552758721832e-05	-6.426198111883993e-05
Ar	-5.266145382828328e-06	-1.4911772648207957e-05	0.002744285863482688	0.0016742009869910918	-0.00203720334943125	0.00010161568250750142
2
38000
Ar	5.09491292021482e-05	-5.408573184665112e-05	0.003223381079081438	6.065834023921598e-05	0.003164310414635013	-3.005446500841132e-05
Ar	1.143042662103621e-05	-3.0363981826761647e-05	0.0027452453804540583	0.0015377359117522216	-0.0009230936159652182	7.979239205691058e-05
2
38200
Ar	3.932040307519364e-05	-1.1821121723186092e-05	0.0032236819754768607	-0.0022944507868575127	0.00495513709000673	0.00010113325400031905
Ar	2.3037664435900664e-05	-3.210013689803828e-05	0.0027454155221787215	0.000688129340843384	0.0006102320578801551	-7.791499691529713e-05
2
38400
Ar	8.660963738938895e-06	3.706004816855127e-05	0.0032249047366268305	-0.003604730604236963	0.004404798181150972	9.367712751107821e-05
Ar	2.3975610574076098e-05	-1.872500507604375e-05	0.0027440247910179207	-0.0005333748372436266	0.0019686654624500137	-0.00017170903348833556
2
38600
Ar	-2.6823695689639096e-05	6.924075918937473e-05	0.003224945160623621	-0.00317663774310612	0.0017366628313267645	-9.650224050275692e-05
Ar	1.2974123565511716e-05	4.205590849318221e-06	0.0027427990830289953	-0.0015513671490870698	0.0024237009153312223	-4.8636736363939686e-05
2
38800
Ar	-4.99503195437775e-05	6.887189561069517e-05	0.0032230870075637044	-0.001260490576243223	-0.0018315113715011416	-0.00022455935907860145
Ar	-4.458748324159482e-06	2.601022846891705e-05	0.002743318299898742	-0.0017998843066172443	0.0017425890639841029	0.00011802733062227646
2
39000
Ar	-4.974421211243956e-05	3.536718668459175e-05	0.003221519194657771	0.0013086970193208645	-0.004599076513805352	-4.2777316084306746e-05
Ar	-2.0293774822691745e-05	3.595202895984746e-05	0.0027445120719304765	-0.0012531712140515423	0.00018128513015060042	9.164779465188368e-05
2
39200
Ar	-2.541645450712392e-05	-1.5968952479639743e-05	0.0032226017834112285	0.003358988340921877	-0.0052821177710159544	0.00024104531623244453
Ar	-2.7513722091382855e-05	2.9313531726786173e-05	0.0027448495854750505	-0.00010958638332617544	-0.001475344689019526	-1.2226862174660028e-05
2
39400
Ar	1.2274792935747634e-05	-6.164648382789347e-05	0.003225082731646468	0.0038550020344908717	-0.003473008201290052	0.00019640393961094466
Ar	-2.196794994703179e-05	8.386660461782188e-06	0.002744393956962293	0.0011774883656422547	-0.0025463848583573054	-3.0746332515680355e-05
2
39600
Ar	4.5327462165442515e-05	-7.915904315639844e-05	0.0032257093785670035	0.002477513938564499	0.00012386402356434845	-8.361207112013535e-05
Ar	-5.418579894940465e-06	-1.7511204515984808e-05	0.0027445598287750158	0.0019867509017428534	-0.0024055699513004314	7.194246305291845e-05
2
39800
Ar	5.749467675775243e-05	-5.905814430959643e-05	0.003224220535025611	-0.00013870590955799628	0.0037548251913852495	-0.000166312817290575
Ar	1.454243674781427e-05	-3.5900221994205535e-05	0.0027452594354553184	0.0018312848282835289	-0.001093445345387529	2.6788451241601056e-05
2
40000
Ar	4.242297879307038e-05	-1.0100615135349428e-05	0.0032231830009654067	-0.0027563938209764693	0.005649289557999294	-2.194168834377985e-05
Ar	2.7939410884589327e-05	-3.755678770138037e-05	0.0027445726174756685	0.000769986998774976	0.0007735753780858366	-0.00014557962934774962
2
40200
Ar	6.498509921402204e-06	4.5238910444350556e-05	0.0032232617249505252	-0.004153393341552104	0.00495438210553773	2.0529538933661898e-05
Ar	2.8585699569350716e-05	-2.1634757829704453e-05	0.0027426930900939905	-0.0006432901175887352	0.002309746515264628	-0.0001795130479314127
2
40400
Ar	-3.384063801436755e-05	8.071826094396985e-05	0.0032230101517446786	-0.003577225766499164	0.001834879035023122	-5.642418819526819e-05
Ar	1.575411179678054e-05	5.325926015530503e-06	0.002741853854835442	-0.0018193055467468644	0.002849926253959701	6.631932965757809e-05
2
40600
Ar	-5.9425920171256826e-05	7.837298773101169e-05	0.003222068699493724	-0.0013134630020043394	-0.0022933225531218105	-9.010113280536078e-05
Ar	-5.051310536710638e-06	3.083847379362078e-05	0.002743676702225518	-0.0021647492799926715	0.0020281177128790807	0.00025018924170738355
2
40800
Ar	-5.746078519830487e-05	3.826780186463712e-05	0.003221761136072534	0.0017233039030054376	-0.005384009414099734	8.281665760347417e-05
Ar	-2.4129627419258094e-05	4.2551987599449445e-05	0.0027456622782666127	-0.0014866876731495044	0.00019175070037875166	0.00010874786552340056
2
41000
Ar	-2.761855387620796e-05	-2.1192995202639404e-05	0.003223775109310481	0.003984961532288435	-0.006011889613169455	0.0002730875329864581
Ar	-3.204563859039225e-05	3.426355798514788e-05	0.002745461582736607	-2.5893309703662222e-05	-0.0017813788463965096	-0.00010772009079734872
2
41200
Ar	1.6410243547855606e-05	-7.255269634902223e-05	0.003225966947594812	0.0044515458278573455	-0.003810051315868558	0.00011216864990168836
Ar	-2.4634093497631256e-05	9.655722001227073e-06	0.0027442876840296756	0.0014326646980171711	-0.0029833787833563738	-8.158910500058653e-05
2
41400
Ar	5.402268284474229e-05	-9.081833508683909e-05	0.003225342418562283	0.002744012872971018	0.00032982753838769796	-0.0002319525719302352
Ar	-5.531390935845829e-06	-2.076277899903144e-05	0.002744529100644458	0.0022694046025869092	-0.0028170216789062366	0.00012230133359961753
2
41600
Ar	6.659217415112359e-05	-6.599034976503162e-05	0.0032224378202018243	-0.00034171768209739247	0.00445143051503113	-0.00027751850185627104
Ar	1.6909147110015677e-05	-4.194476317274796e-05	0.00274615283096001	0.002031232239669852	-0.0012270760726027586	0.00014642664418775315
2
41800
Ar	4.7640607091037385e-05	-8.650493186619231e-06	0.003221201356408948	-0.003312283180839616	0.006542920479999725	2.3364863782907426e-05
Ar	3.1893725192239946e-05	-4.357785854232397e-05	0.002746238689842656	0.000852162755614695	0.0009097284128835276	-0.0001300694976727413
2
42000
Ar	5.240738432777628e-06	5.467673216413774e-05	0.003222841398572528	-0.0048397249248381844	0.005585979735896166	0.00022803456159959404
Ar	3.212088724609972e-05	-2.493335571690936e-05	0.0027442901531344317	-0.0008070846267535333	0.0026741416012232965	-0.00020039240790463376
2
42200
Ar	-4.110030956513897e-05	9.36781727900945e-05	0.0032242639587972068	-0.004062864553814141	0.0018648814171537788	-1.7064368159137522e-06
Ar	1.7134880915604973e-05	6.084463706441901e-06	0.002743389671011252	-0.002104718946322983	0.0032847144049225306	3.278485336152287e-05
2
42400
Ar	-6.889608224746043e-05	8.850865671823387e-05	0.0032229551878965655	-0.001248203291199203	-0.002859542931827347	-0.0001930767569251677
Ar	-6.715817004466031e-06	3.5355064150789975e-05	0.002744793505541965	-0.00247338570749428	0.0023394442620649396	0.00021226508108770548
2
42600
Ar	-6.396114379286837e-05	4.0881091864986535e-05	0.0032215726543622886	0.0021937210562750684	-0.006315164611008658	-7.174620951874578e-06
Ar	-2.8257303270804164e-05	4.854028835302563e-05	0.00274665361312792	-0.0016387965903260162	0.00018319772499847097	8.747179482899328e-05
2
42800
Ar	-2.8122177717839705e-05	-2.7808097388375148e-05	0.0032229370649734727	0.0046857919984627456	-0.006853272532559464	0.00025573282579573577
Ar	-3.6937604788686236e-05	3.876200285296991e-05	0.0027461695103540617	-1.0374463774716428e-06	-0.0021006855614932782	-0.0001773448111208445
2
43000
Ar	2.2112672989128947e-05	-8.511431556863937e-05	0.0032250150708900333	0.004947742062944428	-0.004099684881431903	0.00011985547492862454
Ar	-2.816050579743094e-05	9.737642033248127e-06	0.0027444776869240393	0.00172400007475111	-0.00348916913487826	-7.7604141486244e-05
2
43200
Ar	6.301290503059784e-05	-0.00010282044211501976	0.003224113062858315	0.002882012555577712	0.00071385058501189	-0.00026526769753409875
Ar	-5.279459881891781e-06	-2.5620583750718332e-05	0.0027454670836755376	0.0026671801151350203	-0.003254478716881386	0.00023340768963265725
2
43400
Ar	7.475797168523873e-05	-7.176163952284722e-05	0.0032212668247672536	-0.0006260754356763545	0.005260769354921084	-0.00023326454288565647
Ar	2.0877940945723827e-05	-4.9852923343079455e-05	0.002747581503147198	0.002356995874362396	-0.001371830619691356	0.00012232118054576716
2
43600
Ar	5.0981100978404083e-05	-5.508130222598916e-06	0.0032210621034783676	-0.003963715379859008	0.007446532665809815	0.00019326710762798577
Ar	3.7788452842318295e-05	-5.0746409710033354e-05	0.002746979656553758	0.0009028464072683969	0.001208282972205548	-0.00022623524543272764
2
43800
Ar	1.5024876602025215e-06	6.578742211691942e-05	0.00322379370551089	-0.005491210600269547	0.0062005158374439494	0.00025729703354920505
Ar	3.729479841364836e-05	-2.7439554552933294e-05	0.002744075257275819	-0.0010055878840007128	0.0032990080855956434	-0.000280425816309943
2
44000
Ar	-5.006711422707355e-05	0.000108103001164537	0.0032245043822000017	-0.004387788778529922	0.0018680335873913901	-0.00015357118244242973
Ar	1.8999748391244263e-05	1.0215414133751448e-05	0.002743164037869827	-0.0025311323639141204	0.003920889294381923	0.0001494199665607129
2
44200
Ar	-7.911498833127293e-05	9.94439410133095e-05	0.0032213434005654755	-0.0011737486272109718	-0.0035259078744704006	-0.000368693491631075
Ar	-9.180403075039861e-06	4.4313384381262524e-05	0.002745935598064364	-0.0028799579286484813	0.002612950748089227	0.0003284563601562212
2
44400
Ar	-7.120718832730325e-05	4.297796918799912e-05	0.003219393031644728	0.0027134047188589715	-0.007340135738295621	5.842574640942348e-05
Ar	-3.344639946985616e-05	5.8089588626838256e-05	0.002748073476828588	-0.0017836707553882327	-7.4348392244873145e-06	3.978749508769985e-05
2
44600
Ar	-2.8844319585506486e-05	-3.5873854666085415e-05	0.003222249446202743	0.005415403056442031	-0.007799979307014912	0.000438401239338854
Ar	-4.180640661484795e-05	4.431088799683283e-05	0.0027464896914637838	0.00017526443184564237	-0.0026305076932604775	-0.0002774898176280473
2
44800
Ar	2.8878855720759494e-05	-0.00010029096104058104	0.0032257742160897683	0.0056444168349349825	-0.004486217654192562	0.00013927386519409427
Ar	-3.0224633131212667e-05	9.181461094283873e-06	0.002744210754749688	0.002071087719853542	-0.004135793936053122	-0.00010579264059171
2
45000
Ar	7.471066271884734e-05	-0.00011790670627646217	0.0032243662166385654	0.0031069016173560565	0.0011491214197092187	-0.00038224933991583054
Ar	-3.5388996613190613e-06	-3.1918943252174524e-05	0.0027451158862260754	0.003064662661707566	-0.003752750219693113	0.0002634807033064104
2
45200
Ar	8.556746667793306e-05	-7.891843879078361e-05	0.0032197395252667625	-0.001006144112467797	0.006342135874461732	-0.00037812675668206987
Ar	2.604270345061923e-05	-5.9188612677300586e-05	0.002747900852823309	0.002593031486180656	-0.0014650420759306072	0.00019732220277308786
2
45400
Ar	5.580048674610772e-05	-6.493927548901226e-07	0.003218813100805627	-0.004742227917081408	0.008709926402334358	0.0002219523024199515
Ar	4.387433466124336e-05	-5.8710949117883786e-05	0.0027478923299291158	0.0008262903022824676	0.001539770616787049	-0.00020945036778878456
2
45600
Ar	-1.8464024565228131e-06	8.097386718781565e-05	0.0032220760459750596	-0.00632064985400859	0.006927227494666549	0.00030268508753575064
Ar	4.123754547071069e-05	-3.031952825326473e-05	0.00274500732843815	-0.0013612605768473054	0.003936363187805954	-0.00027404026711854134
2
45800
Ar	-6.01543123377949e-05	0.00012603732875750783	0.0032233399480962846	-0.004875014012776733	0.0016730169935024438	-9.936207234525272e-05
Ar	1.8609050072320362e-05	1.3733297052352653e-05	0.002744231965576556	-0.0029841821660833	0.004543732752811313	0.00014650096000544527
2
46000
Ar	-9.109463814977276e-05	0.00011123813246081466	0.0032208681314486298	-0.0010622438563189151	-0.004524062447733707	-0.00030452466380324824
Ar	-1.3756806224095983e-05	5.2848188413459056e-05	0.0027472877123647906	-0.0032263718662952417	0.002935841516731903	0.00038467039587189065
2
46200
Ar	-7.951999445846142e-05	4.230859271465113e-05	0.0032194335850622576	0.00330650848649538	-0.008733177618293427	9.014175112870842e-05
Ar	-4.011390375428958e-05	6.745184902807166e-05	0.0027499730808304155	-0.0018423205940605448	-0.0001316197838846684	6.558516288475354e-05
2
46400
Ar	-2.961198368501004e-05	-4.95201410320608e-05	0.0032223294669394696	0.006298663687777161	-0.008885566301495706	0.00037712944334780473
Ar	-4.795458505366426e-05	5.0282638911406485e-05	0.002748491793052035	0.00033582723737424544	-0.0031760928558988177	-0.0002854742289031198
2
46600
Ar	3.619120979110502e-05	-0.00012074347907155058	0.003224807369332641	0.006317504603295781	-0.004722219850507065	-7.503360158819406e-06
Ar	-3.338820081650661e-05	8.352690603556642e-06	0.0027463371814750075	0.0024743890686911617	-0.004869100360787479	-5.440999009066173e-05
2
46800
Ar	8.600983219505059e-05	-0.00013562400402712416	0.0032219930581285305	0.0032245183573014063	0.001887734752211821	-0.0005048560115345202
Ar	-2.2005932260224404e-06	-3.9274074390618317e-05	0.0027475750192930593	0.003523680881330273	-0.0042442879828339004	0.00025774259108227713
2
47000
Ar	9.542940768941772e-05	-8.568156392023083e-05	0.0032173523175240866	-0.0014178409064919805	0.007714980277571112	-0.00026779438666809063
Ar	3.099555979903491e-05	-6.924839280716836e-05	0.0027497335949359884	0.002847263562047362	-0.0014812829026855537	5.891455619620176e-05
2
47200
Ar	5.9615189359454045e-05	6.985516440917616e-06	0.003218421403014816	-0.005514027483169403	0.010070386456727653	0.0004459006414185579
Ar	4.986976127821387e-05	-6.641142128714059e-05	0.0027475195678080184	0.0007564136931537369	0.002021624000258959	-0.00046037276759407453
2
47400
Ar	-6.3268205445435395e-06	9.978282160161048e-05	0.0032233435542858295	-0.007113710809882107	0.0076826157853385315	0.00035253790415437793
Ar	4.5116517434949135e-05	-3.192856242903247e-05	0.002742797635779884	-0.0016677001330372878	0.00464706101227342	-0.00032288897528949415
2
47600
Ar	-7.070404634469077e-05	0.0001472285313154702	0.0032233549232644422	-0.00521271639986546	0.0013625565688678558	-0.00035550267315871795
Ar	1.8369761659665412e-05	1.9477178259243968e-05	0.002743330219969079	-0.0034522165103414203	0.005212128428882804	0.00043102239555826673
2
47800
Ar	-0.00010195168400577556	0.00012441249067944528	0.003218236415800783	-0.0008038570976468732	-0.005720222985313546	-0.0004889145361247076
Ar	-1.856538899850594e-05	6.359718071089706e-05	0.002749698383057073	-0.003586125542770544	0.0031898552981635742	0.0006763621470358437
2
48000
Ar	-8.537875416816495e-05	4.125607852575309e-05	0.0032165864216525553	0.003992350526860485	-0.010277244440630502	0.0002399340154544107
Ar	-4.712898558647546e-05	7.798270833759801e-05	0.0027534142492028103	-0.0019066367593632495	-0.0004383435125615296	-9.814541042072829e-06
2
48200
Ar	-2.759590000982406e-05	-6.506482800737263e-05	0.0032219151397236464	0.00711270126756299	-0.010108998908610771	0.000637977487231252
Ar	-5.377884700903474e-05	5.543736121601473e-05	0.002750121431330964	0.0006484417431338562	-0.0038929360400918687	-0.0005088599074532056
2
48400
Ar	4.5522958430443404e-05	-0.00014369303720430625	0.003225627587144723	0.00686464966138036	-0.004896248379726397	-8.741624554321863e-06
Ar	-3.488194662821748e-05	5.7949402548691285e-06	0.0027461972359558223	0.0029942328779171148	-0.005692602532928763	-0.00016853372230618628
2
48600
Ar	9.798557930986765e-05	-0.00015425300968161518	0.003221603970282122	0.0031882259181187033	0.002855745649935572	-0.0007083013772701526
Ar	1.7437842253959936e-06	-4.908750202742897e-05	0.0027475081715758673	0.004029820996275979	-0.004803778266690471	0.0003549155435465487
2
48800
Ar	0.00010429691795204496	-9.085484256370482e-05	0.0032154342411072974	-0.001992335668575322	0.00934891581687501	-0.00033418597890501214
Ar	3.87431217839005e-05	-8.213030327364384e-05	0.0027507209073072713	0.0030443329892299487	-0.001511052541530467	0.00014879078039033353
2
49000
Ar	6.0860623868593853e-05	1.8760784010352465e-05	0.0032164138030589414	-0.006337211434286457	0.011690582557408196	0.0005012953634755829
Ar	5.74076609522889e-05	-7.670723187388943e-05	0.0027490521454302088	0.0005661337458926412	0.0025581979337876873	-0.00041537808876815016
2
49200
Ar	-1.3177896367899176e-05	0.00012369262908526232	0.0032218542178077065	-0.007846678187314838	0.008372467034613886	0.0003768245201715851
Ar	4.9061471246017005e-05	-3.4389503017412146e-05	0.0027452595618142526	-0.0021738892820241753	0.0055821258330906506	-0.00019502662702634865
2
49400
Ar	-8.290479182903405e-05	0.00017135508532248819	0.0032217138579146427	-0.00547707324380909	0.0007357643635256799	-0.00040958797518939836
Ar	1.6981126739631833e-05	2.635022848572843e-05	0.002747174325436701	-0.003974728942422352	0.006047610366879727	0.0005466585343931932
2
49600
Ar	-0.00011404102357227693	0.00013694206343633507	0.0032161801495327077	-0.000503156232718479	-0.007347660946024926	-0.00049208344444315
Ar	-2.4079450494257503e-05	7.61692449905667e-05	0.0027538145353327437	-0.003864070611180368	0.003492797667228636	0.0005783452002465888
2
49800
Ar	-9.15623188173227e-05	3.5649725763277056e-05	0.0032154389968758264	0.004826866279240772	-0.012140105854143601	0.0004283106398991162
Ar	-5.381150792639406e-05	9.018617662488457e-05	0.002755476756129175	-0.0018275990268066798	-0.0007965191077232566	-0.0003409700745876572
2
50000
Ar	-2.4435059226974215e-05	-8.715897224381216e-05	0.0032224801243112026	0.008043977043219736	-0.01136481844389844	0.0007337307662426288
Ar	-5.8014712392989614e-05	6.149142823442352e-05	0.0027491201216169182	0.0010371719218043936	-0.004759092722142006	-0.0007301287449804965
2
50200
Ar	5.6236665693909666e-05	-0.00017160179083728722	0.003225605668169516	0.0073804047075979986	-0.004771181291920018	-0.00023033808656502331
Ar	-3.461632602952797e-05	1.9854173853160936e-06	0.0027449375626724198	0.003480283523617715	-0.0066759862964008675	7.0410125324641945e-06
2
50400
Ar	0.00011067738991495962	-0.00017409485973935123	0.003218712803425898	0.003048295568975127	0.004312748979008777	-0.0009658280987904662
Ar	6.105669150661006e-06	-6.14080737483689e-05	0.0027490155675878513	0.004334946818327907	-0.005424204762623778	0.0006692691056078735
2
50600
Ar	0.00011306543041670272	-9.221748560734557e-05	0.00321097863059236	-0.002586617893171507	0.011446280979896173	-0.0003018440412355104
Ar	4.460459391542651e-05	-9.69633655275549e-05	0.002754452852287976	0.00302878585703005	-0.001378326434437845	0.00021320822159246
2
50800
Ar	6.195625566287172e-05	3.739217003146111e-05	0.00321418555979138	-0.007252372778089803	0.01342625592292597	0.0008265068698443472
Ar	6.185004112402014e-05	-8.672495693430684e-05	0.002752029876837766	0.0003032003366089245	0.0033284498299286174	-0.0005678491083403025
2
51000
Ar	-2.0594650540104234e-05	0.00015413800764290124	0.003222208217624462	-0.008535615385211033	0.008868969172124277	0.0005561619272849418
Ar	5.017361357138913e-05	-3.5057596377984384e-05	0.0027473410699187495	-0.0025785761898212615	0.006644035303406678	-0.00016864231113592206
2
51200
Ar	-9.445533842363729e-05	0.00019903623361435156	0.0032225419696102543	-0.0056074942273562686	-0.00028141683057046455	-0.0004929177780536794
Ar	1.3797351896903166e-05	3.598524659853747e-05	0.0027498638649777326	-0.0043838504151099906	0.006977913747772797	0.0006212701560929633
2
51400
Ar	-0.000123788143571549	0.0001486542982676694	0.003215686003461651	-1.663558451564001e-05	-0.009412979241340134	-0.0006300765263267675
Ar	-3.0416373116737625e-05	9.228631139362871e-05	0.0027568908383009114	-0.004058430858105373	0.0037741497430036916	0.0005496851416888835
2
51600
Ar	-9.49302898556858e-05	2.504224968039768e-05	0.0032145446192234006	0.005601110858682146	-0.014365316379993054	0.0004478262210213798
Ar	-6.0306566977722714e-05	0.0001053749740020778	0.002757215438447751	-0.0016485087319365928	-0.0012854947368860924	-0.0005040210954141315
2
51800
Ar	-1.999745535689549e-05	-0.00011571636141062446	0.0032209988264257773	0.008776611650389355	-0.012534508236510837	0.0005634116205985373
Ar	-6.13889487316534e-05	6.829423887316702e-05	0.0027497537395017153	0.0014483822428821207	-0.005842906647810058	-0.0007415625215808622
2
52000
Ar	6.60866686315604e-05	-0.00020397032608228974	0.0032216539545850856	0.00769775627521189	-0.004327804800032422	-0.0005055584755349615
Ar	-3.317711780019486e-05	-3.2241397823592295e-06	0.0027465177089376204	0.0040023210518952005	-0.007881694487553671	0.00018427691013045856
2
52200
Ar	0.0001209262458112182	-0.00019417402567138846	0.003212840053207128	0.0028244044188846904	0.006155009309045394	-0.0009768299104787172
Ar	1.2361991639353967e-05	-7.640497370368842e-05	0.002752292920082832	0.004699484355158798	-0.006091748322431391	0.0007968965352333577
2
52400
Ar	0.00011851166020060198	-9.046311317116248e-05	0.0032081855920136513	-0.003293479884755205	0.013789112486613929	0.00027237544644797336
Ar	5.2568999400648585e-05	-0.00011415847027482107	0.0027574643627858598	0.0029910049901369	-0.001117740184721009	2.0886041838160143e-05
2
52600
Ar	5.930441415888626e-05	6.0924849447076055e-05	0.003217308547073785	-0.008113969120143108	0.01523805444011532	0.0012334889640288076
Ar	6.751795533908324e-05	-9.793871869910183e-05	0.0027527402680518525	-9.496000054122893e-05	0.004257292950976146	-0.0007339648466401958
2
52800
Ar	-3.06289004120802e-05	0.0001881442339081047	0.0032259644209335064	-0.009078234748019585	0.009037602363999926	0.0002359843964273908
Ar	5.038673285649329e-05	-3.4300535459375394e-05	0.0027481484244316064	-0.003200776111599911	0.007990731104899966	-3.889936756363669e-06
2
53000
Ar	-0.00010671689824095025	0.00022559224584608952	0.003220686092682751	-0.0054742491536190685	-0.0018597857175256774	-0.0011700937148061094
Ar	8.530401310927487e-06	4.938027872378024e-05	0.002753472555244086	-0.00485162206980326	0.007990664660903427	0.0009475050468203026
2
53200
Ar	-0.00013192798850974685	0.0001544048347683451	0.003208815975067963	0.0005759129358067093	-0.011791486427342276	-0.000804305656320846
Ar	-3.830083000176412e-05	0.00011161072893281364	0.002762149067688903	-0.00405680170137457	0.0038865717501043212	0.00047509658019202105
2
53400
Ar	-9.572482018301423e-05	6.8171830930166655e-06	0.00320947941970236	0.006426180267259292	-0.016602184875713192	0.0008733784014956136
Ar	-6.611707221017042e-05	0.0001208823283738159	0.00275951603522136	-0.001272700750329597	-0.0020654070446587476	-0.000921737869490127
2
53600
Ar	-1.2701046671669378e-05	-0.00015066418269897477	0.003220152269809348	0.009478062175402625	-0.01345141121182002	0.0008639946966251516
Ar	-6.251525746079398e-05	7.318373995834462e-05	0.0027489784352899872	0.0019714558375702163	-0.00716875289790079	-0.0008347968301084605
2
53800
Ar	7.771265734351528e-05	-0.00023791453843109302	0.0032217421689829354	0.007808130668886296	-0.0032179083868290504	-0.000590364378138697
Ar	-2.9178907887335722e-05	-1.2444660779326573e-05	0.0027469503778117495	0.004414194882228166	-0.009237115374507297	0.00048755449149259295
2
54000
Ar	0.00013070306769249148	-0.00020996367609219557	0.0032114677025839268	0.002385609300812377	0.008568688714667871	-0.0011401423903717
Ar	1.9031074974425063e-05	-9.539964058854937e-05	0.0027560030108941653	0.004782341553391511	-0.006608079840626816	0.0010486511356257006
2
54200
Ar	0.00012210350311432853	-7.999238806741295e-05	0.0032063363765871744	-0.004033723587998917	0.016465504020399178	0.00033948138152899214
Ar	5.816544583953848e-05	-0.00013337468355143278	0.0027617985444027353	0.0027161567449918507	-0.0006910719060412088	-9.094572801708418e-05
2
54400
Ar	5.538924957286174e-05	9.43529593517037e-05	0.003216000701965521	-0.00881519007015826	0.016902123733404835	0.0011995554785264272
Ar	6.947220249966049e-05	-0.0001083129665835685	0.002755651038617348	-0.0005443169991221128	0.005515460834798055	-0.0008386077055438062
2
54600
Ar	-3.9999714812087086e-05	0.00022842063661619375	0.0032228486364583976	-0.009384497832889385	0.008640117009163763	-3.852074900970412e-05
Ar	4.807871571813273e-05	-3.0520086063675764e-05	0.0027511850261620822	-0.0035862118100394515	0.009443897917467374	8.925628380413206e-05
2
54800
Ar	-0.00011651869568461496	0.00025219988392736765	0.003214931694918182	-0.00526955221388684	-0.0040561091611525405	-0.0013408938171332403
Ar	3.0909169661646965e-06	6.536459108038077e-05	0.002757454186504573	-0.0050623955652684405	0.008906700599143174	0.0010066951765453599
2
55000
Ar	-0.0001374082402294822	0.00015455781471558692	0.0032039010356868392	0.0012259395709588396	-0.014705352361621358	-0.0004136651996878357
Ar	-4.4362827457290613e-05	0.00013162109427653724	0.002765304591258431	-0.003983988891884373	0.0037649245112376783	0.00021098261982936128
2
55200
Ar	-9.412326432391157e-05	-2.070679010320541e-05	0.0032097533228785725	0.007174261927215011	-0.01899170176645202	0.0013412218259560493
Ar	-6.986449581037088e-05	0.0001354344991794673	0.0027588457555172067	-0.0009530533452769345	-0.0030233750844502914	-0.0012847966399219149
2
55400
Ar	-4.624325098308244e-06	-0.0001932463848141645	0.003222068231717882	0.009951326900967911	-0.013883464153000432	0.0007271973368000215
Ar	-6.248963379996552e-05	7.474929547527883e-05	0.002747672358915481	0.002377499263845354	-0.008721684955799416	-0.0006189374659025254
2
55600
Ar	8.784377033615433e-05	-0.0002733529907911991	0.003220142130649056	0.007732869506571794	-0.0014414609555767717	-0.0010847295870116908
Ar	-2.5370265509124634e-05	-2.589567030081849e-05	0.002749751373002145	0.004773070280109605	-0.01056651828636443	0.0009976405256227078
2
55800
Ar	0.00013770662353507316	-0.00022018104028321	0.0032058030523468496	0.0019177149688305766	0.011571526114963586	-0.0013026749756263089
Ar	2.524474783199341e-05	-0.0001180237309831268	0.002762880627899377	0.004870605390814786	-0.007010376156055919	0.0012477173038923327
2
56000
Ar	0.00012345733939013144	-5.937392489472914e-05	0.003202769872480925	-0.00466696646500972	0.01938541765677051	0.0008425621077093557
Ar	6.315604886741789e-05	-0.00015389496477428882	0.0027673673458739395	0.0024083153713837764	4.0446025922237066e-05	-0.00048498070245779515
2
56200
Ar	5.048258391731308e-05	0.0001376441642653339	0.0032164836824815717	-0.009372074132405993	0.01824835986208098	0.0013622115058752877
Ar	7.030722212706837e-05	-0.00011756480269468126	0.002757566907277318	-0.0010107634470824152	0.007035934292929399	-0.0010268748761287534
2
56400
Ar	-4.8122715606714176e-05	0.00027233827206888387	0.003222159185511799	-0.009479844675350268	0.0074482533116460295	-0.0004075717920462004
Ar	4.389944251765309e-05	-2.29400594186491e-05	0.00275292127131657	-0.0040622986818582354	0.011134665598812593	0.00024225196575148816
2
56600
Ar	-0.00012299354426613415	0.00027390235286577145	0.0032101990595802157	-0.004865212523135877	-0.007086879384592282	-0.0016564174277491554
Ar	-4.134632618127212e-06	8.686516412910538e-05	0.002761105309778033	-0.005154314568023472	0.009834639345815188	0.0011242955582045089
2
56800
Ar	-0.00013885145153090994	0.00014318502869246745	0.003199403786804962	0.0017663367735285397	-0.018075735671239077	-6.098627258333105e-05
Ar	-5.0003769036958886e-05	0.00015627932455987046	0.0027678086320992524	-0.003574568150387257	0.003452863473525914	-0.000132719773524204
2
57000
Ar	-8.983321710616896e-05	-6.219872392107599e-05	0.003209204009909426	0.00774402206617983	-0.021292459616642428	0.0015680469623955398
Ar	-7.052795967404185e-05	0.0001517178741745079	0.002758517146122684	-0.0003996125477963546	-0.004374313824909729	-0.0013344571835429545
2
57200
Ar	3.617634607441549e-06	-0.00024484676099342464	0.003220292101456316	0.010140638895781727	-0.013482935960233141	0.00030780573467104294
Ar	-5.773143491334557e-05	7.376570044814364e-05	0.0027495386495647494	0.0028825730791636078	-0.010621364312609068	-0.00019196155559653364
2
57400
Ar	9.50791949635897e-05	-0.0003078679610504692	0.0032138176498165143	0.007380854397336902	0.0013884823946615102	-0.0014488461429777938
Ar	-1.6841203815992346e-05	-4.401448279633981e-05	0.002756222509211789	0.00495460481066379	-0.011914531841117574	0.001386938992321437
2
57600
Ar	0.00013977834718442389	-0.0002208017848103087	0.003199029659084923	0.0012954231968964793	0.015225941248117155	-0.0009322809786109644
Ar	3.276749004980138e-05	-0.00014343430839013733	0.00277046681833419	0.004491301744312972	-0.007018816699681371	0.0009435728683473391
2
57800
Ar	0.0001196928377509647	-2.533150997451102e-05	0.0032029037261240476	-0.00522769922445185	0.022454739061040823	0.001578223054245393
Ar	6.470477375719659e-05	-0.00017346174108592038	0.002768501304010069	0.0017157919157367535	0.0011674532796439637	-0.0012227457959925452
2
58000
Ar	4.2214450515446284e-05	0.00019133178573210583	0.0032195069660296504	-0.00962722139626558	0.01882437210019556	0.00117865129014904
Ar	6.542028457262154e-05	-0.00012135097933025611	0.0027550934910189574	-0.0015701217541311803	0.008968204818648977	-0.0010132099093370002
2
58200
Ar	-5.651452881619813e-05	0.00031644188618065174	0.00322010068014564	-0.0092079030815758	0.0050487895871796805	-0.0010913101261597405
Ar	3.510605555931965e-05	-7.139354175145926e-06	0.00275363789748235	-0.0042750036458468555	0.012922679117799471	0.0007501619147508566
2
58400
Ar	-0.00012651383827270445	0.0002853040079908697	0.0032027166705565152	-0.00425003145886918	-0.010882090205162063	-0.0018697008786872523
Ar	-1.30415356486288e-05	0.0001149584469116311	0.0027664669977252175	-0.004886532001541791	0.010372213847713894	0.0014121577980872489
2
58600
Ar	-0.0001364402398226906	0.00011653022548518129	0.003194734815047628	0.002295236160092546	-0.021673759690739116	0.00065388834142928
Ar	-5.362882962125199e-05	0.00018200070095521892	0.0027719839369305167	-0.0028482260772352283	0.0025692009379051587	-0.000589685006410379
2
58800
Ar	-8.267988912858362e-05	-0.00011641985028420663	0.0032105729688913596	0.008081168400213105	-0.02282819351927621	0.0018492324854434143
Ar	-6.699905747486406e-05	0.0001631630745048148	0.0027594313166120488	0.00024152755347621363	-0.006270548839627284	-0.0013772302760853162
2
59000
Ar	1.1834443290482374e-05	-0.00029825828417010626	0.003220549102361806	0.0099623946746097	-0.011809911238242314	-0.00011157032896549717
Ar	-4.9465615470879e-05	6.428778616989092e-05	0.0027529317146957346	0.0031414979716218954	-0.012730600446183677	0.00024405945258234137
2
59200
Ar	9.954208408651502e-05	-0.00033205396110362693	0.0032089996779757915	0.006867362383949073	0.005247808214621638	-0.0019077021779434706
Ar	-8.72080153984872e-06	-7.061901445955023e-05	0.0027637734649388953	0.004690095904636759	-0.013041572864267516	0.0016776945052991974
2
59400
Ar	0.0001390991211896899	-0.00020429557782881895	0.0031938101791666646	0.000821098732100974	0.019224853440014917	-0.00047755914307089385
Ar	3.619430126652531e-05	-0.00017306128439006278	0.0027772676063216113	0.003814400132350047	-0.006517059793284576	0.00045432378434063315
2
59600
Ar	0.00011515575356409287	2.593725386393371e-05	0.003203561094151844	-0.005548819500117895	0.025062192978734826	0.0019128106649877927
Ar	6.118250447903278e-05	-0.00019223249117885258	0.002769101771610814	0.0010790842284429515	0.0027618197849784247	-0.0016379965526123108
2
59800
Ar	3.566491869813393e-05	0.0002528204272052488	0.003219003164633986	-0.009668094989887807	0.018125985479038494	0.0006863289064972095
Ar	5.7093336177785205e-05	-0.0001200415956817752	0.002755267431871115	-0.0018654198070268862	0.011228174462861814	-0.0007272334185803306
2
60000
Ar	-6.0880769510357595e-05	0.00035504528560472234	0.00321360361980496	-0.008792122425017649	0.0014506380423941207	-0.0016558086452841017
Ar	2.650625631726671e-05	1.4564500333023244e-05	0.002757807824062399	-0.003997721119980748	0.014545208739504456	0.0011880582992155764
2
60200
Ar	-0.00012621044033318918	0.0002817892682002285	0.0031938507158095503	-0.0038367510125359924	-0.015303366195322661	-0.0016121537991079847
Ar	-1.6602660514451746e-05	0.00014567187019536482	0.002772922230583609	-0.004191723666051083	0.010437398456014903	0.0013149815182352561
2
60400
Ar	-0.0001334389629926941	7.21676771413797e-05	0.003193455733180135	0.002470246206315711	-0.02519988106514134	0.0015681298875224214
Ar	-4.951796488438393e-05	0.00020601518586394203	0.002774034237654008	-0.00211212880974842	0.0013051322688544462	-0.0011433041281746575
2
60600
Ar	-7.90475978110987e-05	-0.00018197092819017822	0.0032131667347102535	0.00803154853331944	-0.02324015212226183	0.0016503845405273527
Ar	-5.719576651526095e-05	0.00016962618027772765	0.0027599379058305096	0.0005906776766988581	-0.008452284633706316	-0.001085149000798377
2
60800
Ar	1.3959038571826573e-05	-0.00034919251669023017	0.0032179282744598412	0.00970408728468781	-0.0086379082278814	-0.0008357704514664267
Ar	-3.86104305600853e-05	4.904828027908342e-05	0.002758461187644907	0.0029864141137410957	-0.014684022546626329	0.0008400639113869611
2
61000
Ar	9.859771773585986e-05	-0.0003415681520577455	0.003200509211349922	0.00653129391130659	0.009890691150836257	-0.0021731843113000464
Ar	-1.8119675659053435e-06	-9.931638435186092e-05	0.0027736373954985586	0.004067509245271308	-0.013647907870891228	0.001804595476283054
2
61200
Ar	0.00013617308300299444	-0.00016943100437303083	0.003188890512108941	0.0008095150840398193	0.0232731502258441	0.0004962558610987485
Ar	3.484902347310145e-05	-0.00019897194485556175	0.0027826542320252244	0.0028580968779052247	-0.0055011388978389725	-0.0005285721744005482
2
61400
Ar	0.00011270243119284347	9.117553443697203e-05	0.003206435179457578	-0.005486410447224789	0.026636479131345023	0.0022195634382474075
Ar	5.161096824172043e-05	-0.00020350090064697582	0.002766562307100618	0.00048414773234180535	0.004713709186146207	-0.001992057002634946
2
61600
Ar	3.443954393496511e-05	0.00031375638200363223	0.0032196962454935827	-0.00943069984451197	0.01571305905801342	7.633985725342942e-05
Ar	4.4626651290122984e-05	-0.00010937374579235466	0.0027537664447384903	-0.0018510893136708798	0.013377643463284291	-0.0002786893469596675
2
61800
Ar	-5.9600850806565105e-05	0.00037784595385699184	0.0032074937141012092	-0.008538517638934442	-0.0033357372883652332	-0.002221652125342566
Ar	1.7401339365405635e-05	4.221531850086979e-05	0.0027617128545119494	-0.003401653569762938	0.015636872745742124	0.001684515743299824
2
62000
Ar	-0.0001234078458065015	0.00025628102044884544	0.003187064718388028	-0.003823211191861499	-0.019834002590079888	-0.0010546414869881727
Ar	-1.7795487034101184e-05	0.00017544621178097595	0.002778478688225632	-0.003243590309211605	0.009758697130006258	0.0009738278537302976
2
62200
Ar	-0.00013200695115424228	8.612102759228759e-06	0.003195187406938175	0.002275991262044013	-0.02790066755980477	0.0021905092619703423
Ar	-4.085830845098245e-05	0.00022341598451013946	0.0027735373748277326	-0.0013102129649452275	-0.0004524628628785724	-0.0015750080339205787
2
62400
Ar	-7.904862208436177e-05	-0.00025295612420094443	0.0032147364970570858	0.007870798752921168	-0.021853354489787674	0.0011358111507425578
Ar	-4.393071006747933e-05	0.00016513974170699025	0.0027599657607056834	0.0006868717083559158	-0.010832978434685687	-0.0006604135272106405
2
62600
Ar	1.23269976112873e-05	-0.0003879811704167012	0.003212253866777822	0.009551743908605971	-0.003979893766053573	-0.001569509080745409
Ar	-2.765722917468181e-05	2.3974807505169774e-05	0.0027638025649229	0.0024643329100090595	-0.016212805510556805	0.00137362563039669
2
62800
Ar	9.558580809097451e-05	-0.00032909193122696663	0.0031910033894459017	0.006502904403363622	0.015011154493468478	-0.0020066623856596437
Ar	1.5408146265974958e-06	-0.0001315191026752524	0.0027817473624112674	0.003104214741269727	-0.013411857274761737	0.0016851313194546586
2
63000
Ar	0.0001350923830785196	-0.00011280415167185838	0.003188002787995937	0.001138450871679349	0.02684754445837505	0.001666993956790225
Ar	2.7478457884683515e-05	-0.00022097997692874574	0.0027841107739087967	0.0018230949704345664	-0.003960250861742132	-0.0014514992373398348
2
63200
Ar	0.00011385962952835145	0.00016727648201196295	0.0032110955915716334	-0.005343546333297593	0.02650301851081338	0.0020662025401493238
Ar	3.761891725980606e-05	-0.00020557592327373245	0.0027639880154706697	0.00018741207424011555	0.007075503615173199	-0.001826976303245415
2
63400
Ar	3.6559606194575446e-05	0.00036733615225003653	0.0032185588349700664	-0.009389201570264906	0.011634618104957643	-0.0007178444007434606
Ar	3.162265713534115e-05	-8.875055980957565e-05	0.002756034546054148	-0.0013758195152829033	0.0153162149564033	0.00037399931476366844
2
63600
Ar	-5.719213044323707e-05	0.00038062339613233426	0.003199650163507865	-0.008547662210549492	-0.008854587873201626	-0.002609295706158688
Ar	1.1602868002448794e-05	7.528711520145227e-05	0.0027694183843481276	-0.002465653295083337	0.016037235308560584	0.0019598430814403035
2
63800
Ar	-0.0001222221978837191	0.00020904512871045423	0.0031818602442617782	-0.004150472893533704	-0.024072187090555735	-8.551559612118308e-05
Ar	-1.2931009823960176e-05	0.00020265855229014782	0.0027834348262635255	-0.0021185162518722977	0.008333270488918071	0.0001280775042075045
2
64000
Ar	-0.00013390562111214338	-6.845956606434392e-05	0.003197802871786844	0.0020940769819007897	-0.029121599461336013	0.002393415877364708
Ar	-2.747469713772388e-05	0.00023196404212433844	0.0027721076187270485	-0.0008295969252041082	-0.0027318728227808055	-0.0016724814647260861
2
64200
Ar	-8.15124964788937e-05	-0.0003195308546080394	0.0032140846653983457	0.007921476930008114	-0.018622312063168573	0.00043776208847292887
Ar	-2.972683801958629e-05	0.00014966755925088622	0.0027620627500190374	0.00041512462261414406	-0.013078540193616504	-7.114984422697754e-05
2
64400
Ar	1.0433873812645832e-05	-0.00040767448031088873	0.003204922544840361	0.00963923600521606	0.0016376881120535162	-0.002070809731767441
Ar	-1.9378973040376293e-05	-8.332383736691194e-06	0.002771453570992429	0.0015797579736941056	-0.01718033076490664	0.0017701164500303912
2
64600
Ar	9.555345497950836e-05	-0.00029420634686718394	0.0031839533611287456	0.006786911451431929	0.019817464090214905	-0.0012397024957424181
Ar	-5.47556511341631e-07	-0.00016349755468759677	0.0027890039568137116	0.001988901425117446	-0.012317145359175895	0.0010086204182345778
2
64800
Ar	0.00013887862963940352	-3.945250830526299e-05	0.0031924741880637606	0.0014649134630756167	0.029419882038872937	0.0024917238844291956
Ar	1.4863010455739778e-05	-0.00023618383003952317	0.0027809058073802674	0.0010354461425192297	-0.0018677047958681869	-0.0022502788985919063
2
65000
Ar	0.00011925331200404623	0.00024391908000033583	0.0032154285704550224	-0.005342633139989787	0.024450591160677014	0.0013902739620312754
Ar	2.1624653994303687e-05	-0.00019624468409137354	0.0027597148570457936	0.0003227586074227086	0.009650208730631696	-0.0014095906651402563
2
65200
Ar	4.082953204834077e-05	0.0004037962335961002	0.0032138750393505117	-0.009617070912015347	0.006084385709935969	-0.0016915237218936387
Ar	2.0467318082900303e-05	-5.7908959293933184e-05	0.0027577879838433113	-0.0005698488875087548	0.016825943861934606	0.0010208478551092688
2
65400
Ar	-5.600861994936201e-05	0.00035869661777168183	0.0031888397504910367	-0.008951531984732296	-0.01439862481466605	-0.0026443651298043423
Ar	1.036118553225425e-05	0.00011202985383691841	0.0027759447890572018	-0.0013739003904509467	0.015554095097019783	0.0020972775549394284
2
65600
Ar	-0.00012687729883266238	0.0001421995788143309	0.003179556220289248	-0.004839097621476248	-0.02747430762751878	0.001285647691855865
Ar	-2.976463043726781e-06	0.00022516392305583604	0.002784572695931013	-0.0010695413671889947	0.006312296571853776	-0.0008271620906226381
2
65800
Ar	-0.00014322178773941877	-0.0001509894932865121	0.0032027404973194997	0.0019226385794738645	-0.028391926413102075	0.00235819345831703
Ar	-1.1300103725957999e-05	0.00023065863269407445	0.002769698529519198	-0.0006801272960405634	-0.005427978021390265	-0.0013802974376606403
2
66000
Ar	-9.022663672977015e-05	-0.0003722154803478055	0.0032142714843682186	0.008223251413550375	-0.013714226809992739	-0.00028203043739927767
Ar	-1.6233408204903228e-05	0.0001235539635172747	0.002764884528417198	-0.00023803962858471304	-0.015102466283866555	0.0005697528245218548
2
66200
Ar	6.387566329556353e-06	-0.0004028822419351398	0.0031983173779312215	0.010227867862743975	0.007604292679334448	-0.0024718823352810767
Ar	-1.5125019621253691e-05	-4.645544948651129e-05	0.0027792993555918943	0.0004669512674901368	-0.017402606336741205	0.0020066993820195573
2
66400
Ar	9.872525022594607e-05	-0.00023839834124656992	0.0031804211126723277	0.007695852277150327	0.023833217989431447	-0.00010907339368732885
Ar	-7.769776429065402e-06	-0.00019265575941660826	0.0027931721243883703	0.0008029134255320757	-0.010489851801393942	-8.21297037310444e-05
2
66600
Ar	0.00014981942462423747	4.2920669061365544e-05	0.003198228541711545	0.0019024466018265776	0.03017923752365215	0.0026671089756849877
Ar	-1.0803742882217822e-06	-0.00024361114200834483	0.002776021322912537	0.0006778490809407439	0.0006656994990912144	-0.002486602637038798
2
66800
Ar	0.00013003044496122452	0.0003095952946373701	0.0032161208836393456	-0.005741519896627881	0.020530309800681237	0.00044969858307375253
Ar	6.912114851403651e-06	-0.00017738810058345493	0.002757742237712707	0.0008722090720608325	0.012096479091426346	-0.0007984408198523738
2
67000
Ar	4.5366178331774057e-05	0.0004164261674399243	0.0032052058698490028	-0.010393371238072305	-8.062174650539004e-06	-0.0024246902317159344
Ar	1.4373824644230895e-05	-2.1626601565482082e-05	0.002762724116203622	0.0005168268550102666	0.01772841570130147	0.0016691574126788725
2
67200
Ar	-5.988897024927128e-05	0.00031478747492162673	0.003178793250852162	-0.00986690375800482	-0.019100893517252922	-0.0019184983313759898
Ar	1.5977581190578048e-05	0.00014646129921127985	0.0027833389602580057	-0.0002144666592575752	0.014253827916018683	0.0017139912405481636
2
67400
Ar	-0.00014013741565342152	6.354741842201525e-05	0.003183028055647321	-0.005571639683351539	-0.029548909325628946	0.0024581513188590867
Ar	1.2775997994692451e-05	0.00023998448814827205	0.002783037940293096	-0.00038174378436947023	0.003982828186755721	-0.001548728480123697
2
67600
Ar	-0.00015813669105835382	-0.00022736363121901332	0.0032087473943146778	0.0022858232755463073	-0.02574250980726656	0.0018727776360155561
Ar	5.455889056776924e-06	0.00021941890029382422	0.002767755609953391	-0.001094096116586394	-0.008072515124056804	-0.0009267193657407582
2
67800
Ar	-9.769675085867686e-05	-0.000402853510620153	0.003212519705466233	0.00922295697983236	-0.007768511580264832	-0.0011475928901977322
Ar	-7.073092381741549e-06	9.094667652565557e-05	0.002769239658210439	-0.0012885024768694042	-0.016520471709085473	0.0012231914907065752
2
68000
Ar	9.233185113224548e-06	-0.00037302665695335775	0.003191063278731209	0.011222738861098855	0.013141648105285836	-0.0025041616130895674
Ar	-1.7544226374594634e-05	-8.348655438587623e-05	0.0027876584386477654	-0.0006719936474047092	-0.016782099020950167	0.001994827133581367
2
68200
Ar	0.00011134360792764114	-0.00016624397138645259	0.003181222930715247	0.008635036286017198	0.026810449177585897	0.0012426873338930015
Ar	-2.0952607802927385e-05	-0.00021364504277429934	0.0027933875135231177	-0.00014834466389626632	-0.008298902928375507	-0.001415240264248631
2
68400
Ar	0.00016746673975799288	0.0001259197873987581	0.0032042989445972662	0.00183632866086019	0.028939869952318283	0.0022794406348203827
Ar	-1.8590745108300892e-05	-0.00023977914692957503	0.0027698334795689793	0.0007976591298827363	0.0034604904685312677	-0.0023802886814375925
2
68600
Ar	0.00014213247160983343	0.0003578546954383633	0.003214190476096158	-0.00666928698179191	0.015218810624658522	-0.0005196100118848628
Ar	-4.930921294896232e-06	-0.00014842925891588192	0.002756579005135567	0.0018060017920672375	0.014028211820438173	-6.824424948437587e-05
2
68800
Ar	4.622459220557218e-05	0.0004048491468334596	0.0031955992101787597	-0.011573808495779133	-0.006019614544581599	-0.0028008535567583346
Ar	1.3660110467376863e-05	1.7697976237019538e-05	0.00276797036317322	0.001717109309411417	0.017769351139834116	0.0021058332095202606
2
69000
Ar	-7.000566997266158e-05	0.0002539220116256193	0.0031732842393859613	-0.01090101649120652	-0.022685692838913044	-0.0005763016389790828
Ar	2.6285743770338175e-05	0.0001748155501150533	0.0027871510125451098	0.0008049634491953789	0.01211644303704267	0.0008015765771119843
2
69200
Ar	-0.0001582440197257813	-1.8964830178846813e-05	0.003189805336492	-0.005868454630466955	-0.029857770354701864	0.002914709561769201
Ar	3.058300225282233e-05	0.00024384427425250838	0.0027786570864896665	-0.00017044629639829947	0.001255335863382101	-0.001727620752440197
2
69400
Ar	-0.00017325182266960767	-0.0002894579873054446	0.0032125048894389124	0.0031365999850448013	-0.021565840182930462	0.0010887853931010136
Ar	2.0021841101402984e-05	0.00019553547370145473	0.0027667838713826736	-0.001878545429836941	-0.010569883308870077	-0.0002862906776569831
2
69600
Ar	-0.00010106906534602138	-0.00041094469149974353	0.0032076523043387027	0.010556568265522063	-0.0017599425569766619	-0.0019451896812509777
Ar	-3.166139307090474e-06	5.005781824464538e-05	0.0027746335727598243	-0.002532808965145786	-0.017305133314965797	0.0017459508035649646
2
69800
Ar	1.902412129908254e-05	-0.0003264243501797231	0.003183434681959701	0.01245732412937039	0.01750933934673108	-0.002020940135609428
Ar	-2.59015732087889e-05	-0.0001209371709679177	0.0027942155252108	-0.0017770637535857764	-0.015220140070919238	0.001495202876747849
2
70000
Ar	0.00013243131274079704	-8.926623103857783e-05	0.0031849716787061785	0.009473346755399664	0.028484570340927336	0.0022115374626946478
Ar	-3.843186152960188e-05	-0.00022830497973851295	0.0027893778040579834	-0.000702880740074593	-0.005687394471242132	-0.0023708972521119588
2
70200
Ar	0.00018894897211815044	0.00019813473595082812	0.003208335461494479	0.0010989460182946763	0.02616708164999789	0.0016316896892186615
Ar	-3.529344102442848e-05	-0.00022585724473429125	0.0027644166056059534	0.0014340969062223176	0.006290095101429578	-0.001914057149118103
2
70400
Ar	0.00015132717932946193	0.0003848653962659348	0.0032097312411714716	-0.008252482074179812	0.009477366675597081	-0.0013731784002283033
Ar	-1.2173060622658882e-05	-0.00011217423780966084	0.002757764958073529	0.002962635874914753	0.015477200774550932	0.0006506486709984548
2
70600
Ar	3.9247744549311756e-05	0.00037397635053705054	0.003185993236670922	-0.013068267245691127	-0.01121055921452324	-0.002787212159859252
Ar	1.852680546516384e-05	5.828520909069764e-05	0.0027746622844942127	0.002878434521060391	0.017080012743321892	0.0023075699639409394
2
70800
Ar	-9.01686834725624e-05	0.00018493903347058588	0.003173313297277133	-0.01206834059577074	-0.025170811884636924	0.0010996245312093471
Ar	4.102454055294121e-05	0.00019755122509966338	0.0027884036907092325	0.0016179445579802615	0.009629206883147657	-0.000326339419695001
2
71000
Ar	-0.0001837000071769806	-9.642672575150032e-05	0.003198633924623456	-0.005551648256104659	-0.028587598002233587	0.002802639220094601
Ar	4.801991801097526e-05	0.00023955889466325945	0.0027747296557487327	-0.0005235238572063855	-0.0016684989581745408	-0.0015060864204923263
2
71200
Ar	-0.00018833398066374417	-0.0003329602633247607	0.003214944056705006	0.004690667319464154	-0.016436247045766978	0.00012214899403981784
Ar	2.9879164525271743e-05	0.00016540982754140418	0.00276820708419672	-0.0029282006559287178	-0.01252619565449357	0.00036119705155472566
2
71400
Ar	-9.871087416885369e-05	-0.0003968030342549746	0.0032011154265988296	0.012338399778803818	0.004005548405449743	-0.0025407314239781604
Ar	-5.24659178971668e-06	9.31655250865021e-06	0.002781407282684302	-0.0037592827055558196	-0.0173465892107777	0.00201794570367342
2
71600
Ar	3.648180909269117e-05	-0.0002664789394916002	0.003178142059530992	0.013724525857282045	0.02062176464828254	-0.0009448527984501926
Ar	-3.820945372788875e-05	-0.00015016317424372996	0.0027981452538408625	-0.0026311041379504453	-0.012960580051702367	0.0004060521685888812
2
71800
Ar	0.00015900571897721233	-1.1802883110991928e-05	0.0031912856547964014	0.009690397037863448	0.028563619080340604	0.002680689604285737
Ar	-5.648933460859793e-05	-0.00023168759874440075	0.0027820288734510023	-0.0007207628353504888	-0.0028963247982807397	-0.0027664665738688643
2
72000
Ar	0.00020880112135683538	0.00025440453721525434	0.00321200942196034	-0.0003090041104589805	0.022040391635574124	0.0009119885770883456
Ar	-4.774255097160137e-05	-0.00020168025080152067	0.0027596721281262265	0.0024062787341092395	0.008714316894945659	-0.0012415290492815523
2
72200
Ar	0.00015309291667967752	0.0003887934673310645	0.0032056181308489254	-0.010279405355264875	0.003696013853277917	-0.0020551481991335006
Ar	-1.254905665901064e-05	-7.171859178999619e-05	0.00276089258307385	0.004310665281620617	0.016154318991491893	0.0014164699180332818
2
72400
Ar	2.270753655853244e-05	0.00032649809514748396	0.0031797333940156687	-0.014584929413549478	-0.015205717271840112	-0.002308633338640439
Ar	3.0414539218704234e-05	9.442756600563704e-05	0.0027820814113985667	0.0038394419678273407	0.015461845093931677	0.0021822480863745936
2
72600
Ar	-0.00011902520883966619	0.00011182693107778641	0.00317869607919629	-0.012904790610235809	-0.02644050612627885	0.0022111655041247317
Ar	5.9728992811337896e-05	0.0002096985395000643	0.002787621226252513	0.0019300280862248349	0.006904845363065038	-0.001199522662971901
2
72800
Ar	-0.00021125555695918917	-0.00016245675829939897	0.003205483207952035	-0.004485423792092138	-0.02578023011224437	0.0021917032793119795
Ar	6.33478939252745e-05	0.00022341614346591562	0.0027723646575577784	-0.0014302303504568927	-0.004430039003941902	-0.0011654994597038524
2
73000
Ar	-0.0001988247059346218	-0.0003554037585891279	0.003212718283169726	0.00684302891437732	-0.011021818726410315	-0.0008522381010065092
Ar	3.303516282723315e-05	0.00012741946775250706	0.0027706367844458433	-0.004337662566100714	-0.013932549301870045	0.0008505059728533815
2
73200
Ar	-8.748992954641436e-05	-0.0003661841946779981	0.003192246961892299	0.014327036881109322	0.008669404738208767	-0.0027126894533121156
Ar	-1.5642828210509062e-05	-3.157606144509774e-05	0.00278660895210412	-0.004928573270135134	-0.01646031647533496	0.0019651571810368387
2
73400
Ar	6.378061219159018e-05	-0.0002030245183476865	0.003176917494904158	0.015010157443715179	0.02262026515503977	0.0006062558199217697
Ar	-5.68369103183644e-05	-0.00017124002440807424	0.0027957325051944457	-0.0031493098690706612	-0.010257838640852002	-0.0009487252594471936
2
73600
Ar	0.000191848022581417	5.770830889746609e-05	0.003198847381854926	0.009240429029896207	0.02731929430710872	0.0026352120362580418
Ar	-7.445862379213234e-05	-0.00022451841384604998	0.002772929795437396	1.4933253402701072e-05	6.612153561892878e-05	-0.0026123219189000063
2
73800
Ar	0.00022820873249236741	0.0002924190187738757	0.0032138491427543656	-0.002362115552310987	0.01735486991870883	2.698468121028621e-05
Ar	-5.4083442577007686e-05	-0.00016818485858904094	0.0027566648910792866	0.003877695389616737	0.010739567246796592	-0.0003953026367801453
2
74000
Ar	0.00014939454625475233	0.0003749098825826206	0.0031992316825565337	-0.012586433426225565	-0.0014204075396700064	-0.002655363931363144
Ar	-4.0760140872264835e-06	-2.7669616805673217e-05	0.002765885165087769	0.005665868847982686	0.01616543156077643	0.0020501758036719875
2
74200
Ar	-8.953076591704229e-08	0.0002724189834763979	0.0031743947730294908	-0.01608291983725715	-0.017838332790740215	-0.0012641597082324243
Ar	4.869574758355396e-05	0.00012632997775687715	0.002787761280573344	0.004395638975537432	0.013074194611636489	0.0014520103463052487
2
74400
Ar	-0.00015282247539825792	4.375570379595164e-05	0.0031859610009287564	-0.01326198853543447	-0.026448455820175434	0.0028394750072430427
Ar	8.000317946302583e-05	0.00021355693651394124	0.002783998980221327	0.0015729345226043379	0.003937157974177085	-0.0016399705690668942
2
74600
Ar	-0.00023819842944392707	-0.0002117145373619662	0.003210640860167632	-0.002831022197604968	-0.02211957600590124	0.001433750996177997
Ar	7.360675966729543e-05	0.00019797838794225183	0.0027701784439759123	-0.00283768215209848	-0.006990746304585788	-0.000678429284412654
2
74800
Ar	-0.0002036417158467464	-0.00035789252328083485	0.0032092348567234453	0.009368655759062419	-0.005856039873468705	-0.0016593186060058294
Ar	2.8030083434402695e-05	8.501545601520066e-05	0.002773696285192353	-0.005838299629860086	-0.014650635006110795	0.0013244055862993193
2
75000
Ar	-6.945815351441967e-05	-0.0003232481055548333	0.003184769609963583	0.01618571816467484	0.012102069629779225	-0.002473430501921082
Ar	-3.2759500838788976e-05	-7.032893934181071e-05	0.0027909702605268746	-0.005710001403799437	-0.014924836742012275	0.0015655239411728956
2
75200
Ar	9.662550075553841e-05	-0.00013922981926222684	0.0031797904604904436	0.016048870133348665	0.023574375460473383	0.0018300637493833753
Ar	-7.815921006510239e-05	-0.00018587388775126256	0.0027896428361011303	-0.003196302621522282	-0.007417458660658263	-0.002087245205875132
2
75400
Ar	0.00022427230454857583	0.00011482513461303025	0.0032045745124074845	0.008036768134911531	0.024875442579714625	0.0021610259619838095
Ar	-8.908165349324113e-05	-0.00020971837236634188	0.0027645674524202158	0.0013270046102239138	0.0029881941417318936	-0.002110028455627054
2
75600
Ar	0.00024064547369291917	0.00031163799875199595	0.0032122752855342418	-0.004900727603950719	0.012664929150616247	-0.0007586535459053098
Ar	-5.294025134133185e-05	-0.00013020041731897223	0.002755955700241207	0.005553397613918235	0.012214189096038388	0.0004830633581841647
2
75800
Ar	0.00013637846053987844	0.00034762916009684384	0.00319252657167643	-0.01486349733101866	-0.005560551711643268	-0.002703343779832993
Ar	1.1938041696561912e-05	1.4624957347513926e-05	0.0027725205459826867	0.006824469067909282	0.015479209109623382	0.0024764818596362376
2
76000
Ar	-3.0835283594067635e-05	0.00021666991942278203	0.0031750759878567177	-0.017443270885527568	-0.01944490120482477	0.0002074186520021037
Ar	7.128917484704408e-05	0.00015033851164533138	0.002791173364045994	0.004651206238477472	0.010364209053014632	0.0003396228981232037
2
76200
Ar	-0.00018973307015558133	-1.6573891010471502e-05	0.0031953691587982926	-0.01280593192382811	-0.025375387775422822	0.0027780858883996833
Ar	9.950900060281456e-05	0.00020907425463971514	0.0027800818556748623	0.0005583408145164155	0.0009765591264766241	-0.001666055187756042
2
76400
Ar	-0.00025999125097808624	-0.00024507534942967186	0.0032136665542464764	-0.00048613424316173504	-0.018127440648788937	0.0004530974761703686
Ar	7.825967031235346e-05	0.0001666357323981581	0.0027696588570083796	-0.0046205727552818985	-0.009129018657535716	-0.0001499129555435356
2
76600
Ar	-0.00019869161586310438	-0.00034707442479241566	0.003203202854881028	0.012066741720964076	-0.0014643568200910237	-0.0023199080755023005
Ar	1.521365118895112e-05	4.1781023877624126e-05	0.0027776861071150765	-0.0073927651127249595	-0.014784120726605812	0.0016007591502633985
2
76800
Ar	-4.218428094058647e-05	-0.0002776364655890625	0.0031787884264915384	0.017866949998412998	0.014392086362577846	-0.0015555059148337446
Ar	-5.6079952450988924e-05	-0.00010318955608763584	0.0027935661364748036	-0.006182968905863293	-0.012731246991512107	0.000798794573279907
2
77000
Ar	0.00013568434906934964	-8.110578364307337e-05	0.003186137121292661	0.01645048211557559	0.0237293836868373	0.0025140272248547284
Ar	-0.00010134132198246546	-0.00019171962603252882	0.0027821765396817033	-0.0025600158442645703	-0.004558107737682685	-0.0025594698757663023
2
77200
Ar	0.0002553681254983427	0.00015864583856753476	0.003209415799555544	0.006187403706412446	0.02190434209625547	0.001450464888245522
Ar	-9.907986568783133e-05	-0.00018707418914022648	0.0027593135890661567	0.003105605715876737	0.005533130019066182	-0.0014389429762695508
2
77400
Ar	0.00024690965950138863	0.00031669963354170297	0.003208950299478352	-0.0077343874090290655	0.008259059918087761	-0.0015240092576014946
Ar	-4.43006634355306e-05	-9.017488083508748e-05	0.0027585834371655267	0.007333272254688267	0.013048700438306754	0.0012859799112545183
2
77600
Ar	0.00011630103338013806	0.0003132048442326287	0.0031854312564381726	-0.01705071430572316	-0.00861111140027722	-0.002485253824445925
Ar	3.425416160438307e-05	5.219244630262728e-05	0.002779685969366696	0.0076162606775128094	0.014107230526088631	0.002400346842822549
2
77800
Ar	-6.77366885181664e-05	0.00016350691898968362	0.003178064332399996	-0.018677120526403156	-0.0203082180952756	0.001550443772488635
Ar	9.569698344112731e-05	0.00016505305643971723	0.002790362444368048	0.004389619369161092	0.007619488577366907	-0.0007609925297235367
2
78000
Ar	-0.00022802395332463182	-6.59156818345488e-05	0.003202927616754181	-0.011680082059194134	-0.023524908960391874	0.002402706793886953
Ar	0.0001143338207090887	0.00019574098511657194	0.002775075027138938	-0.0010699224228480732	-0.0018272879113968156	-0.0014937311941305709
2
78200
Ar	-0.00027730119905768064	-0.0002635500874408369	0.00321381581709733	0.0023223376384601336	-0.014137449601985005	-0.0004298057890028334
Ar	7.442709284171446e-05	0.00013082024598157124	0.0027690303691260613	-0.0065239151597270735	-0.01059522517533462	0.00038849915843224903
2
78400
Ar	-0.00018710824400069878	-0.0003251255340602975	0.003196440103523719	0.014720621922582416	0.0021779580856760637	-0.0026373426000549653
Ar	-4.536848697652046e-06	1.324518855247265e-06	0.002781830303741562	-0.00853929534695601	-0.014198626898103575	0.001857059089116791
2
78600
Ar	-9.838584291133281e-06	-0.0002302477184138696	0.003176925201593107	0.01941875688170281	0.01576493580820362	-0.00023112273334971537
Ar	-8.088887370645007e-05	-0.00012671991960435704	0.0027939873607678283	-0.006130670610651667	-0.010140650589005509	-0.00028494643832511856
2
78800
Ar	0.00017694385875129413	-2.933079713131127e-05	0.0031942312683490527	0.016285679503838017	0.02296540184092367	0.0026962939323017065
Ar	-0.00012038513255802157	-0.0001879218854327311	0.0027750848179334273	-0.0012667262217262055	-0.0017536240821858582	-0.0025804931169295187
2
79000
Ar	0.0002827553312130965	0.00018864671852939226	0.0032131011341288472	0.003758138255522382	0.01853315162576066	0.0006013356888829538
Ar	-0.00010061528282597274	-0.0001579744906739933	0.0027569182318051885	0.00509367373584119	0.0075172737927833985	-0.0006951074460500495
2
79200
Ar	0.0002455120776534807	0.00030819874752428827	0.0032040421249745895	-0.01075486288294042	0.00439752496544244	-0.002225121053054093
Ar	-2.752126921567361e-05	-4.993605359295486e-05	0.002763269160554024	0.00887595693820559	0.013189323603378201	0.0018536240447988555
2
79400
Ar	8.91352034321508e-05	0.00027362363367684805	0.003179212831014577	-0.019040591269326862	-0.010658547696505353	-0.0017930798623342478
Ar	6.0941550741003256e-05	8.319960685472888e-05	0.002785908060055506	0.00793203956893961	0.01207619562034081	0.0019200500321123876
2
79600
Ar	-0.00010944798109200527	0.00011324922312098024	0.0031840781135800155	-0.019375409269255767	-0.020469365665793576	0.0024806632771222697
Ar	0.00012038686852870205	0.00017020169151852653	0.002787208413266802	0.0036049671286633046	0.0048493237064931105	-0.0014707993726688004
2
79800
Ar	-0.0002639996800117384	-0.00010476540954530359	0.0032093462437154433	-0.009858322706768985	-0.0210727135032433	0.001790376291440724
Ar	0.00012377419955664253	0.00017381086141548413	0.0027717027554925795	-0.003112728024373345	-0.004199498711312313	-0.0011058814583096753
2
80000
Ar	-0.00028697674113659186	-0.00026930989456402054	0.003212256197418405	0.005425213505448877	-0.010338297957441615	-0.0012498308316108877
Ar	6.298149195512792e-05	9.272550282784414e-05	0.002770685027176678	-0.008465751156214304	-0.011336776085489829	0.0009097743419305714
2
80200
Ar	-0.0001674469317102227	-0.00029602637479586867	0.0031896274957246423	0.01723237515968891	0.004942912321385903	-0.002621473657257844
Ar	-3.069489992466618e-05	-3.4219616853698884e-05	0.002786035389814325	-0.009391672466930033	-0.012886007661531666	0.001723424857418673
2
80400
Ar	2.8982110587354027e-05	-0.0001843136612320089	0.003178589890099887	0.020818862532270162	0.016527427166145064	0.0011114074731306694
Ar	-0.00010850179555659929	-0.00014028549778072642	0.002790509979396151	-0.005699777418066435	-0.007439802825648263	-0.0014110139816170815
2
80600
Ar	0.00021899146684008656	1.4399901102960477e-05	0.003201388898318974	0.015256730444853315	0.021533209775608075	0.002390166565351701
Ar	-0.0001362553242955274	-0.00017464418894092294	0.0027675934284800943	0.0006629142980973402	0.0008431422437628936	-0.002271788584416364
2
80800
Ar	0.00030353992692102547	0.00020739502709612225	0.0032135047080176227	0.0008192018246588425	0.015232515798180689	-0.0002543714409040245
Ar	-9.447421569280839e-05	-0.00012374547060254532	0.0027556304678845625	0.007310510324261818	0.008901153594125357	7.238922255309635e-05
2
81000
Ar	0.0002351915471561501	0.0002927375850981953	0.003197648692461234	-0.013705962794926389	0.0012192341006600058	-0.002557096779997336
Ar	-2.687698859979618e-06	-1.10285105003056e-05	0.002768508157123377	0.010219435948215136	0.012680754812265903	0.0022318431610135105
2
81200
Ar	5.5685077402592405e-05	0.00023506317945156083	0.0031767021810427524	-0.02075169080666659	-0.011977700736588473	-0.0006457107859830555
Ar	9.091317606667853e-05	0.0001063508018336398	0.0027887710294225675	0.007663605015834847	0.009603832666386597	0.0009712575754828712
2
81400
Ar	-0.0001535337196492947	6.937569605435939e-05	0.0031910849809886157	-0.019431298452967826	-0.020090882713380408	0.002673429019444138
Ar	0.00014169244118655033	0.00016653022867956996	0.002781643365349387	0.0020214206902534055	0.0021612540424491406	-0.0017086405815632895
2
81600
Ar	-0.00029531022941356786	-0.00013291480514065947	0.003212126090570439	-0.0074421614719411555	-0.018422988636212063	0.00098713177023715
Ar	0.00012406623896985135	0.00014623593910228412	0.002768558286006009	-0.005466974165107179	-0.006080272457619669	-0.0005306713757749341
2
81800
Ar	-0.00028837867112532187	-0.00026607997354928677	0.0032070377880718745	0.00862328149942268	-0.007070985997500677	-0.0018726481585738504
Ar	4.1801900295013746e-05	5.4493943008453403e-05	0.0027732792865022486	-0.010253150275140618	-0.011500467990276566	0.0013850015344101475
2
82000
Ar	-0.00014093893859122645	-0.00026575851449064117	0.0031836207161549707	0.019401852400866396	0.006814336985814084	-0.001977366794415138
Ar	-6.241810384447287e-05	-6.423273536666924e-05	0.002789702504287105	-0.009559970758132827	-0.011076596206399378	0.001269329216106568
2
82200
Ar	7.172844020784029e-05	-0.000143783047454669	0.0031843194008020397	0.021791492173435362	0.0168712560231803	0.0020738073519662916
Ar	-0.00013505837357369148	-0.00014617589544258246	0.002784828423433308	-0.004587748332941961	-0.004829894897570012	-0.0021904474074166255
2
82400
Ar	0.0002583729320973673	4.828773899359967e-05	0.003207887435198709	0.013591490187604836	0.019782806045503445	0.0018205833528608226
Ar	-0.00014437798990328874	-0.00015553794196368156	0.002761856290872762	0.003019012498581216	0.003078545841904835	-0.0017282918256559083
2
82600
Ar	0.0003168466785024523	0.00021591326423729055	0.0032121740493637903	-0.0024274700747219896	0.01217118574165985	-0.001033208941320937
Ar	-7.929562484277224e-05	-8.910387137791917e-05	0.0027569284472856396	0.009434613200396217	0.009631215768130159	0.0008212935414980153
2
82800
Ar	0.0002166417261875063	0.0002718586167567612	0.0031913177274814435	-0.016503545800804886	-0.0012796841699036648	-0.002578568896506515
Ar	2.7983569140120933e-05	2.1624297616710043e-05	0.002775172392575082	0.011007285529998268	0.011536697970491084	0.002381204737402663
2
83000
Ar	1.570127551453073e-05	0.00019842264964102887	0.0031776407651750746	-0.022332178229775065	-0.012718676675233936	0.0006914866305380991
Ar	0.00012087967852600415	0.00011932904284519749	0.0027901885979330697	0.006918933833109846	0.007117849542289977	-0.0001352304545125165
2
83200
Ar	-0.00019953135931346076	3.297782669599246e-05	0.0031990752018904787	-0.01869107829023317	-0.01911377560136564	0.0025543169656246072
Ar	0.00015749190540353494	0.00015541379165285896	0.00277688875946194	-0.00011084125575215649	-0.00010614024837807018	-0.0017038653975867304
2
83400
Ar	-0.0003211031226069023	-0.00015014640276436457	0.003214178137666642	-0.0044250710391896516	-0.0157939841349142	0.00013247286026398192
Ar	0.00011595803258817561	0.00011677968880741489	0.0027671487320919813	-0.00785914068906704	-0.007301767673679614	-1.678034284777074e-05
2
83600
Ar	-0.00028089190180711224	-0.00025518220250472724	0.003201437168599212	0.01193313841214171	-0.004348524045220426	-0.002382545086783774
Ar	1.4030566196337663e-05	2.1244295980077302e-05	0.002776258507436304	-0.0116109449508323	-0.011029268080218944	0.0016395660893017713
2
83800
Ar	-0.00010647183210302969	-0.00023424336579652136	0.003179650678126608	0.021420246442471556	0.008034265844088104	-0.001018653822059898
Ar	-9.50087748348124e-05	-8.420393021536157e-05	0.002790816118364063	-0.009160763491755614	-0.008923423754699428	0.0004836293947026647
2
84000
Ar	0.00011948277408057792	-0.00010673430229162394	0.0031908647608249368	0.022121882909190548	0.016753035875481114	0.0025527399330255557
Ar	-0.00015755464062466482	-0.00014307888467540706	0.0027782584858228143	-0.002864604900334849	-0.0025859189025677514	-0.002385046258788158
2
84200
Ar	0.0002950667769535454	7.432907871649342e-05	0.0032120804107290822	0.011188821354183521	0.01775623666279834	0.001105690144132306
Ar	-0.00014392599556384598	-0.00013250715144621643	0.0027589663800466962	0.005582737964912816	0.004651597939620973	-0.001002858578636734
2
84400
Ar	0.0003223048790292412	0.00021608859689847292	0.0032082717947200376	-0.005908077581567269	0.009314985274080078	-0.001768848633611261
Ar	-5.534749727834815e-05	-5.7486710382287e-05	0.0027615634372378578	0.011323032943431377	0.009747442297708287	0.0014655924003017225
2
84600
Ar	0.00019050880382441104	0.00024754345857007663	0.00318451025868316	-0.019078580617562554	-0.0030249542239203157	-0.002215560171815908
Ar	6.280918523690839e-05	4.599604973869068e-05	0.002782378606965352	0.011141624051691838	0.009972643296168995	0.002103202861255868
2
84800
Ar	-2.952752593041987e-05	0.00016463756864042623	0.00318157039469318	-0.023595616098511605	-0.01303724601444649	0.0018662037831516768
Ar	0.00014892853951916827	0.00012251671797052586	0.002788165426708323	0.005604837922612226	0.004785343358694476	-0.001188167921987857
2
85000
Ar	-0.0002445750432339539	3.5170565050114517e-06	0.003206421947909956	-0.017213644062847578	-0.017797747803954926	0.00215926477522661
Ar	0.0001652649518295426	0.00013736983354183316	0.0027710800359283406	-0.002701317421072424	-0.0019528926563328	-0.0014994373504381786
2
85200
Ar	-0.00034015139238814565	-0.00015926367157216434	0.003214549609802964	-0.0009980576671361086	-0.013242344429042362	-0.0007114390013872744
Ar	9.800027311916862e-05	8.625607392828623e-05	0.002765819253470827	-0.01015310160651767	-0.007862019335372575	0.0005538092353803392
2
85400
Ar	-0.00026480483767262695	-0.00023899436374684433	0.003195306595330812	0.015147540997722803	-0.0021565538461132323	-0.0026451083350282605
Ar	-2.0480775004966297e-05	-7.250259944666393e-06	0.002779582551020791	-0.012453246262957757	-0.01001038896388338	0.001862427212184452
2
85600
Ar	-6.536233246002545e-05	-0.00020394846806368362	0.003178513611384419	0.023252104674892606	0.008700981521264212	0.00018862651495455904
Ar	-0.00012801203585106576	-9.495474828459272e-05	0.0027906732200042297	-0.00819666881115302	-0.006619454983122173	-0.0004248594908637972
2
85800
Ar	0.0001699990287955481	-7.547688089515292e-05	0.00319698621865589	0.02174944572794347	0.016121102640743675	0.0025241772298309974
Ar	-0.00017458890600926703	-0.00013161246800594452	0.002773010752103156	-0.0005765320455784274	-0.0005589810036148777	-0.0022235373663190795
2
86000
Ar	0.0003273949795247102	9.121657912852088e-05	0.0032132347376185757	0.008141367946024616	0.015636513183625165	0.0003305871711645386
Ar	-0.00013500785166668645	-0.00010516955328673199	0.0027589693676840802	0.008178035826986596	0.005655602352808786	-0.00031008179875472835
2
86200
Ar	0.000319169234684137	0.0002096436235308592	0.0032024017790436435	-0.009546967700066614	0.00703390074456946	-0.0022384673453970834
Ar	-2.4927461447338176e-05	-2.735477522424717e-05	0.002767562731382272	0.012821055901330536	0.009251788049812637	0.001867666312926786
2
86400
Ar	0.00015650904058367576	0.00022355501321885086	0.003180017125694157	-0.02143005387200512	-0.004103561575442123	-0.0013274029048809075
Ar	9.830246666784568e-05	6.356076738362414e-05	0.0027876865467306475	0.010619220800670123	0.007983856751012456	0.001386724876927009
2
86600
Ar	-8.071343214605417e-05	0.0001358542303465621	0.003188313189760557	-0.02440388537629201	-0.012981945095101305	0.002517201606805418
Ar	0.00017246803734856717	0.00011841712934757161	0.0027840291545300415	0.0037641851266990785	0.0026961307925411097	-0.0017623822436857823
2
86800
Ar	-0.00028790404548538164	-1.743297313407865e-05	0.0032118338232135684	-0.014923675258180828	-0.016279712035340947	0.0014921346706285893
Ar	0.0001644318942006477	0.00011508936677929942	0.0027673266346102156	-0.005446477955469249	-0.00334404402466941	-0.001056035292028077
2
87000
Ar	-0.00035111923618315994	-0.00016037512534499405	0.0032115878800174098	0.0027973765355056085	-0.011018853843925031	-0.0015008683465433223
Ar	7.192740287927506e-05	5.638245155723944e-05	0.002767052464611117	-0.012205440891018968	-0.00791850955181958	0.0010105145773862236
2
87200
Ar	-0.00024020198082117197	-0.00022044234354905525	0.003188649535545849	0.018150840593272266	-0.0006821688130022248	-0.002413159051962367
Ar	-5.854628878581179e-05	-3.0402010414870343e-05	0.00278308301399331	-0.012624988371812916	-0.00864383036162345	0.0017165336041950353
2
87400
Ar	-1.8028999650950187e-05	-0.00017750102075293682	0.0031808383683965876	0.02487213270077821	0.008916488325592472	0.0013171893511628287
Ar	-0.00015845460337553715	-9.938477400999434e-05	0.002786725834881662	-0.00675631858486351	-0.004555018032522969	-0.0013589693238318162
2
87600
Ar	0.00022082428591309666	-5.2014732916724876e-05	0.0032030733629141222	0.020544668800469287	0.015200921797277984	0.002174946183171481
Ar	-0.0001830702209049044	-0.00011726892122264098	0.0027670083311614846	0.0022552680139730804	0.0010643735596807462	-0.001803322443852205
2
87800
Ar	0.0003528679797708047	9.92890541735341e-05	0.003212824977431101	0.004609271951121645	0.01365996636470575	-0.000422287678149308
Ar	-0.00011549908843031557	-7.930033540774795e-05	0.002759625581792163	0.010684205184890973	0.006212093714681281	0.00045872267167578325
2
88000
Ar	0.00030669186689539195	0.00019783731847015462	0.0031962248675750306	-0.01320403846171482	0.0052347186735518915	-0.0024749685194507686
Ar	1.2522204006832125e-05	-2.7661061123294215e-06	0.002774234752535271	0.013764034389405749	0.008449377005487974	0.002154247384572404
2
88200
Ar	0.00011506138560515318	0.00019971568324695066	0.0031787652099699434	-0.023605613794548588	-0.004591151974554643	-8.37016100085894e-05
Ar	0.00013401771637964446	7.373613399509348e-05	0.0027906776937285877	0.009478377076672739	0.006020931214943887	0.0003086534327202029
2
88400
Ar	-0.00013511460884585647	0.00011181500982201561	0.0031966013007808164	-0.02435513091013989	-0.01253298378363369	0.002699991481111731
Ar	0.00019051115375938826	0.0001093017675394015	0.0027784050850213	0.0012743676636377131	0.0009946559572687474	-0.001977276368888681
2
88600
Ar	-0.0003259904171931671	-3.1131506968207016e-05	0.003215713637284712	-0.011903462116441747	-0.014728571005783344	0.0006634490579690154
Ar	0.00015401287547929927	9.265157384178845e-05	0.0027642532945255545	-0.008287370717572283	-0.004176633098976431	-0.0005350056037288377
2
88800
Ar	-0.00035212181720049217	-0.00015671006225319827	0.003207051423558113	0.006796909190877078	-0.009270640617756287	-0.0021804774641681923
Ar	3.8395549309943825e-05	3.1799032809509367e-05	0.002769722485303743	-0.01381189384444567	-0.007486473995542771	0.001490651788311913
2
89000
Ar	-0.0002059537503408133	-0.0002027886405908436	0.0031825398996749277	0.020938286816792148	0.00020340917921289725	-0.001847177090500743
Ar	-9.775856601116518e-05	-4.461649767733352e-05	0.002786782885801855	-0.012067433583105563	-0.007003893479528279	0.001244166756013061
2
89200
Ar	3.6569595491585284e-05	-0.00015616619950211598	0.0031851357743810705	0.026038133355760214	0.008900104792896872	0.002156052479841489
Ar	-0.000184203088834424	-9.456628633141319e-05	0.0027823941017136463	-0.0047080934419811244	-0.0027216953601320003	-0.0019100901545817603
2
89400
Ar	0.000270889551295513	-3.5814273285975914e-05	0.003207561285014278	0.01842969745212022	0.01411431783017938	0.0015924123631054228
Ar	-0.00018252738481667685	-9.73992258013977e-05	0.0027633918942892278	0.005188975667114163	0.0021577517476343276	-0.0012918439702173316
2
89600
Ar	0.0003701746608508568	0.00010114093946627574	0.0032101419194393785	0.000532356608702289	0.012029904514729585	-0.00112694044818762
Ar	-8.839707643623016e-05	-5.44785964897016e-05	0.0027620094265495454	0.01282961012558489	0.006073771896608334	0.001045492993060514
2
89800
Ar	0.0002839172848556179	0.0001847850485157961	0.0031897310886644507	-0.016738363576138414	0.004118307494086655	-0.0023510912045112222
Ar	5.207748414338269e-05	1.454749764754094e-05	0.002780254193934188	0.013963355507105535	0.007126756459436175	0.0021572443102566064
2
90000
Ar	6.540649094003898e-05	0.00018113520185274637	0.0031808091517684825	-0.025521804480107723	-0.004677877578364234	0.0012008645108979809
Ar	0.00016539695571680742	7.3402883032396e-05	0.0027901937667764672	0.007913002013454348	0.004049613464521802	-0.0007508809049485574
2
90200
Ar	-0.00019122168101483365	9.491383978106385e-05	0.003203886334618155	-0.023358930627185966	-0.011973473326424929	0.0023855349784960922
Ar	0.00019981882812293412	9.220603806107835e-05	0.002773156158719109	-0.0015336923470010608	-0.0003451024383091254	-0.0018393328213679972
2
90400
Ar	-0.0003569726281933723	-3.800810495908805e-05	0.0032157520563062423	-0.008156616108638479	-0.013382063864336309	-0.0002701194739538912
Ar	0.00013483830232249305	6.754312775851385e-05	0.002763292755510078	-0.010917092414778213	-0.004417202930599308	4.829812694829205e-05
2
90600
Ar	-0.0003417921802460904	-0.0001492855685674395	0.003199549926081031	0.01087733634513456	-0.007931093605485405	-0.0025966054117221075
Ar	5.903855909132751e-08	1.0588273373514358e-05	0.0027738287377748936	-0.014825405305348953	-0.006502483150360628	0.0018083822520143123
2
90800
Ar	-0.00016302500057398456	-0.0001861453882029163	0.003178086409135598	0.02332797750540988	0.0005892357264108113	-0.0007207671686230812
Ar	-0.0001346338117955156	-5.0784201220171886e-05	0.002788797695151327	-0.01087271010614449	-0.005077089972533074	0.0003885813208474562
2
91000
Ar	9.463084767361767e-05	-0.0001394624465198962	0.0031912883585293312	0.026274745735647358	0.008588751764904064	0.0025690387030849493
Ar	-0.00020311644005904225	-8.231773364678485e-05	0.0027768980589269222	-0.0022596941689753004	-0.0011709783094953406	-0.002068873235971274
2
91200
Ar	0.0003141586296682705	-2.617838947262999e-05	0.003211477477022464	0.015433799121628473	0.013031079986008217	0.0009597379391768745
Ar	-0.00017291894771273307	-7.415114182949349e-05	0.0027615926310767215	0.008105086639553557	0.002735528756674474	-0.0006378616289449582
2
91400
Ar	0.0003749476274475598	9.786750053359687e-05	0.003206784707162335	-0.0037135924314995587	0.010702209593931943	-0.00178828340295852
Ar	-5.448364750884035e-05	-3.150072871316766e-05	0.0027670915169347946	0.014552186137517771	0.005457360399255404	0.001629528756387591
2
91600
Ar	0.0002509213311123082	0.00017059254597169693	0.0031845300203220614	-0.019740223282878066	0.003418471120234733	-0.0018720686867590315
Ar	9.248281924152995e-05	2.5966167255072193e-05	0.0027870009956524867	0.013411373895275924	0.0054897371439240625	0.001711632335492931
2
91800
Ar	1.0124917425995942e-05	0.00016511018317578806	0.0031854759632395013	-0.026911345551292754	-0.004519374376942105	0.002060370669393388
Ar	0.00019151383250238884	6.667294353838572e-05	0.0027870825522856805	0.005849465885133961	0.00235135204216638	-0.0016936174134857705
2
92000
Ar	-0.00024435843082433554	8.35252121853467e-05	0.003208684848941024	-0.021430378829662842	-0.011162143353170055	0.0017681142782444924
Ar	0.00019906085360388997	7.252750353778419e-05	0.0027676081640869337	-0.004584690872965872	-0.0011918935791871666	-0.0015302364091383934
2
92200
Ar	-0.00037793625591463404	-3.896710742492463e-05	0.0032123775020343956	-0.004058170642784056	-0.012227294262036167	-0.0011034546517784739
Ar	0.00010639241660914863	4.475022777394068e-05	0.00276294199023044	-0.013152165699627284	-0.004145065912396561	0.0006760308450123734
2
92400
Ar	-0.0003211918852496433	-0.00013976753044071772	0.003191280287488976	0.014602946740724373	-0.0071338998032524316	-0.0025981514605343706
Ar	-4.1508874835066385e-05	-3.963741079512993e-06	0.0027782421636631566	-0.015069854460678102	-0.005167438832870149	0.0019628695245926184
2
92600
Ar	-0.00011376160681167111	-0.00017348653738929624	0.003177890147669132	0.025426239660686092	0.0004169362705788061	0.0007078617921991887
Ar	-0.00016720059958439597	-4.8586000998546825e-05	0.0027886808651652255	-0.009070136733631707	-0.0032211518221425626	-0.0005599043982943372
2
92800
Ar	0.00015330414132176562	-0.0001299633918349911	0.0031993773586345355	0.025605659079664944	0.008133354342884157	0.002564010573118975
Ar	-0.00021181222408889005	-6.505106266450471e-05	0.0027723496584381568	0.0006920570338899417	-0.00011087585231378893	-0.0018429389252952863
2
93000
Ar	0.00034966131865297616	-2.3430510248993564e-05	0.0032148099655457682	0.011732894913934491	0.012213937610997087	0.00017656822615369388
Ar	-0.0001520241633652418	-5.132535019469598e-05	0.0027621859029493207	0.010755699382694205	0.002755153789149619	4.073216275135634e-05
2
93200
Ar	0.0003682381120291435	9.27273007182344e-05	0.0032023009524925097	-0.008007390672109682	0.009985943791936642	-0.002381763932176479
Ar	-1.454128165953681e-05	-1.42877792367711e-05	0.002772827143016061	0.015507304048787567	0.004372438795094257	0.001915644685607659
2
93400
Ar	0.00020878866080438065	0.00016142890260226924	0.003180247274752882	-0.022379281075046435	0.003413936472223112	-0.0010905675421828446
Ar	0.00013019906252136805	2.889592993405868e-05	0.0027906523206116265	0.012006427451979006	0.0037570708589415164	0.0008591322117483093
2
93600
Ar	-4.942120135873181e-05	0.0001581521379229577	0.003190194374127986	-0.027483733522728426	-0.004222706896414683	0.002442009286614062
Ar	0.00020920094101490317	5.3177634427604265e-05	0.0027817194272317172	0.003274616952575289	0.0010726412790653722	-0.0020827020505570105
2
93800
Ar	-0.00029218832117401536	8.066015738925554e-05	0.003211021550951701	-0.018640054727408147	-0.010610141585658489	0.0011351375579029138
Ar	0.00018756651839569723	5.126460893428325e-05	0.002763873676693123	-0.007518457040345897	-0.0014057491553125683	-0.0010069650070169372
2
94000
Ar	-0.0003878224467649469	-3.555805384262555e-05	0.0032077496876942607	0.00029636801793231143	-0.011558015232459853	-0.001703950207158907
Ar	7.065468760099954e-05	2.681329729099181e-05	0.002765133854102387	-0.014841719445989438	-0.0032924874411714394	0.0012100147860167074
2
94200
Ar	-0.0002904157694970187	-0.00013135379149462447	0.0031850132692286125	0.01797380243888512	-0.006902414475423419	-0.0021243924367247966
Ar	-8.310473377700755e-05	-9.854237273631513e-06	0.0027827972622379202	-0.014455542601702832	-0.0036887316165173847	0.0017501359986864553
2
94400
Ar	-5.802785146838987e-05	-0.00016632463153748808	0.0031823713020931975	0.027062347609273254	0.00010118681946609683	0.0018063556140831191
Ar	-0.0001930461194750833	-3.8577331690482345e-05	0.0027861038620168683	-0.006857929407678978	-0.0017579257673074773	-0.001333537062076745
2
94600
Ar	0.00020980646371763074	-0.00012642702614278631	0.0032060985354710582	0.02389846889456272	0.007714249251595561	0.002012310982234224
Ar	-0.00021016934540037775	-4.544747625811676e-05	0.0027686763724681877	0.003784772537729401	0.0003539749130641627	-0.0014622449135246872
2
94800
Ar	0.0003747909588478241	-2.453602291566333e-05	0.003212987604775084	0.00756417258492865	0.011716783483850253	-0.0007711507809610653
Ar	-0.00012201087625940993	-3.221135128051778e-05	0.0027639812782552326	0.013045843872635262	0.0022169674565399758	0.0006192149820655529
2
95000
Ar	0.00035002071939526817	8.708010378711104e-05	0.0031940531998276736	-0.012011671409511978	0.009666169085284696	-0.002557442491504263
Ar	2.895033844245651e-05	-4.553080835423494e-06	0.002778766281700789	0.015778996984420292	0.0030994059485675786	0.0020008784494305576
2
95200
Ar	0.0001596949144438366	0.0001556211989079724	0.0031785803430292034	-0.02457223098483731	0.003749708017284892	0.00033588895230703597
Ar	0.00016416915325072229	2.3677186209026958e-05	0.0027909484838357854	0.010088733483085945	0.0021532062563958993	-0.00031568225443778753
2
95400
Ar	-0.00010971236671310572	0.00015613742933903295	0.0031981571303190035	-0.027042856624586668	-0.003867643426456566	0.0026031134164860937
Ar	0.00021857864029912455	3.565560356846156e-05	0.00277451805723872	0.00025710745213695067	0.0003442182373822337	-0.002126641999427413
2
95600
Ar	-0.0003307895877022525	8.208165575925063e-05	0.0032149839827606184	-0.01500918120863381	-0.01027931496342017	0.00034798415973743895
Ar	0.00016595198007415016	3.161674600125998e-05	0.0027607354550288005	-0.01037121833318972	-0.001127812787480189	-0.00034772175639062223
2
95800
Ar	-0.0003834494945699945	-3.146094261937511e-05	0.003204033712949011	0.004802458552411975	-0.011360599212454955	-0.0022887788446483933
Ar	2.844783485812719e-05	1.417676498163789e-05	0.002768591814964532	-0.015943048809655566	-0.0022305451659286137	0.0017551030518011227
2
96000
Ar	-0.00024837284324850305	-0.0001270654826568626	0.003180683778069003	0.02079073870713754	-0.00712625092554924	-0.0014421853268692013
Ar	-0.00012432833927542765	-9.428533451396131e-06	0.0027871845796736735	-0.013091832159277686	-0.002216912546299781	0.0012316062772605178
2
96200
Ar	3.1106006956142124e-06	-0.0001662967261031825	0.0031873288244990815	0.027825706643808963	-0.000310006834045083	0.0023279935104034925
Ar	-0.0002135613964613549	-2.4191925608109547e-05	0.002782612793568087	-0.004257158906634473	-0.0007023545693234568	-0.0017633030530472612
2
96400
Ar	0.000260840436702029	-0.00012887926276390721	0.0032091114026294647	0.02113569905228452	0.007564166090665602	0.0013575861067113063
Ar	-0.00020067821521015173	-2.573231270477573e-05	0.002766541885745578	0.006878832736314041	0.00034370835986122743	-0.0009452489884678897
2
96600
Ar	0.00038708107459796783	-2.825523645886578e-05	0.00320868789792323	0.0030043401761635034	0.011616010605030733	-0.0014205377885228908
Ar	-8.689725485328494e-05	-1.7361111265289373e-05	0.0027676116371059905	0.014887297807246073	0.0012591960278468819	0.0011385153170627219
2
96800
Ar	0.00031959307627182475	8.344418680960793e-05	0.0031872096861449324	-0.015577268453062395	0.009819381359490035	-0.0022073421005014064
Ar	7.16400717585769e-05	-2.029229492300554e-06	0.002784738154622649	0.01528324462522107	0.0016962067694925723	0.0017772048640709436
2
97000
Ar	0.00010342630570186672	0.00015603435657133904	0.0031820993788875727	-0.02628154812710413	0.004307346866762683	0.0015783792161553538
Ar	0.00019114676361711922	1.1902262221294065e-05	0.002788865409818044	0.007833959143950776	0.0008537907362029716	-0.00133074842336628
2
97200
Ar	-0.00016820234444791274	0.00015997016536133967	0.00320581040059308	-0.025499806135871682	-0.0037473403222776603	0.002206167571255728
Ar	0.00021775629850393717	1.648807399782129e-05	0.0027690767409305267	-0.002915936552559347	0.00016689934704698826	-0.0018394526137165434
2
97400
Ar	-0.0003587821248743664	8.572850383951207e-05	0.0032148624238316254	-0.010808701991527494	-0.010404454375209702	-0.0005862549568643227
Ar	0.00013604245056581964	1.5608868382934052e-05	0.002760997707775542	-0.012731319261444071	-0.0003700735579156187	0.00036369563042219294
2
97600
Ar	-0.0003669960622083735	-2.9270240490003118e-05	0.0031963481865248324	0.008997639720162296	-0.011546041626427018	-0.0026650458065500334
Ar	-1.552278248844351e-05	9.21951849865986e-06	0.0027744328087298234	-0.01622362145417112	-0.0009046013967149607	0.002033599711228578
2
97800
Ar	-0.0001996248129217377	-0.000127848410158331	0.0031770288236039747	0.023021658384611374	-0.0075819648649888246	-0.00023550844128558584
Ar	-0.00015838896779100568	-7.363211478181906e-07	0.0027894753487930583	-0.011035786802381422	-0.0008885887903964064	0.00018003328130071323
2
98000
Ar	6.41056869651321e-05	-0.0001713625939179365	0.0031933326864594944	0.027645012646003254	-0.0005421512263601384	0.0025820893205894
Ar	-0.00022225108256948778	-6.031785077415589e-06	0.002776870457644285	-0.0012299223346799578	-0.00032168050152126166	-0.0019163659109329447
2
98200
Ar	0.00030284118798991463	-0.00013417845910941942	0.003212690235337098	0.017757622518495383	0.007690147457451383	0.0007984432222225706
Ar	-0.00017834330529735277	-9.004530663319655e-06	0.0027638324917614587	0.00970132662756023	-0.000262772561444459	-0.00038210287829054456
2
98400
Ar	0.00038742501298972437	-3.110599628172863e-05	0.0032060577831410004	-0.0014835203376981202	0.011959954420732628	-0.0019325819072558835
Ar	-4.457736315658764e-05	-1.0420582946770271e-05	0.0027705933557109373	0.015897483424660096	2.9881206543407158e-05	0.0016067127888920642
2
98600
Ar	0.00028117562061174655	8.455563733244411e-05	0.003183865602213144	-0.018546676033364788	0.010288150406063673	-0.0016496859742545567
Ar	0.0001119979798569498	-7.525847115498725e-06	0.002788461073337327	0.01385584966856074	0.0004748285253300343	0.0012883018976963824
2
98800
Ar	4.438472066140058e-05	0.0001627102233882292	0.0031874341830102192	-0.02731886670263053	0.004746891630471082	0.0021002348099496823
Ar	0.0002100082549514497	-4.348989500679046e-06	0.0027843206382368113	0.0051753951793935245	0.00014579491530362785	-0.0018870014398681008
2
99000
Ar	-0.00022093508489703166	0.0001677127937207716	0.003208564129538593	-0.02313048406907517	-0.003928846229244058	0.0014091991498740037
Ar	0.00020648199761904524	-1.0954437803868185e-06	0.002765462808764062	-0.005970542885153847	0.0005628132007491854	-0.0013126668201215266
2
99200
Ar	-0.0003753454636238269	9.01063134124466e-05	0.0032088792138297104	-0.006336438658497061	-0.010874078712954621	-0.0013466434617142883
Ar	0.00010001601436350542	5.819800324102081e-06	0.0027634981607726795	-0.014441752842828882	0.0007243131862847651	0.0009597830958621024
2
99400
Ar	-0.0003401212155419992	-3.004830851755263e-05	0.003187431280430171	0.012740192848651525	-0.01208632889162803	-0.0023533400113064703
Ar	-5.761899116672624e-05	1.1491224078614786e-05	0.0027805877453233297	-0.015635546250751736	0.00031641039739768566	0.0020073495688225514
2
99600
Ar	-0.000145568354887012	-0.00013485749705897222	0.003179195098478798	0.024819157613173087	-0.008306940593012253	0.0012844161158953944
Ar	-0.00018390907899218595	1.2977320024719135e-05	0.002789017018592995	-0.008678849005492968	0.00012377277033368567	-0.0008435822052924372
2
99800
Ar	0.00012282209458823674	-0.00018218069434907476	0.003202914439996674	0.02643804847865437	-0.0004735365183589655	0.0024718918630857716
Ar	-0.00022047154558180437	1.239205849964855e-05	0.002772041576930178	0.0017650880166480557	-0.00047676363729413495	-0.0017632928699569351
2
100000
Ar	0.00033363265309641646	-0.00014108631629373446	0.0032156481463491327	0.013716290978025056	0.008348552128968949	-0.00018750700105312116
Ar	-0.000149267320055237	3.106633949023836e-06	0.0027632966318871664	0.011893550892285937	-0.001287231912894102	0.0001855520099097396
2
100200
Ar	0.0003740043461480323	-3.060556855067998e-05	0.0031999646937437634	-0.005775943043091571	0.012692394023015563	-0.0025739130482808517
Ar	-2.4933906859524035e-06	-1.0543789816976922e-05	0.0027750761650462965	0.016201025378496277	-0.0012585793884421998	0.0019209658958770756
2
100400
Ar	0.00023357749501281977	9.205039139791576e-05	0.0031784627122986393	-0.020937219651093436	0.011026353479690013	-0.0007449081129923604
Ar	0.00014507582918254117	-1.9739453879860476e-05	0.00279068029784422	0.011844344352624141	-0.000601904208589412	0.0003880349301516435
2
100600
Ar	-1.6958933922215807e-05	0.0001763707265002188	0.003190917542435714	-0.027386061465339673	0.004991826075602297	0.002409226746683601
Ar	0.00021847623480816835	-2.361706125286167e-05	0.0027786611791494227	0.0023305791457854416	1.3824581773499196e-07	-0.0020721998651966555
2
100800
Ar	-0.0002656292586024023	0.00017880681561393508	0.003209846763904479	-0.019906710159749208	-0.004607759584783301	0.0008604759477560125
Ar	0.00018582667243126778	-1.6479803922733795e-05	0.002763045631081407	-0.008661748779741643	0.0014216871583074286	-0.0006948752989895221
2
101000
Ar	-0.0003790506297565145	9.232317657977965e-05	0.0032048036775113105	-0.0018270981520952985	-0.011841238498907426	-0.0017625378859355036
Ar	5.961406176090817e-05	2.0152114635095318e-06	0.002767522901447821	-0.015494291233319572	0.0020826764640172824	0.0014933941365461645
2
101200
Ar	-0.0003038988865394805	-3.6991826052146206e-05	0.0031833648057034303	0.015873408906157488	-0.012939000629786207	-0.0017320749216987196
Ar	-9.724574142409999e-05	2.0679058201025772e-05	0.002786050669513816	-0.014327107907057409	0.001473109444567718	0.0015759288682196586
2
101400
Ar	-8.749374915827067e-05	-0.00015039394469137048	0.0031857704735599804	0.02606075004472158	-0.008981410241518715	0.0021418953828119826
Ar	-0.00020234306535325553	3.148330777916731e-05	0.0027859318409738337	-0.006069176492078792	0.0006619667578017726	-0.0015978011418262522
2
101600
Ar	0.00017722768915531372	-0.0001983335942683208	0.003209016961059076	0.024329927044421593	1.2998019224290169e-05	0.001675835570410113
Ar	-0.00020966176091896215	2.9580008399515714e-05	0.0027678117325514303	0.0048305582840849305	-0.0011704432934894118	-0.0013720911800793078
2
101800
Ar	0.0003536525121139773	-0.00014863917328711824	0.0032115403796209546	0.009350864178463921	0.009449551374310248	-0.0012043117051976542
Ar	-0.00011284262438611314	9.746068988005405e-06	0.0027645825413682035	0.013720313656563126	-0.002601612606152799	0.000805336999025036
2
102000
Ar	0.00035074838420688095	-2.669002093371354e-05	0.0031897721868390004	-0.00961135623579046	0.013807751245967918	-0.0025941492401417823
Ar	4.163526668252498e-05	-1.7427335140508343e-05	0.002780617561552377	0.01574803622001091	-0.00253765117321191	0.0019726671829496485
2
102200
Ar	0.00018263448387246595	0.00010658025245168095	0.00317704436825113	-0.022718513857541957	0.012073900543067832	0.0007966831839440427
Ar	0.00017257280737208665	-3.7222845309742285e-05	0.002790460749784456	0.009330230148626174	-0.0014416939198692502	-0.0006813112428621426
2
102400
Ar	-7.447105161366679e-05	0.00019664741101678738	0.00319887457486055	-0.026507146765535228	0.004923116702627781	0.0025707468603847917
Ar	0.00021732667611433786	-4.360395765817608e-05	0.002772814694162945	-0.0008122151807677227	0.00044966814639843127	-0.0020066409812778785
2
102600
Ar	-0.00029848286792917474	0.00019278677058350615	0.0032145025111987007	-0.016142092351917173	-0.005711336309647685	0.00020145213909349206
Ar	0.00015585159688427831	-2.6539822068541472e-05	0.0027612056060323555	-0.01097931179709777	0.002792627543079116	-9.441238694518621e-05
2
102800
Ar	-0.0003695221886523358	9.298331265099307e-05	0.0032025771291061176	0.002397600150648341	-0.013273513669025148	-0.0022827805147569878
Ar	1.578596756703987e-05	6.594917695872526e-06	0.002771390216343706	-0.015811843446680306	0.0035012778476107066	0.0019083520704397858
2
103000
Ar	-0.0002603453170210677	-4.9567393411494105e-05	0.0031814498680882647	0.018249495196551443	-0.01416540346378046	-0.0010101290845736357
Ar	-0.00013190580451638627	3.72388712744202e-05	0.0027894135353062266	-0.012266639861447956	0.002404043480823515	0.0009084171748054903
2
103200
Ar	-2.9699044968280294e-05	-0.00017264396954728536	0.0031908523443367445	0.02631913909500461	-0.00943745568814414	0.002230368291667431
Ar	-0.00021115163849008085	5.301895356497258e-05	0.0027820829613030592	-0.0031324641365577167	0.0005446455561906932	-0.0018228979973919349
2
103400
Ar	0.00022112801471649635	-0.00021791108928954776	0.003209325407249289	0.02140608664660615	0.0009254845175820744	0.000862754487216744
Ar	-0.0001882210926775449	4.371072456185713e-05	0.002767188835612863	0.007576119107678227	-0.002379618386555013	-0.0007448520083349183
2
103600
Ar	0.0003596413528839121	-0.00015486511707297	0.0032043446286517687	0.00511014498618285	0.011059985185562648	-0.0017518539422881887
Ar	-7.181388902617525e-05	9.502482897806093e-06	0.002770010459497268	0.0147121156776015	-0.0041171292909559865	0.0012603503368116273
2
103800
Ar	0.0003186466300996384	-1.7615777133562343e-05	0.0031824033031646777	-0.012612774409151418	0.01518367341997828	-0.0019051075178663343
Ar	8.067281998168539e-05	-3.082884466936265e-05	0.0027864305450147966	0.014314942641106864	-0.0035532258366033657	0.001480335518028474
2
104000
Ar	0.00013028219011647417	0.00012839100969126618	0.0031826557741939077	-0.023894729804711468	0.013086152683312887	0.0020677101045365994
Ar	0.00018898952002207198	-5.734924950691228e-05	0.00278603725875783	0.006654977941614747	-0.0016670375190721734	-0.0017063031932479918
2
104200
Ar	-0.00012442565283053394	0.0002206868990850803	0.00320805671369331	-0.02468560490163892	0.004305484735366612	0.0021282071223689856
Ar	0.00020504718598286358	-5.885929658247242e-05	0.00276584760329638	-0.003700810519252069	0.0015581001927691578	-0.00161156433146081
2
104400
Ar	-0.0003177561236463406	0.00020439963535063676	0.0032154239215810365	-0.012172224637626735	-0.007381872740321625	-0.000787027734445773
Ar	0.00011987901891839313	-2.8066947497033983e-05	0.0027607795458919945	-0.012612030464946605	0.004325856320768092	0.0006969018059628804
2
104600
Ar	-0.00034858739665116024	8.711836330935938e-05	0.003195696615602651	0.0060392633433774216	-0.014902223816251016	-0.0026920553275104004
Ar	-2.6384406401635323e-05	1.9359855930862772e-05	0.0027770295146359605	-0.015306917648743392	0.004677077693582356	0.0021870462487690993
2
104800
Ar	-0.0002130762676349992	-6.93569142431071e-05	0.003178409489264585	0.019880394840273423	-0.015381132836313906	0.00010648266524809946
Ar	-0.00015763613100920506	5.7622898685388135e-05	0.0027913750201353947	-0.009739138093296032	0.0028128870292365043	-7.019062775805325e-05
2
105000
Ar	2.4251046557368897e-05	-0.0001996906543884227	0.0031951540100101255	0.02569327297905425	-0.009363860015113619	0.002303606176236805
Ar	-0.00020914049326226596	7.20406158230249e-05	0.0027778928569528213	-0.00017921895832012346	-0.0002629404310842249	-0.0018542030810004444
2
105200
Ar	0.0002540843878103292	-0.0002360928868679077	0.0032100185058938015	0.018061100281461552	0.0024858462017122336	0.00029986063850887
Ar	-0.00015932243087767018	5.0060582459053115e-05	0.002765553325592802	0.009768591155146703	-0.003948716628871985	-0.0003124072123236517
2
105400
Ar	0.0003539460875124009	-0.00015455610144746659	0.0032001491142950116	0.0011317835571672556	0.012953067842436243	-0.002035986528029213
Ar	-3.0087700978011627e-05	1.5051574836737702e-07	0.00277238904756908	0.014999991700910518	-0.005566287189047027	0.001527669661537868
2
105600
Ar	0.0002799531731198138	-5.960008244348518e-07	0.003180241623467313	-0.014999979119474822	0.01657822943428565	-0.0010429346949462192
Ar	0.0001140093317965817	-5.0952883171538956e-05	0.0027877245624179626	0.012357643157525453	-0.004203827474193006	0.000834557832720996
2
105800
Ar	7.62237967397229e-05	0.00015568701534811853	0.0031899925762345254	-0.024457391565655316	0.013511051120028197	0.002447498629263507
Ar	0.00019724706848737956	-7.946236239045295e-05	0.002779764175618853	0.0038419239116343133	-0.0012368352655729076	-0.00195644833236396
2
106000
Ar	-0.00016906365656041886	0.00024336011628694167	0.003211726241870643	-0.022240303408979794	0.0030405089839148974	0.0012576042535597414
Ar	0.00018464415000412677	-7.005854930324366e-05	0.002762983677578989	-0.006313840273423944	0.0031234745340075125	-0.0009193641621660431
2
106200
Ar	-0.00032846760252405803	0.00021001802604535326	0.0032095287387944905	-0.008201078661248383	-0.009360792049835972	-0.0016438362707129031
Ar	8.083252180168665e-05	-2.2481613317047343e-05	0.0027651462306163923	-0.013584367612752364	0.005953467559002072	0.0013108535994045287
2
106400
Ar	-0.00032218534804738454	7.423758614645178e-05	0.0031860916646104204	0.009105769715057431	-0.016527056018329524	-0.002355898453167559
Ar	-6.429454760735145e-05	3.82463188185762e-05	0.0027841458032060997	-0.014057970858165089	0.005560131646033205	0.001985904006172321
2
106600
Ar	-0.0001652847277564535	-9.591720022539696e-05	0.003180044282556917	0.021228673186721794	-0.016475330819169708	0.0015317840073275095
Ar	-0.00017393955375260062	8.08016613045439e-05	0.002789948573348934	-0.007068786012163679	0.002797213728494651	-0.0011795398577224242
2
106800
Ar	7.301275079158182e-05	-0.0002286113841011913	0.003203576404751415	0.02428388359833073	-0.008627373931640984	0.00222535499014905
Ar	-0.00019763652831938003	8.79207400190541e-05	0.002771724621660204	0.0025773574164158447	-0.0016695535478961905	-0.0017034747054226643
2
107000
Ar	0.0002760773534556364	-0.00025003895255501984	0.0032135363093259706	0.014430941058869287	0.004557334924916303	-0.0004388759642147273
Ar	-0.0001250494458392765	4.88683891890583e-05	0.0027639219175229217	0.011308059789093182	-0.005780190487774602	0.00024640185917123377
2
107200
Ar	0.0003374346679386399	-0.00014695756664516728	0.0031966333464317933	-0.0024950706694127724	0.01499511843201945	-0.002511113846782468
Ar	9.99924763578207e-06	-1.7296232955717757e-05	0.0027759489410415913	0.014544821019324283	-0.006832997485289922	0.0018417954724450054
2
107400
Ar	0.00023624761980248403	2.4061925079431073e-05	0.003178676809516716	-0.01672078686846976	0.01801247551431878	-0.00016772848570569974
Ar	0.00013894840805607985	-7.555321198024666e-05	0.0027891345629117905	0.009969911008685751	-0.004428561788109714	3.189887346824529e-05
2
107600
Ar	2.4501112379534916e-05	0.00018972565674061414	0.003194016403086517	-0.024063483479104166	0.01360332867574576	0.0023696164108814514
Ar	0.00019617104018154142	-0.00010050535593016986	0.0027758788897184854	0.0010938128239654597	-0.0001660168591849822	-0.0019248268747702184
2
107800
Ar	-0.00020275178135783993	0.00026819730927607054	0.0032103971746150674	-0.019209273991142382	0.0012412374015917627	0.0004972511191497433
Ar	0.00015835904870087483	-7.574999856096838e-05	0.0027631849167370774	-0.008387527380720674	0.00493050001604939	-0.0003366800887461305
2
108000
Ar	-0.00032546059982833746	0.00021244394488244777	0.003202275833691735	-0.004302293596475142	-0.01179037160320173	-0.0019532857353045
Ar	4.219338832727827e-05	-1.02005464705249e-05	0.002770788615378628	-0.013876487281442668	0.007588792543105673	0.0017198879715528555
2
108200
Ar	-0.0002864304905938059	5.496496247528992e-05	0.0031814762849015	0.011441246410859848	-0.018311511945385918	-0.001352576781170442
Ar	-9.486160426188414e-05	6.185464280637893e-05	0.0027893646229182603	-0.012141817259349569	0.0061460584644035254	0.0012951317326846097
2
108400
Ar	-0.00011538855812838155	-0.00012972843537068676	0.0031882249703679396	0.021742920045271067	-0.01735213479858257	0.002356997903279685
Ar	-0.00018000329444512234	0.00010485397067341962	0.002785242761563377	-0.004423318810699137	0.0022046540005811045	-0.0018722117962646704
2
108600
Ar	0.00011482951570577028	-0.00026021508635962627	0.0032110239128207425	0.022134053923948117	-0.007291984362015912	0.0015050685589385175
Ar	-0.00017758060783238573	9.891761675967629e-05	0.0027667130910050673	0.004967178879876778	-0.0034956317931773397	-0.0012565184288733523
2
108800
Ar	0.0002867524190377293	-0.0002611192342040815	0.003211281148880408	0.010698522195944742	0.007052734536734393	-0.0014265448448270478
Ar	-8.799929732078412e-05	4.053890994798317e-05	0.002764889657416774	0.012201310099621108	-0.007647932500288132	0.0009025095189252875
2
109000
Ar	0.00031269340278774685	-0.0001335594445258353	0.003188559498587907	-0.005458805085264398	0.017212556028761487	-0.0025008596893192794
Ar	4.634601456276272e-05	-4.04305985133004e-05	0.0027810226366718504	0.013380236537980011	-0.007777330680300166	0.0018717101316267435
2
109200
Ar	0.00019154632438319168	5.595633977478086e-05	0.0031786913093311384	-0.01785102980306596	0.01952195242518681	0.0010912371670984233
Ar	0.0001542951493007882	-0.00010173618747316352	0.0027882481722331623	0.007337773770292926	-0.004150036113208872	-0.0009104445184513946
2
109400
Ar	-2.145716501896244e-05	0.00022712727102939615	0.003200308241022085	-0.02291611611123947	0.012954657947765947	0.002286318231146679
Ar	0.0001848465063937231	-0.00011685532917842591	0.0027713087416989593	-0.001498927474843012	0.0014672142900461005	-0.0016982783418208272
2
109600
Ar	-0.0002253821558026436	0.0002886919667085779	0.0032119514891027	-0.015950453735090225	-0.0012443303469110757	-0.00019800721347079675
Ar	0.00012565419608188063	-7.270364024152085e-05	0.0027632178056206376	-0.009856223710061365	0.006963056157617984	0.00024294017257201975
2
109800
Ar	-0.00031323007486556775	0.00020562643472096638	0.0031976410764629516	-0.0010064632224120514	-0.014464795678608634	-0.0022987520098676512
Ar	3.981649387021119e-06	1.0333588952692587e-05	0.0027754072019513906	-0.013439729678978642	0.008883804828665687	0.0019120519333889225
2
110000
Ar	-0.0002489675166484261	2.5883404916906255e-05	0.003179805412847575	0.013055122437628464	-0.020108838177715412	-0.00035099407172662863
Ar	-0.00011859395772830296	8.83584589761936e-05	0.0027906912448238137	-0.00982661287342996	0.006085711186577543	0.0003807629486216321
2
110200
Ar	-6.962814559800005e-05	-0.000170380914084903	0.0031947050203992825	0.021571826214787575	-0.01748671784455645	0.0024920339644913074
Ar	-0.00017845110547355672	0.00012546259279811855	0.0027792031587367655	-0.0018204980661656557	0.000910797519065261	-0.002000544240280907
2
110400
Ar	0.0001464874840629647	-0.0002897050787845327	0.0032127679571140964	0.019561193029825313	-0.005138811265200204	0.0006485487082183776
Ar	-0.00015161076096544413	0.00010143302392859702	0.0027642452694581314	0.006980686530905626	-0.005575730512691069	-0.0006139811625811639
2
110600
Ar	0.00028641323016246505	-0.0002636678673937771	0.0032049520297100266	0.0072397652989993865	0.010003798217353553	-0.0020575960336684956
Ar	-5.026686165043026e-05	2.3527440907957405e-05	0.0027690750868300576	0.012451744953002695	-0.009291679509634991	0.0014780913808373505
2
110800
Ar	0.0002826802388229083	-0.00010975637053850241	0.003181515593146132	-0.0076153904415091735	0.019351584387636945	-0.0017947880863472426
Ar	7.622637047977384e-05	-6.763128428755509e-05	0.0027868253714895467	0.011569151385139278	-0.008032497450800067	0.0014140121229963972
2
111000
Ar	0.00014889187251903663	9.654469624996609e-05	0.0031839645540377515	-0.01835129110293039	0.020541012748604162	0.0021670244002564764
Ar	0.00016011531892371378	-0.00012567063500078338	0.0027847752802895834	0.004705573426088382	-0.003265718540232018	-0.0017269194486245717
2
111200
Ar	-5.807757950597184e-05	0.00026543033057404875	0.0032081555595458245	-0.021155087907534585	0.011436360802025076	0.001869245959187071
Ar	0.00016521037169176954	-0.00012534334176339347	0.002766329914365124	-0.003764755201360249	0.0035207449765562084	-0.0013494936596198225
2
111400
Ar	-0.00023568511207735861	0.00030260511888485997	0.0032128041791041643	-0.01274482324685288	-0.0043224223866741565	-0.0010365083641268552
Ar	9.029985571601687e-05	-6.013856199117886e-05	0.0027634805733940037	-0.010572438222391083	0.008926093839841071	0.0008375930721987078
2
111600
Ar	-0.0002924509537537676	0.0001890098738271533	0.003192239000655854	0.0016857573444863934	-0.01719177609269968	-0.0025494984113966063
Ar	-2.9421889981585246e-05	3.778750445127225e-05	0.0027797733276311845	-0.012306642354709053	0.009730259074795442	0.0020066744851423386
2
111800
Ar	-0.00021015815770798123	-1.2627187052033294e-05	0.0031790202108798456	0.0140626398755087	-0.02178897330345133	0.0006196656988783937
Ar	-0.0001321052663453374	0.00011697057198807997	0.0027901375330782185	-0.007298800686751347	0.005597348385972037	-0.0005326286495427964
2
112000
Ar	-2.907604342767562e-05	-0.00021591676060509396	0.003198083057438126	0.02071983241538957	-0.01689422383528912	0.0022529061996228
Ar	-0.0001670406327880406	0.00014236152710102678	0.002774863480572996	0.0005302084583827276	-0.0009559100071797428	-0.0017299018626645804
2
112200
Ar	0.00016771812929050085	-0.0003167104688673177	0.003210445095523681	0.016757386678033843	-0.0022438723672924144	-4.260775123600313e-05
Ar	-0.00012178171889475624	9.663454732830018e-05	0.0027652770857932905	0.00815843619869656	-0.0077965402870373915	3.241860486917581e-05
2
112400
Ar	0.00027707931218671345	-0.0002579823762648702	0.0031976575095506434	0.0042764073377962895	0.01327622165312333	-0.0022200592427888406
Ar	-1.6907625225531927e-05	-2.371799062149274e-07	0.002775223297195883	0.01192839273107364	-0.010706298449550893	0.0017120749270025581
2
112600
Ar	0.00025103160344150404	-7.657080343280186e-05	0.0031789412560699554	-0.00897077380278485	0.021497460663867245	-0.0005926796933861314
Ar	9.537863017667729e-05	-9.767784808618534e-05	0.002790058367896512	0.009370516915736283	-0.00790303716496027	0.0005108760801402467
2
112800
Ar	0.00011037439985279632	0.00014418789192512243	0.0031922200975446633	-0.01831539802492853	0.02091142894175082	0.0025355919194678233
Ar	0.00015592364283836533	-0.00014865647483992627	0.002779397403812634	0.0024387048069323125	-0.001848214948658691	-0.0020081354388661924
2
113000
Ar	-8.574690169956492e-05	0.00030210525798350017	0.003212489736472223	-0.019084501221052944	0.009061976441056944	0.0009722624045753053
Ar	0.0001409635193181271	-0.00012765489792214603	0.002763547180422819	-0.0053629785370955686	0.00595761555007364	-0.0007204224713951384
2
113200
Ar	-0.00023680849561973603	0.0003081917693299421	0.0032072130134901053	-0.009782192134660507	-0.007812241277848089	-0.001908689080780322
Ar	5.722701252527769e-05	-3.9843254550861954e-05	0.002767649896128669	-0.01068211323286251	0.010820377653341049	0.0014686794740548543
2
113400
Ar	-0.00026775763423342547	0.00016323683049690506	0.003183410800425306	0.003574968372168145	-0.0197306688463087	-0.002096672461634548
Ar	-5.499858538995153e-05	6.958472367293142e-05	0.002786534817514222	-0.010660161333724431	0.00999901364630827	0.0017169310174055183
2
113600
Ar	-0.00017486107418685328	-5.760682236930922e-05	0.0031816296684201674	0.014438086507216443	-0.02306659564021442	0.0018653686800574924
Ar	-0.00013540786893519342	0.00014413886135278693	0.0027879528104269814	-0.004888455028447299	0.004540576726750656	-0.001514338076606023
2
113800
Ar	1.9797772754703315e-06	-0.00026034088109415057	0.003205035721696318	0.01937747757720963	-0.015370229510102954	0.00198465704696632
Ar	-0.00014788464665026476	0.00015150648551787776	0.00276931003653163	0.0024917702540919306	-0.0033526922025388767	-0.0015305908205498705
2
114000
Ar	0.00017772689493997804	-0.00033496019429211915	0.0032116964405035546	0.01413828586126613	0.001152254598886299	-0.000769258435184398
Ar	-8.90221365014683e-05	8.145273069007833e-05	0.0027640189404428716	0.008791560600953274	-0.010049894087034324	0.0005384958886690834
2
114200
Ar	0.0002611989010517882	-0.00024181369598873118	0.003193287321301404	0.001995424952670788	0.01644502016148455	-0.0024322606727100447
Ar	1.3811356928108585e-05	-3.1969260233657606e-05	0.0027780289228154717	0.010869633621099713	-0.011559678616127493	0.0018883742888301728
2
114400
Ar	0.0002196526491784375	-3.558780293507272e-05	0.0031791253790218825	-0.009805386210104206	0.023342215457825048	0.000400058275888773
Ar	0.0001077416775964872	-0.00012887290570296785	0.002789277003193664	0.0070031400310840135	-0.007124185252899837	-0.0003135463523080962
2
114600
Ar	7.676715020987156e-05	0.00019357697814493627	0.0031973455938374383	-0.017767744289002158	0.02038649600473803	0.0023156704363378193
Ar	0.00014512940139404268	-0.00016507764888532304	0.002775007270531562	0.00029454765152481054	0.0003283433798781036	-0.0017631283664781964
2
114800
Ar	-0.00010495761649685448	0.0003324639996536092	0.003211612512069092	-0.016888132849214765	0.005988274365439801	0.00018898684149845147
Ar	0.00011329930009321012	-0.00011960239953918682	0.0027650088903489185	-0.006454139779793918	0.008385353456493735	-2.1056579860101988e-05
2
115000
Ar	-0.0002311591593554892	0.0003036210729039266	0.003200241086423497	-0.00731643549422189	-0.011348169060662818	-0.0021808248178257997
Ar	2.634210228734047e-05	-1.209241593203658e-05	0.0027745699305986027	-0.010205237173269495	0.012177467838886699	0.0017595100131692423
2
115200
Ar	-0.0002427658081969	0.00012882410974362322	0.0031799815422801094	0.004783658105972313	-0.022056252438058335	-0.0009992844646301209
Ar	-7.271800176338824e-05	0.00010211359696634204	0.0027910648772104148	-0.008570374747854638	0.009571513284675126	0.0007933307345552087
2
115400
Ar	-0.0001439744032806811	-0.00010817432242208577	0.0031899265514150964	0.014453016235700304	-0.023637516745997334	0.002424728609552451
Ar	-0.0001302358357744288	0.00016624901542186259	0.002782146445890431	-0.0027064253271936764	0.002833907859884464	-0.002091209923661247
2
115600
Ar	2.4710129931035107e-05	-0.000300772924849532	0.0032109674033058205	0.017747153282657833	-0.012912807068363714	0.0011626900839105411
Ar	-0.00012428395588266817	0.00015045373197828388	0.002764014714579396	0.0038805242094935564	-0.005949434436345585	-0.0010593047912591208
2
115800
Ar	0.00017922600883559065	-0.00034261459670411736	0.0032080954239126352	0.011768282015223673	0.004866202661913444	-0.001648357276796045
Ar	-5.851833203779094e-05	5.706065013687945e-05	0.0027648569190542043	0.008760413176357102	-0.011896988780446227	0.001188028499690734
2
116000
Ar	0.00024184877664886094	-0.00021531023975827478	0.00318531270673408	0.0004239406473685772	0.01926097042138248	-0.0022058169148110947
Ar	3.6581969658609755e-05	-6.680381768068591e-05	0.002782452999854283	0.009360339601191875	-0.011665334215655092	0.0018034133654258795
2
116200
Ar	0.00019198495823588717	1.2038173131943575e-05	0.003180515673504684	-0.01003152513510793	0.02479086831093586	0.001539699148540905
Ar	0.00010998734363969278	-0.0001566289662904318	0.0027871999491274045	0.00473824308034401	-0.005803500860091524	-0.0011396640037423815
2
116400
Ar	5.2392945482722614e-05	0.00024245409971663983	0.003203122550450798	-0.016735336205012885	0.0189905701978239	0.0021121428088788684
Ar	0.00012706437245468472	-0.00017304178239446296	0.0027705923505686437	-0.0013991772914728263	0.002884256713038126	-0.0014875542699929853
2
116600
Ar	-0.00011319185773104161	0.0003551474153643971	0.003212022343302212	-0.014835042168617857	0.0024757237417429964	-0.00048792677994080895
Ar	8.388767714392172e-05	-0.00010207741275679847	0.002765158971544038	-0.006899139932978833	0.010682975056216777	0.0005041427394731218
2
116800
Ar	-0.00021893276859342696	0.0002897044000676288	0.0031956869249490203	-0.0055254201786874985	-0.014773645289712204	-0.00237284667339228
Ar	-1.3974191433497126e-07	2.2442724239235417e-05	0.002778639310602098	-0.00917817099643975	0.013066856172919897	0.0018824762188528307
2
117000
Ar	-0.00021902759443332158	8.771185261079226e-05	0.003179926304398671	0.005272169289124705	-0.02408003628030028	5.890735658358042e-05
Ar	-8.223127122455748e-05	0.0001351681958923074	0.002791212350184443	-0.006390383188639576	0.008571829850349247	-0.00010662198089380884
2
117200
Ar	-0.00011952598574496979	-0.00016041948893248282	0.0031962652017757938	0.014049024315168551	-0.02340942068915385	0.0023159433587629113
Ar	-0.00011939312837185519	0.00018300397570839404	0.002776974728722222	-0.0008998102656328429	0.0005004564305062307	-0.001989539789771372
2
117400
Ar	3.9172274472452474e-05	-0.0003360425950363507	0.003211582238382884	0.01621067408936692	-0.009919863027672789	0.00034200547261695587
Ar	-9.927084133160533e-05	0.00014112288846376657	0.0027636680351733763	0.004765394579625686	-0.008561214686669776	-0.00035976820007364315
2
117600
Ar	0.00017568019936263355	-0.0003414764547016692	0.003201465941407506	0.009877152093462477	0.008723308204469198	-0.002152844100727997
Ar	-3.139499834460617e-05	2.6039380068668438e-05	0.002770794666216952	0.008266417123650963	-0.013434417293738196	0.001634486403670714
2
117800
Ar	0.00022360856906322127	-0.00018120103445544127	0.003179680919487656	-0.0004437111325612767	0.02180520349814795	-0.001334047729736079
Ar	5.1908666828545274e-05	-0.00010319627658363544	0.0027881481013508976	0.007515993183701111	-0.01113087796250576	0.0011238644863740713
2
118000
Ar	0.00016989238812108428	6.437165039649627e-05	0.0031870499819370507	-0.010081569135709657	0.02566123356318564	0.00243553427285325
Ar	0.00010494672629077029	-0.00018042990401662611	0.002783172269181074	0.0028163285265979322	-0.003860085220987983	-0.0018119877084744839
2
118200
Ar	3.5029988576771624e-05	0.0002876012042786945	0.0032105254869129506	-0.01570657492044086	0.016719363967601687	0.0015580020757847031
Ar	0.00010628323766327097	-0.00017151475929646126	0.002765984946970725	-0.00254946718879388	0.005716184062407032	-0.0011110703697325666
2
118400
Ar	-0.00011621148888793761	0.00036723930850145143	0.003211618960421555	-0.013170829812455927	-0.0014881821390442616	-0.001360799700162085
Ar	5.773486863991572e-05	-7.514208584218553e-05	0.0027657672955462946	-0.006771593942982966	0.012727738933002577	0.0010408814837827999
2
118600
Ar	-0.0002065957259902477	0.0002639621826300935	0.0031894620935771227	-0.004295311227142781	-0.018003208415440973	-0.002435153965587228
Ar	-1.8452431064198275e-05	6.105528963559713e-05	0.002782583219802338	-0.00779974964409083	0.013213882758342815	0.0018556559972899972
2
118800
Ar	-0.00019994321999869158	3.742756055616876e-05	0.003180024143852873	0.005487405794776581	-0.02581062933043324	0.001036416525033207
Ar	-8.243449034904374e-05	0.0001655517121673957	0.0027893341746685588	-0.004398336196410535	0.007003570105022975	-0.0009243377602800187
2
119000
Ar	-0.0001017672340237029	-0.0002143096551195085	0.0031998337062639553	0.013466446465173967	-0.02216223427336481	0.002040182601166086
Ar	-0.00010221501634687384	0.0001915057354490049	0.0027728041053649197	0.00047003661889374144	-0.002246535469939226	-0.0016506163821169318
2
119200
Ar	4.675396896790876e-05	-0.0003634853188744027	0.003209726659535297	0.014844939109672524	-0.006218301590039439	-0.00031216215540392947
Ar	-7.374731045736808e-05	0.00012220892354062132	0.0027649618849493194	0.00502078069419755	-0.010995550942501054	0.0002169202794749601
2
119400
Ar	0.00016900207432865772	-0.00032936258524841476	0.003195283781083574	0.008590095330193748	0.012512572147504009	-0.0022141722374434134
Ar	-1.0008210563507732e-05	-9.93292207477828e-06	0.0027763428407383576	0.007209678232558125	-0.014245427123419946	0.0018031878338334603
2
119600
Ar	0.00020786635547660292	-0.0001386468309523929	0.003179303243174289	-0.000860538521860396	0.024051554314848993	-0.00011821305393066457
Ar	5.7287655108336436e-05	-0.000136335574010956	0.002790279853988269	0.005486854172586006	-0.009926646609424068	0.00023505102183337656
2
119800
Ar	0.00015303800297365022	0.00012024565926172091	0.0031952902482743194	-0.009905475625324787	0.025646700575803004	0.00249903706403014
Ar	9.115042888916131e-05	-0.00019579584993983668	0.0027783546648795063	0.0012277506530746058	-0.0014607788147554658	-0.001914667958765755
2
120000
Ar	2.421274953425944e-05	0.0003273693431528728	0.003213057190220095	-0.014672959416182066	0.013676524520095547	0.0006008204358531434
Ar	8.14483558237414e-05	-0.0001598702242860619	0.002764578333699281	-0.0031135747097508003	0.008393922910653067	-0.0005051827666193257
2
120200
Ar	-0.00011436967243333235	0.0003690925826929555	0.003204796996829836	-0.011808554547516425	-0.005585992752659901	-0.0020590959228749058
Ar	3.3558206554640145e-05	-4.199830000414837e-05	0.0027699800233531315	-0.006082293513781171	0.014146848035177524	0.0014800812306529603
2
120400
Ar	-0.0001935216252555168	0.00022983903591361713	0.0031812221061782373	-0.0035696289347702435	-0.020808142296661634	-0.001799252988250683
Ar	-2.999349182068956e-05	9.799066217637703e-05	0.0027872261771475755	-0.005984716740846983	0.012469476096673471	0.0013304887534456994
2
120600
Ar	-0.00018429682426450973	-1.6333533917363223e-05	0.0031831152134786716	0.005452825805029131	-0.026854904769804858	0.002040313397134889
Ar	-7.388228330449238e-05	0.00018758272160918844	0.0027846848093418114	-0.002511884310101111	0.004930718583845405	-0.0017030699444005747
2
120800
Ar	-8.93538643103622e-05	-0.0002631995623925786	0.0032058456471471732	0.01277636508247287	-0.020071238808289354	0.0017450733724701608
Ar	-7.966353915311033e-05	0.00018747509377965355	0.002767009526347326	0.0013421766311649962	-0.0051182054560241965	-0.0012471442851534405
2
121000
Ar	4.881648334777339e-05	-0.00037928705606032583	0.003210273943577718	0.013581560247772306	-0.002124280456011512	-0.0009339092509033218
Ar	-4.886970272454468e-05	9.278743487476655e-05	0.0027649800929665826	0.0045996513916464156	-0.013009050017525066	0.0008834025108338807
2
121200
Ar	0.0001593533032417801	-0.0003051952953641359	0.003191409997623219	0.00766004464262033	0.016005952405428764	-0.002291131511608352
Ar	5.1064219339382006e-06	-5.034304771779485e-05	0.0027809471437483164	0.005712121450968226	-0.014270628229468063	0.0019047269417149266
2
121400
Ar	0.00019393910490995078	-8.830017052301569e-05	0.0031808029669909937	-0.0008450892911374557	0.025882016862371585	0.0007961638246475523
Ar	5.39913197671265e-05	-0.00016653061886727803	0.002789904411235864	0.00352282398433969	-0.008127561771189569	-0.0006572604975644872
2
121600
Ar	0.00014138738124996284	0.0001763424853552576	0.00319969642934227	-0.009436262470293848	0.02465296236453693	0.0020955710617544454
Ar	7.233366910638374e-05	-0.00020248838640448197	0.002774338663710393	0.0001593928636699831	0.0014130625697463138	-0.0017174141767920645
2
121800
Ar	2.0007191030725628e-05	0.00035814498463782355	0.0032105566826816255	-0.013719712592263174	0.009951307935742922	-0.00018357039736391977
Ar	5.7339584143654835e-05	-0.00013819808539844604	0.002765151908226903	-0.0030419244414640993	0.010917264010214577	6.835457879948514e-05
2
122000
Ar	-0.00010892297945734943	0.00035882201613483215	0.0031968912005270276	-0.010942290832037758	-0.00960683906170823	-0.0022201062171534262
Ar	1.6045977178776365e-05	-2.67858925330184e-06	0.002775193553502201	-0.004898244056852015	0.01499933989531251	0.0017062711076172403
2
122200
Ar	-0.00018272181417324627	0.0001872878092614668	0.003179051382848737	-0.0034818811586413124	-0.023144847429994096	-0.0005044348719223632
Ar	-3.204361607058601e-05	0.00013390694890445088	0.0027895069918128877	-0.004131891226650095	0.01105077062677624	0.00044722879531559456
2
122400
Ar	-0.00017484962277507495	-7.33158194556036e-05	0.0031924363463025265	0.005186426172632715	-0.027036784079108804	0.002465951712180462
Ar	-5.881115093952954e-05	0.00020343957637189964	0.0027790678443996445	-0.001200576559062935	0.0023602042775284176	-0.0019143221670337744
2
122600
Ar	-8.412052203237569e-05	-0.00030501342699078087	0.0032117574408187383	0.012191671080399744	-0.017021181246983243	0.0008851655706841577
Ar	-5.691986009287844e-05	0.0001742821769138781	0.0027643955091720923	0.001560889172853676	-0.008007966043721651	-0.0006498181981544281
2
122800
Ar	4.7184938463615406e-05	-0.0003828063913080227	0.0032065472748304354	0.012859679181113226	0.0020731973651099776	-0.0017926826073083383
Ar	-2.9642282840948415e-05	5.614577020388372e-05	0.002768565027310861	0.00370417341719806	-0.014578407914603232	0.0013824577607590516
2
123000
Ar	0.0001519097950598994	-0.00027176243909006915	0.003184193895465985	0.007337350264549581	0.01888108177883866	-0.0019226180895866205
Ar	1.151065595487965e-05	-9.168341871929084e-05	0.002786218299205912	0.004132120223660758	-0.013524809756879709	0.001555877181170046
2
123200
Ar	0.0001868263070384179	-3.474704394207976e-05	0.0031835139171662342	-0.0006081180173042081	0.027036364398451463	0.0018163427205054802
Ar	4.367043725420868e-05	-0.00019160834267739748	0.0027868215926938854	0.002004353624527442	-0.005875505736658077	-0.0014958552668241803
2
123400
Ar	0.00013659111859572694	0.00022648266443645336	0.003205640850702686	-0.00913229689727644	0.022685046647653997	0.0017830095582709194
Ar	5.1859643850123694e-05	-0.00019937233698675817	0.002769109554148918	-0.00034945670940405974	0.0045685210001415325	-0.0014179388136422622
2
123600
Ar	1.9573917195671186e-05	0.00037638602298689547	0.0032108627443652718	-0.013202047247957571	0.005912113263030367	-0.0008459433655506831
Ar	3.716069852150091e-05	-0.00010712061834708949	0.002764647696043389	-0.0024919084449329643	0.013106548746795994	0.0006207785512987874
2
123800
Ar	-0.0001044323741709657	0.00033694520502398814	0.0031922200484419765	-0.010549085411068507	-0.013194405601742537	-0.002368111719605693
Ar	5.227070872553452e-06	4.045767156317117e-05	0.002778831433605807	-0.0036241437274604914	0.015082028636674311	0.0018646877716460555
2
124000
Ar	-0.0001772897209147718	0.00013841835996411842	0.00317935447040553	-0.0036894519913558375	-0.025029194763251564	0.0005133034714315355
Ar	-2.770827180842749e-05	0.00016651356280933735	0.002789239687641922	-0.0025147797918324607	0.00910856505943148	-0.0004005940490978436
2
124200
Ar	-0.0001715191953535384	-0.00012983721624073907	0.0031979799507725454	0.005047353253694931	-0.026309800590814895	0.002312812282294406
Ar	-4.22779006441129e-05	0.0002109984370131998	0.0027744941677236333	-0.0004871349502271283	-0.0006412240909639413	-0.001799180507918574
2
124400
Ar	-8.290080838505643e-05	-0.0003388906032284935	0.003211944301565431	0.011892191991101458	-0.013482389443085458	0.00011032709357693264
Ar	-3.798647238916318e-05	0.000152216965500746	0.0027640528475177013	0.0013157997034517182	-0.010647623341354964	-8.167865192206188e-05
2
124600
Ar	4.507669464381011e-05	-0.00037627044423518596	0.0031999955486004673	0.01256573430012854	0.006156376039117109	-0.0022190883775658147
Ar	-1.7467623524741283e-05	1.5553270302863193e-05	0.002773218706550819	0.002652768723859514	-0.015482144828068096	0.0017150353910161172
2
124800
Ar	0.00014854371833752122	-0.0002313746176770331	0.0031798132403882866	0.007489124774207924	0.021403424298407837	-0.0009566530205130216
Ar	1.0780288973777777e-05	-0.0001294707835284316	0.0027892179080205013	0.002655889564845801	-0.012089198419040896	0.000776594158995111
2
125000
Ar	0.00018629432831788182	2.2177656159291524e-05	0.0031893354696331025	-0.0004095282897911267	0.02755448799302159	0.0023140249660015787
Ar	2.947987891016554e-05	-0.00020843162382564522	0.0027811788266266387	0.0010717927854997013	-0.003227792222367581	-0.0019131676197820487
2
125200
Ar	0.00013721485270261057	0.00027211854999694546	0.0032093891360772285	-0.009087674149510594	0.019961982833870597	0.0011195962384731766
Ar	3.313812576305443e-05	-0.00018676961885318404	0.0027648604933730053	-0.00030794727516235496	0.007481458320858969	-0.0009002062387630658
2
125400
Ar	2.0743444312131254e-05	0.00038505667593572123	0.0032068361127484926	-0.013107942752305032	0.001643707016277185	-0.0015660900136755889
Ar	2.349587741628635e-05	-7.069738729324839e-05	0.002766789767416514	-0.0015909959277626252	0.014723822182280502	0.0012195107976235085
2
125600
Ar	-0.00010267149646013976	0.0003066826269744459	0.003185661808700248	-0.010613185134421409	-0.016339265975774356	-0.001973292369998474
Ar	3.5633411209233412e-06	8.226812482561715e-05	0.0027837395990861153	-0.0021999670854536283	0.014400083339857208	0.0016423177717436136
2
125800
Ar	-0.00017869698809869008	8.563581559957536e-05	0.0031828087397312516	-0.004091071241680162	-0.026453844056174	0.0016040584816687498
Ar	-1.4838991162162113e-05	0.0001918032169863199	0.0027872272576142643	-0.0012451975195862859	0.006801360878519305	-0.001173451716501242
2
126000
Ar	-0.00017468464327733386	-0.00018305719065875542	0.0032048578844473584	0.0050597771610993506	-0.024731884277541298	0.001956325318078714
Ar	-2.245266686496718e-05	0.0002086617720000651	0.002771130471199906	-0.000379672210629542	-0.00371841688994142	-0.0013894417744059915
2
126200
Ar	-8.498193906737267e-05	-0.0003626394637646462	0.003212209492499011	0.012049318119519432	-0.009513257286139208	-0.0006319145293461134
Ar	-2.1995230358585467e-05	0.00012225385900869418	0.002766115030063403	0.00046815345558512823	-0.012861089108815196	0.0004869952239676271
2
126400
Ar	4.467460781911747e-05	-0.0003587576150035044	0.0031948732802939204	0.012724529904834032	0.009991387908937327	-0.0024082663444206258
Ar	-1.2886884345648418e-05	-2.7056888371951875e-05	0.0027788173164124894	0.0013157415591058266	-0.01565803189506151	0.0017288330009793257
2
126600
Ar	0.00015066773892026495	-0.00018471769030688312	0.0031791768370458572	0.007866453364297598	0.02344979539427181	6.722657730352283e-05
Ar	1.147863446724368e-06	-0.00016182314789314796	0.0027893441095982767	0.0012244527265075	-0.010090804420841712	-0.0002767007718095816
2
126800
Ar	0.00019098489545048763	7.92633760679904e-05	0.0031950885792535444	-0.0003865084778185214	0.027182228015999454	0.0022842050443310667
Ar	9.821434875648331e-06	-0.00021625351770757626	0.00277473773571989	0.0006607208701504301	-0.0003275987793365713	-0.0018979132028359945
2
127000
Ar	0.00014027720413665665	0.0003095239538369752	0.0032102323102152996	-0.009321616610914291	0.01663287272008143	0.0003521959315758358
Ar	1.5268929776544114e-05	-0.00016554267350790924	0.0027628698256910713	0.0003727704936360213	0.01009303289606977	-0.0002045271855571851
2
127200
Ar	2.0853887018294456e-05	0.0003826827858729939	0.0032010524844342026	-0.013435007214227088	-0.002509498241696057	-0.0019653867235114738
Ar	1.62759159907359e-05	-3.111829491803843e-05	0.002771505950928606	-0.0002456580276298321	0.015625120878682744	0.0017640092586597206
2
127400
Ar	-0.00010592858428535485	0.0002687141215740716	0.0031812944919914813	-0.011013634484018346	-0.01903069677793315	-0.0011313010186468208
Ar	1.0337694853363856e-05	0.00011924410594254416	0.002789522648887523	-0.0008223880018046135	0.012960340762508108	0.0011395753945143575
2
127600
Ar	-0.00018622510738380257	2.972288368517372e-05	0.0031890498901971415	-0.004374313073225651	-0.027211779243862602	0.0022737245772449107
Ar	3.499595904550678e-06	0.00020786239316372102	0.002784680910974093	-0.0005662792471611953	0.004261262998405524	-0.0017631317422613347
2
127800
Ar	-0.0001818762356402277	-0.00023041492264759604	0.0032096689167813827	0.0053587166713935375	-0.022285715684052496	0.0012412253187869652
Ar	-3.6983711484284907e-06	0.00019675445623302883	0.002767915747640489	-0.0008727841531909066	-0.006545245171970881	-0.0010888734088057856
2
128000
Ar	-8.763261986028146e-05	-0.00037486822619400167	0.003208480455862437	0.012628930136426542	-0.005328140592665006	-0.0014641804394016295
Ar	-1.2429102862165557e-05	8.697863497280596e-05	0.002767260578737557	-0.0007410595808558809	-0.014456365756771845	0.000953810625789068
2
128200
Ar	4.765147043522711e-05	-0.0003312864269653149	0.003186919364320716	0.013291570437146495	0.013333385565226816	-0.0022101374460271562
Ar	-1.6575925698222425e-05	-6.774074016688292e-05	0.002782513889929139	-4.444178409103829e-05	-0.015023942664509857	0.0016474891601048168
2
128400
Ar	0.0001603246653336777	-0.00013306837032540567	0.003179978197781569	0.008541489938043476	0.02500055087491658	0.0012176331394382607
Ar	-1.4674074698197889e-05	-0.00018612999982281682	0.0027870225124894035	0.0002432655749511413	-0.007793065995789344	-0.0010553150929688687
2
128600
Ar	0.00020341651894134998	0.00013346810188738834	0.0032002364311011196	-0.000565576731856348	0.025874106516984928	0.0020021107142354547
Ar	-9.683125528289959e-06	-0.00021364995029188538	0.002770807818809453	0.0009153218072975321	0.002642744775356306	-0.0015180707606155927
2
128800
Ar	0.0001476301751458989	0.00033622615149610653	0.00320937492349709	-0.010099032104485001	0.012792893848052381	-0.0003524439842420233
Ar	2.96647262464518e-06	-0.00013638423663037832	0.002764777287500901	0.0014637330626321087	0.012172885531759919	0.0004274913516590023
2
129000
Ar	1.9756044493496536e-05	0.00036852846008289314	0.003194763574453103	-0.014275904678707763	-0.006394418095880516	-0.002165163232461688
Ar	1.652525758680428e-05	9.804047009028465e-06	0.0027777613412104866	0.0010631887078210165	0.015752802883682165	0.0018801338986139237
2
129200
Ar	-0.00011502001611795852	0.00022453533164911734	0.0031797000350490875	-0.011830331683471891	-0.02109261483785007	-2.3204760192901876e-05
Ar	2.2719986187246416e-05	0.00014982956092096685	0.002791448811752088	0.00024592846646535025	0.010927968247760671	0.00016020113227094106
2
129400
Ar	-0.0002009752984973666	-2.5657162521068508e-05	0.0031957554163679854	-0.004471179376450929	-0.027050844545443764	0.0024274907523171474
Ar	2.2263066114988945e-05	0.0002137183296814832	0.002779295085192101	-0.0005495562720241911	0.001421116194910644	-0.001905869881563348
2
129600
Ar	-0.0001930441566803382	-0.0002683916133400813	0.0032126404099680314	0.006119621106998143	-0.019115856992652492	0.0005077035743090252
Ar	9.930555312752975e-06	0.00017368796399909358	0.0027653335363709113	-0.0018386871604976352	-0.009110731415346771	-0.0005476254866987373
2
129800
Ar	-8.950907757737233e-05	-0.00037422954903149514	0.0032038048051775568	0.013610488289429847	-0.00122349454726182	-0.0020748255648635546
Ar	-1.0748096696013448e-05	4.6189579565370306e-05	0.002770167907925056	-0.0020775546021079457	-0.01526966940175422	0.0013943694985223548
2
130000
Ar	5.507978850587661e-05	-0.0002954928305108363	0.003181043110611592	0.014160193878188095	0.015981813170498658	-0.0016494163359541127
Ar	-2.7268882490293393e-05	-0.00010491304509872147	0.002786486263851638	-0.0011121555911832726	-0.013463393393958892	0.0012273019502268626
2
130200
Ar	0.0001756757281958681	-7.93355854391596e-05	0.0031836233545686128	0.009104334351097162	0.0258750364892093	0.001972565881411236
Ar	-3.340277288741807e-05	-0.00020055331967254672	0.0027834678919535613	-9.621029557861642e-05	-0.005104409499618692	-0.0016370665346260283
2
130400
Ar	0.00021858842828300902	0.00018082487661013277	0.00320487950229282	-0.0011365238762753092	0.02367635548221151	0.0015839763953610594
Ar	-2.5444836959429167e-05	-0.0001993202791846112	0.0027670147541693697	0.0017333884003313752	0.005473071434147198	-0.0011148071432414523
2
130600
Ar	0.00015354271551864995	0.00035078260138294464	0.003208116154768732	-0.011252698586589047	0.00875252878316337	-0.0009632136238195461
Ar	-1.671957221156292e-06	-9.953252467240411e-05	0.0027663475637067685	0.0027979786080165126	0.013665764253634683	0.0009592128431991
2
130800
Ar	1.4434282946449796e-05	0.00034368724396046903	0.003190260744624166	-0.015299121330022527	-0.009798492845894015	-0.002041398914894114
Ar	2.5027043160485242e-05	5.091592169242003e-05	0.002782459609463055	0.0022632325288621637	0.015047946732876414	0.001852587435714096
2
131000
Ar	-0.00013008947020581475	0.00017529195355190977	0.003182424227629679	-0.012730515352716819	-0.022690135024223828	0.0010039166840736984
Ar	4.0659351744738084e-05	0.00017325752113207056	0.002790555432042021	0.000893554479727817	0.008449107402198326	-0.0007416024563828028
2
131200
Ar	-0.00022026279132343393	-7.924401215583484e-05	0.0032019947650832577	-0.004263579100716457	-0.02601713445727636	0.0020588756368627994
Ar	4.0518351917400807e-05	0.00020955834298989025	0.0027748995243920705	-0.0011313557793342008	-0.0015580120860785955	-0.0016676209333877175
2
131400
Ar	-0.00020445955601885467	-0.00029721226179017297	0.00321177477558562	0.007314992728790469	-0.015528528678118641	-0.0003418015663043521
Ar	1.822431574613633e-05	0.0001432301736458548	0.0027661180743126378	-0.003136405316262358	-0.011138910756209354	9.659960889444951e-05
2
131600
Ar	-8.777713715244105e-05	-0.00036358187707140143	0.0031964762287932567	0.014918487199791351	0.002662558641227584	-0.002353758329009266
Ar	-1.6398816275608495e-05	4.928110737001846e-06	0.0027759407808388434	-0.0034048706080158425	-0.015328203784200382	0.0016446876179932095
2
131800
Ar	6.848253875494304e-05	-0.0002546308560631092	0.0031777298751372103	0.015234640295609725	0.018045488161121646	-0.0005341632870689884
Ar	-4.3680526547355876e-05	-0.00013507035852931322	0.0027890423845512015	-0.0019012609565199846	-0.011293119323411475	0.00029941986780801684
2
132000
Ar	0.00019716285374588	-2.689360710381986e-05	0.003190839059049232	0.009337781676033287	0.02587002103403023	0.002427501542777816
Ar	-5.336143900997561e-05	-0.00020518973421037982	0.0027781979891510745	0.00018775600808267163	-0.002297450000961509	-0.0018655659358391107
2
132200
Ar	0.00023501255247551663	0.0002185142154864361	0.0032103377257877127	-0.0022458819754021804	0.020843431278998546	0.0009509560044523651
Ar	-3.696099171818656e-05	-0.00017638866635885008	0.002764382097973538	0.00301134533774831	0.00789010202434178	-0.0005473546739520986
2
132400
Ar	0.00015594913463851015	0.0003524833325543287	0.0032063052034761795	-0.012774874708683503	0.004837571540043541	-0.0016393486305649378
Ar	1.2425030081945047e-06	-5.970181065651874e-05	0.0027696444499253656	0.004265566250249871	0.01445115567109345	0.0015207514399730746
2
132600
Ar	2.8737668229590285e-06	0.0003110836425650681	0.003185815545845598	-0.0165383507330381	-0.01244160454060136	-0.0017407515229745682
Ar	4.027882529178548e-05	8.773969471225778e-05	0.002787725270126829	0.0031456996705889325	0.013601238984962294	0.0015105260537564972
2
132800
Ar	-0.0001524266454754249	0.00012515381147654682	0.0031857430723871575	-0.013480191589186487	-0.023588711028918536	0.0017321034041756765
Ar	6.127480070368669e-05	0.00018806481028145732	0.0027878948149769175	0.000975107203920431	0.005840002465355858	-0.0014749730436592833
2
133000
Ar	-0.00024216888095564048	-0.00012521568842880124	0.003205587550371327	-0.0034414263182951607	-0.02414625412337448	0.0015024456296334901
Ar	5.512676917997797e-05	0.00019692447075560118	0.002770385536999895	-0.0022970984285051836	-0.004240312433284852	-0.001430205613945101
2
133200
Ar	-0.00021274229469196392	-0.0003136407229559003	0.0032082513567380753	0.00902252615717937	-0.011771462164434957	-0.0010317180459287303
Ar	1.8456703035816203e-05	0.00010907335063188699	0.002765723690028704	-0.004696826499571882	-0.012588721180135012	0.0005663007455707538
2
133400
Ar	-7.878518616834334e-05	-0.0003426860615094822	0.0031888735850264718	0.016483325400349802	0.005958543090421079	-0.002292449328559683
Ar	-3.015453627286635e-05	-3.387791660538004e-05	0.0027788544123768404	-0.004525018175536447	-0.014708625156603726	0.0017199625374452127
2
133600
Ar	9.096595395356976e-05	-0.00020950411677599174	0.003177590755072921	0.016386990809336848	0.01961473344709772	0.00071125486170023
Ar	-6.455038161327674e-05	-0.00015762567936299584	0.0027876689853175685	-0.002200377063533617	-0.008960103189356855	-0.0005282045651605807
2
133800
Ar	0.00022501088305897118	2.395939861706061e-05	0.0031973934105024287	0.009029735291046512	0.025162824447334798	0.0023762810792234182
Ar	-7.13853055361836e-05	-0.0002020075909390487	0.0027733356528509487	0.0011153538328160083	0.0004463703321643693	-0.0016071744776946807
2
134000
Ar	0.0002522156684610806	0.00024851090471918587	0.003212013246164052	-0.00392989203360431	0.017628733873233236	0.0002092268720174294
Ar	-4.129957087746364e-05	-0.00014832780733829037	0.0027649024209153925	0.0046326517843089275	0.009864188968662235	0.00010149207897626689
2
134200
Ar	0.00015396472681947283	0.0003459131772254094	0.0032010550847169405	-0.014730232973872682	0.0011577972232751526	-0.002105003385326789
Ar	1.2950919891259392e-05	-2.097049222728782e-05	0.0027753611244942904	0.005683939958758119	0.0145233067476988	0.0017938493291783763
2
134400
Ar	-1.6205948246391833e-05	0.0002748118612597423	0.0031816025178453716	-0.017999920468379064	-0.014503325189513897	-0.0009296368834743378
Ar	6.167080585852327e-05	0.00011642713418967654	0.002791375903764309	0.003681529912751803	0.011541718788217793	0.0007122277343530795
2
134600
Ar	-0.00018269826337018798	7.665491313840907e-05	0.003190185491153833	-0.013936348140810528	-0.023825037331484954	0.002093761442999986
Ar	8.340156151060212e-05	0.00019226951048599051	0.0027830923896847073	0.0003925444100604913	0.003203273507464381	-0.0019112285566166818
2
134800
Ar	-0.0002669895874943592	-0.00016258744770685987	0.0032076687741891216	-0.001975485427820502	-0.021737892462765716	0.0008807987643640857
Ar	6.529965766379563e-05	0.00017519281924284743	0.0027665578697273698	-0.003929156557929882	-0.006572282405930038	-0.0009484451985379966
2
135000
Ar	-0.00021803998534894483	-0.00031892065855671826	0.0032035959923633695	0.01126204668219009	-0.008157014852242774	-0.0016204063395261624
Ar	1.12793022582963e-05	7.135741653380943e-05	0.002767464401471548	-0.0063666512814276694	-0.013319448777804981	0.0011063235464976802
2
135200
Ar	-6.320377257350709e-05	-0.00031525737237479896	0.003183350868333855	0.01826333337517532	0.008540309688709264	-0.0017628677217324735
Ar	-5.029694010979957e-05	-6.849481855070454e-05	0.0027834340117362296	-0.005326244552241933	-0.013305669449903298	0.0015582936345114391
2
135400
Ar	0.00012140359418641634	-0.00016532454046584344	0.003182559341206916	0.017455354527013026	0.02050378187429566	0.0017248917309343212
Ar	-8.807003026994737e-05	-0.00017056185315258786	0.0027860216624206006	-0.0020750633867754305	-0.006402046705488997	-0.0011644896522810643
2
135600
Ar	0.0002563865465611362	6.585140386103736e-05	0.0032048234550962566	0.008072578493904527	0.02365244886317934	0.0019227621707425871
Ar	-8.62526747028771e-05	-0.00018854808596362107	0.0027711072087810095	0.0026334126219671856	0.0029859734431113695	-0.0012304029282584831
2
135800
Ar	0.00026572761376642695	0.0002647651750875687	0.0032117039139644143	-0.006257406368467285	0.014263562985390497	-0.0006608642419816252
Ar	-3.890325860907624e-05	-0.00011447565520173825	0.002768176392305686	0.006398758934619776	0.011175911788355832	0.000665081068099805
2
136000
Ar	0.0001437504247476093	0.0003283371636220336	0.003194563995834454	-0.01693197071256752	-0.0018973122921169445	-0.002326398620062746
Ar	3.0320348953129912e-05	1.683911931935278e-05	0.0027819822408210065	0.006782705192985495	0.013917496576049179	0.0017895187885470332
2
136200
Ar	-4.467423104796864e-05	0.0002353644681578685	0.003179850490072282	-0.019442218166206063	-0.015824906919264504	0.00013697111593812542
Ar	8.484019690509446e-05	0.00013767996592277358	0.0027919860171462915	0.0037923329156553014	0.009084066829879998	-0.00037536943529913486
2
136400
Ar	-0.00021838993177429724	3.204027477609863e-05	0.003195446288861269	-0.013653312524397002	-0.02327077711257936	0.0021533066193834584
Ar	0.000101652541256831	0.00018735268760281088	0.0027768518473480063	-0.0007659950322537336	0.0005454741233505232	-0.0019469656549094508
2
136600
Ar	-0.00028952539993266425	-0.0001893709560205136	0.003208935280208019	0.00017189415920456445	-0.018924123101013823	0.0002201526776443763
Ar	6.764027497222358e-05	0.0001467538578377006	0.0027641365845808984	-0.0057717081875912745	-0.00838829429412799	-0.000329307284254075
2
136800
Ar	-0.00021581735135929532	-0.0003131888730593452	0.00319890705894246	0.013805591595166058	-0.004839414890620749	-0.0019711399259458263
Ar	-3.4719003711303867e-06	3.3566044304304e-05	0.002770962689544252	-0.007815788406821785	-0.013291799586783561	0.0015376683402011388
2
137000
Ar	-3.914595170182537e-05	-0.00028272744453621923	0.003179972774612398	0.02004706997073586	0.010367769384730488	-0.0009980663504559023
Ar	-7.412748189361807e-05	-9.613344036468288e-05	0.002786817634734839	-0.005653814285575234	-0.011311060644588627	0.000982054570600449
2
137200
Ar	0.00015811878110493343	-0.00012198191600305651	0.003188361722029805	0.01794353566400437	0.02078084679586916	0.002194266606780646
Ar	-0.0001102045947740665	-0.00017398085478158724	0.0027822698872504307	-0.001290345450855388	-0.0038333242947869214	-0.0015255454694611363
2
137400
Ar	0.0002862849806382354	0.00010052135553597448	0.0032084762878414014	0.006312726483041722	0.02166741986198194	0.0012018129795072952
Ar	-9.439279433575252e-05	-0.00016754959729036738	0.0027691019896616013	0.004434238971178818	0.005133502724705916	-0.0006942026533097027
2
137600
Ar	0.000272056702690255	0.0002719926121681877	0.0032072489029021014	-0.00896835828069277	0.011093270023326298	-0.0014205371906727377
Ar	-2.842902732440717e-05	-7.915146893560107e-05	0.002771388713219261	0.008127810053700524	0.011800609306393518	0.0011158609160659269
2
137800
Ar	0.00012478177829420824	0.00030597229534987195	0.003186562860842833	-0.019066094134894518	-0.0042940360112209705	-0.002070611497520621
Ar	5.3748943087986104e-05	4.870720392306286e-05	0.0027869264235088416	0.007504769209551359	0.012567267658725692	0.0015193165172879483
2
138000
Ar	-8.043037643423181e-05	0.00019757700663125118	0.003181123539168127	-0.020638667945022556	-0.016651886806892672	0.0012981719200782981
Ar	0.00010975750271620037	0.00014840244866105078	0.002789416887885881	0.0034192426168277736	0.006627760539133923	-0.001280177908387932
2
138200
Ar	-0.0002555433725122755	-5.143179750506583e-06	0.0032012124706247364	-0.012578160368704063	-0.022165248567147952	0.0019044551704330854
Ar	0.00011578260527575084	0.00017367528401586796	0.002771218810977686	-0.002483606305413369	-0.0017763608313319953	-0.0016887725864235456
2
138400
Ar	-0.00030661959968318847	-0.0002062219096195044	0.0032090216574866782	0.0028363397680244646	-0.01616934067729357	-0.0004999437855574731
Ar	6.259570077832421e-05	0.00011508320534383595	0.0027635974321973964	-0.007692221621998006	-0.00946664032912301	0.0002984021464262
2
138600
Ar	-0.00020492984138732967	-0.00030102495138457555	0.0031935054396648364	0.016424431562488895	-0.002119936451674776	-0.0022109517087429455
Ar	-2.4831851849518004e-05	-2.462373199571121e-08	0.0027752998183591697	-0.008977324718831255	-0.012605632479452464	0.001762302674083216
2
138800
Ar	-7.229317555225855e-06	-0.0002505365012008544	0.003178704998442335	0.02166848006601447	0.011598559616035916	9.71429206761635e-07
Ar	-0.00010055059353852365	-0.00011365346368852934	0.0027883295821005596	-0.005579342384981953	-0.008984435464383038	0.00017839125686431413
2
139000
Ar	0.00019916287056129028	-8.406916633167528e-05	0.0031939266190543656	0.017789326784089635	0.020524363383079593	0.0022639936383398577
Ar	-0.00012988787745487238	-0.00016718126542438215	0.002778276916796727	9.426301830111909e-05	-0.0014541647120529589	-0.0015447377858719441
2
139200
Ar	0.0003139907403982961	0.00012550282572401406	0.0032098229989925703	0.0039580602804693155	0.019436111745283	0.0004935163533886743
Ar	-9.547428803176662e-05	-0.0001404155169397765	0.0027680226727925315	0.006530700619627729	0.006628587726945759	-0.0002241842051165917
2
139400
Ar	0.000271542149584652	0.00026999622730059067	0.0032017832221525977	-0.011945617658427322	0.008256285190236844	-0.0019020947384694802
Ar	-1.0313016726035993e-05	-4.501082031276659e-05	0.002775110337077238	0.009702612435635295	0.011642008076434607	0.0014994614975838631
2
139600
Ar	9.870749415722977e-05	0.00028040989737235575	0.0031818654199704953	-0.021073205891312636	-0.00595937862314519	-0.0013145151137677225
Ar	8.114571730542617e-05	7.224082062860596e-05	0.002790630301723665	0.0077250121209664685	0.010629344511233018	0.000990725345577344
2
139800
Ar	-0.00012089539855913013	0.00016194676825360125	0.0031866384746536444	-0.021328228709634075	-0.01702519731096608	0.0019804810404587675
Ar	0.00013364921471690475	0.00014891421917192043	0.0027853932946267754	0.002464470240510161	0.004261188742912132	-0.0017943903704361612
2
140000
Ar	-0.00029025557520760003	-3.524451024870764e-05	0.0032064792528044336	-0.010794937076423865	-0.020652112729959295	0.0013281050353432344
Ar	0.00012332609547955557	0.00015229726748534049	0.002767586132668236	-0.004586396244339547	-0.003618477979040278	-0.0012502476443572313
2
140200
Ar	-0.00031577477992955426	-0.0002138759238639635	0.0032070018545009423	0.005867071514788789	-0.013445649052605662	-0.0012238578252680389
Ar	4.9036860317841106e-05	8.175883201355473e-05	0.0027651335219097206	-0.009650146206394067	-0.009921244958729399	0.0007919504814969407
2
140400
Ar	-0.00018567964828270032	-0.00028298299281358886	0.003187655662101493	0.018846107620169004	-1.2127509663543967e-06	-0.0021002832262900866
Ar	-5.26485904019692e-05	-2.9524436268493052e-05	0.002779984266037053	-0.00970144408971175	-0.01134708071753776	0.0017641216020437063
2
140600
Ar	3.0788084938056145e-05	-0.00021871802743451122	0.0031801760415274645	0.023016045631724772	0.012319864711405197	0.0010603601373992977
Ar	-0.0001278939573070887	-0.00012331918732538238	0.0027878530917195892	-0.004891815642749591	-0.006575326446118466	-0.0006034580368336591
2
140800
Ar	0.00024010051030486917	-5.180368359169117e-05	0.0032000685925043975	0.01679847095793618	0.019711631165455823	0.002055419214519829
Ar	-0.00014308893198349934	-0.00015377091832532392	0.002774859696578685	0.002177813928327384	0.0006697894893586398	-0.0013190711968176195
2
141000
Ar	0.00033412508977284617	0.00014105114987934288	0.0032103053649779924	0.0010579518820785837	0.017059901197548185	-0.00021435058492026636
Ar	-8.611967108577815e-05	-0.0001105126159579291	0.0027692074114313587	0.00874038961278672	0.007623645606287658	0.0003210374920302454
2
141200
Ar	0.000260738387243055	0.00026017685499797567	0.0031967762060537753	-0.014882825418011716	0.0058246233120700305	-0.002128246513238046
Ar	1.636339187776196e-05	-1.3355983640343385e-05	0.0027802450309573176	0.010827331460391602	0.010966590939990896	0.0016383195424051992
2
141400
Ar	6.404057643947141e-05	0.00025278393062571323	0.0031805719195731785	-0.02290527306322737	-0.006975491827918059	-0.0003074205708048477
Ar	0.00011058386230290529	8.831265073902799e-05	0.0027922467779126756	0.007212701984127067	0.008325870199691023	7.387297807174156e-05
2
141600
Ar	-0.00016653455814995624	0.00013014206533522362	0.00319353218280122	-0.021340545297272872	-0.0167996312602374	0.002204065060577031
Ar	0.00015208713649618054	0.00014102634058026894	0.0027793401960963457	0.0007154340718367106	0.001992602347765368	-0.0020179164570911087
2
141800
Ar	-0.00032242076230928175	-5.663323255113547e-05	0.0032098763728405882	-0.00822177176436643	-0.018815951699431403	0.0006020194892899353
Ar	0.00011984902279479899	0.00012600820113362046	0.0027640322248288418	-0.006954848410900205	-0.004906215564425542	-0.0006984024317127379
2
142000
Ar	-0.00031653744747757814	-0.0002126454652821632	0.0032029643390095353	0.00922962370542248	-0.011002865037362246	-0.0018307811876631076
Ar	2.4625974679379696e-05	5.007957980638476e-05	0.002767744363339926	-0.011239009968446382	-0.009634698378194403	0.0013339071927720633
2
142200
Ar	-0.0001568364970685696	-0.00026122795895950577	0.003182193131706646	0.021197511845427428	0.0014243174810676038	-0.0015771501359147404
Ar	-8.462812562209998e-05	-5.038239112067921e-05	0.0027842326539760567	-0.00955984709080637	-0.00947287413014931	0.0013986363870961095
2
142400
Ar	7.658296293046186e-05	-0.00018941526955721286	0.00318383475508012	0.02391912568478806	0.012535493348966434	0.001825936783146857
Ar	-0.00015170168111986148	-0.00012140736609603635	0.0027848958769079155	-0.003523056575547329	-0.004276816140630394	-0.0011996858395118513
2
142600
Ar	0.0002814279470245393	-2.7345927008674548e-05	0.0032042775163238536	0.014970173837403945	0.018484195173168547	0.0015828849032488259
Ar	-0.0001473397279762605	-0.00013188453979960142	0.0027714870013447355	0.00455102100065614	0.0022631547291547026	-0.0009759604181968704
2
142800
Ar	0.00034753346817015696	0.00014771868181024801	0.0032081922882727216	-0.0023116225637153237	0.014925241570545459	-0.0008809511371008031
Ar	-6.751255035447758e-05	-7.97356575686212e-05	0.0027702901751347135	0.01071149942938574	0.007782605621160641	0.0007824171417444379
2
143000
Ar	0.0002414890927648426	0.00024645839383245554	0.0031908982006435727	-0.017748125372681542	0.004136235406083635	-0.0020469230434847
Ar	4.8007870492787495e-05	1.1287448871142432e-05	0.002783914973716692	0.011303788199691758	0.009601984025342578	0.0015370368447018
2
143200
Ar	2.2787088653870317e-05	0.00022852047320047806	0.00318170674098257	-0.02446010169678594	-0.007491133699583718	0.0007574310878182714
Ar	0.00013874549134444247	9.395440515522102e-05	0.002789887041622845	0.006195875254785568	0.006138749077366249	-0.0008215417892352072
2
143400
Ar	-0.00021305645426391556	0.00010514287589743496	0.003199441726625351	-0.02050779906934289	-0.016328799225122717	0.001970867138056361
Ar	0.00016366606443147895	0.0001268428934460678	0.002773438273335397	-0.0016061645638315058	0.00030196574382000804	-0.0017618378871948146
2
143600
Ar	-0.00034792434781274816	-7.020117841317701e-05	0.0032095789780349562	-0.005124260490473152	-0.017127475406228408	-0.00019950122567340736
Ar	0.00010664717282605903	9.907132096501248e-05	0.002763438267227999	-0.009325015420384743	-0.0056074231312853	-4.1957652163676485e-06
2
143800
Ar	-0.00030798100323247324	-0.00020750812536687822	0.003195981123169643	0.01257330937474421	-0.009200277688113448	-0.002190601986869136
Ar	-6.897723847665721e-06	2.344735892203367e-05	0.002772989014533797	-0.012346780612843127	-0.008897909311190432	0.0016788839280380532
2
144000
Ar	-0.00012113811055965237	-0.00024278745352626093	0.0031781697370516825	0.02321921643568297	0.002164142156465185	-0.0005750096270584009
Ar	-0.0001176284036505855	-6.26966445893245e-05	0.002787978435689797	-0.008765155242776393	-0.007420078349002837	0.000647994438605065
2
144200
Ar	0.0001249933311403377	-0.0001676973245451452	0.003189839225286617	0.024099360740035818	0.012475900746121435	0.0023222586192050178
Ar	-0.0001709554027009784	-0.00011265019740596464	0.00278097753907264	-0.0014810567587243621	-0.0023652522272137357	-0.0015629096972775804
2
144400
Ar	0.00031701699023886675	-1.1476899045287627e-05	0.0032092790438418175	0.012424072353047065	0.017349502499138792	0.0010621256866200014
Ar	-0.00014174992845205267	-0.00010817692133475952	0.002768651958345794	0.007172872736201063	0.003261248555254457	-0.0005493616254141022
2
144600
Ar	0.0003505844876538739	0.0001487702805663351	0.003206634813761274	-0.005921555538994823	0.01323246712615803	-0.0014918742889976537
Ar	-3.92620131444893e-05	-5.2606847513709505e-05	0.0027723016032986042	0.01242388316611386	0.007438814088395004	0.001230396338924267
2
144800
Ar	0.00021205303004346213	0.00023270225357053533	0.0031871656539168604	-0.02036992535731421	0.003059391026738341	-0.0017483306702847554
Ar	8.467387647630171e-05	2.8319380825933242e-05	0.0027872397123465385	0.011155130622924166	0.007941700502267439	0.0012588850362005499
2
145000
Ar	-2.589556758129446e-05	0.0002090458681152523	0.003184905629104656	-0.025653595369480375	-0.007683417246841515	0.001355434436901038
Ar	0.00016577314878794252	9.075771213611836e-05	0.0027866961701234626	0.0045975526933127436	0.004083383323184726	-0.001397640428808387
2
145200
Ar	-0.00025951578363915946	8.738992705889543e-05	0.0032019277107979568	-0.018777068675773768	-0.015689848090401606	0.0013645040570813137
Ar	0.00016824187879887855	0.00010648208382322709	0.0027700282554966077	-0.0043297552892682485	-0.0010038198706895385	-0.0013484390454901111
2
145400
Ar	-0.0003657743734570882	-7.740038622124788e-05	0.003204814152790689	-0.0015051102183209922	-0.015734252377074057	-0.0008501468512688606
Ar	8.545616181962354e-05	7.201893518170315e-05	0.0027655849975920716	-0.011506375256280392	-0.005617237322878013	0.0005458524481144392
2
145600
Ar	-0.0002894268417215102	-0.0002005632032646465	0.003188523067220062	0.01586951078929179	-0.00793508828421901	-0.0019504290725000173
Ar	-4.2293845155661746e-05	3.048745641410046e-06	0.0027788362044396937	-0.012862302506890688	-0.007570503516198747	0.0017429035858700808
2
145800
Ar	-7.714194013528005e-05	-0.00022732417197537558	0.0031792124363402194	0.025053389052626808	0.0025859818457983556	0.0007075055291574627
Ar	-0.00014830535340974016	-6.49424876928152e-05	0.0027889451328236103	-0.00752506584878722	-0.0052952595641341	-0.000278206097753699
2
146000
Ar	0.00017702149184201611	-0.00015083001101648692	0.003198078719041828	0.02351299255703598	0.012312467434652667	0.0022436770311391944
Ar	-0.00018299902065884298	-9.64223583416018e-05	0.002776729793032192	0.0010075365428972927	-0.0009201128653008149	-0.001496250524414355
2
146200
Ar	0.00034891864140938875	-6.593258766031988e-07	0.0032118369508041668	0.009184573151144246	0.016335632693893997	0.00017064723898411728
Ar	-0.0001276171624102697	-8.250707002648567e-05	0.0027681159369547397	0.009633882334852208	0.003613077884580419	-8.527077292642184e-06
2
146400
Ar	0.0003454163836545576	0.00014697582945688461	0.003201126019178949	-0.009685993706536639	0.011932628758422888	-0.0020628326081375383
Ar	-6.462463382151184e-06	-2.9685258934891867e-05	0.002776934050640372	0.013530915102509944	0.006528263563176888	0.0015576306995423177
2
146600
Ar	0.00017574644430838604	0.00022091695376226666	0.0031820212491947236	-0.022697895540127997	0.002510644983902788	-0.0009813369958764728
Ar	0.0001186496913474093	3.6584996004235373e-05	0.002790903868719262	0.010298208690463944	0.0060135750333174314	0.0006297979514431891
2
146800
Ar	-7.739904250805972e-05	0.00019542298047854273	0.003188943897408688	-0.026071904299921577	-0.0076013329463356216	0.0019050559836194445
Ar	0.00018482343145690878	7.966587582402816e-05	0.0027832198053017155	0.002488894896962155	0.0024033955416348633	-0.001764337500412743
2
147000
Ar	-0.0003000668984162472	7.787517884064651e-05	0.0032058274572569234	-0.01625156763784154	-0.014897918338651202	0.0009657594783286802
Ar	0.00016224545844622978	8.343698352395106e-05	0.002767685071941086	-0.00694326848245096	-0.0016558437381035485	-0.000915238672429091
2
147200
Ar	-0.00037270987411292705	-7.650848592586243e-05	0.003203473476148012	0.0023037253930076507	-0.014565315425141202	-0.00136408535808256
Ar	5.699635536370222e-05	4.906764668661855e-05	0.002768369308285262	-0.013176556467572001	-0.004961277879800832	0.0010111985811806124
2
147400
Ar	-0.00026170324943741377	-0.00018986740282692557	0.0031852073032355107	0.01871004310591266	-0.007311412407770965	-0.001652100549368582
Ar	-7.8356413351967e-05	-8.214819143780873e-06	0.0027830982369761617	-0.01260254428632867	-0.005953741495933357	0.0014664072173293336
2
147600
Ar	-2.870970097652195e-05	-0.00021515789382024246	0.0031836718804550074	0.02633361965555749	0.002400445896708437	0.0014885491923470624
Ar	-0.0001734523720152326	-5.7959295074348926e-05	0.002786455433330516	-0.005789344581350476	-0.003566531687316319	-0.000955308273108412
2
147800
Ar	0.0002247754260338105	-0.00014189210169233832	0.003203460185073707	0.02196304009759573	0.011802905527996661	0.0017425874694571009
Ar	-0.00018538335894114347	-7.668839126041122e-05	0.0027730155650536703	0.003664949412529779	-0.0001510128601138068	-0.0011710638101612768
2
148000
Ar	0.00036901373796125483	1.034656587087434e-06	0.0032097999088257514	0.005561610858522804	0.015442725611085378	-0.0006268414495476898
Ar	-0.00010446617915521855	-6.0859010996857255e-05	0.0027694281303357452	0.011776677931144928	0.003203305894372363	0.0005600229317595023
2
148200
Ar	0.0003282322823571652	0.00014044068478638263	0.003193513624115101	-0.013129723921364543	0.011270298589982708	-0.0021785021132014223
Ar	3.0473462735633903e-05	-1.6705143747720138e-05	0.0027818179215073784	0.013979365412266747	0.005235286056877309	0.0016034652763517471
2
148400
Ar	0.0001323092291491375	0.00021150878368817196	0.003179736021297505	-0.024515960227719825	0.0026097011236777025	0.00011781466725689372
Ar	0.000149347625140466	3.377354198773106e-05	0.002791059294276089	0.008789693567220654	0.004246800128895079	-0.0003067890136881822
2
148600
Ar	-0.0001292872927304377	0.00018826826520533798	0.0031943264944651285	-0.02564301576388332	-0.0073390116528280714	0.002056628988344218
Ar	0.00019541204715169683	6.2306701947013e-05	0.00277710058252801	-3.09749267954263e-05	0.001425300735204687	-0.0018146521957923803
2
148800
Ar	-0.0003331961632354345	7.457295051332231e-05	0.0032079644555711244	-0.013123282766965928	-0.014389489416674596	0.0003239238525613841
Ar	0.00014626350389990142	6.167223359517768e-05	0.0027651664980889493	-0.009429200401598814	-0.0015574673635852748	-0.00032117107525144096
2
149000
Ar	-0.00036903456099190144	-7.41959137152867e-05	0.0031994405831550594	0.006124359763658328	-0.014024483001762383	-0.0018009607288880208
Ar	2.2097822279176463e-05	3.334645935549747e-05	0.002771832185734363	-0.01431637059924165	-0.003910211969738216	0.0014826757304824557
2
149200
Ar	-0.00022558557374488866	-0.00018397269258045435	0.003181924400694449	0.0211572722489609	-0.007233355568803584	-0.0009830155763232034
Ar	-0.00011413547778028787	-1.0495581419878651e-05	0.0027873143777276217	-0.011624632010748207	-0.004370762448903882	0.0010121958785973425
2
149400
Ar	2.3650811001569732e-05	-0.00021083028709567225	0.0031884621194866254	0.026963941449432937	0.002212322326520111	0.0019524862906002555
Ar	-0.0001928207927451201	-4.471793076616921e-05	0.0027841633956580316	-0.0036099177458586646	-0.00230759675904675	-0.0013718297745795756
2
149600
Ar	0.000268171749748227	-0.00013935134090968664	0.0032064994226638586	0.0195756783643381	0.011563885836744284	0.001091788970045823
Ar	-0.0001790372053591262	-5.584589060329394e-05	0.002771398006145181	0.006380772706086079	0.00011547800834023651	-0.0007702108306927584
2
149800
Ar	0.00037929098489393915	3.3686078977960274e-07	0.003205137881186622	0.001681293757079551	0.01506617020341446	-0.0013244061632849678
Ar	-7.526772822874732e-05	-4.2218390448758043e-05	0.002772475793431385	0.013479832536891544	0.002518370487553517	0.0009622460386228765
2
150000
Ar	0.0003026725191969349	0.0001365286137457547	0.0031859685191113897	-0.016076468139078814	0.011098091148805984	-0.0019097455640607543
Ar	6.743735772768631e-05	-8.861918777473094e-06	0.0027866276925878784	0.013684712033947579	0.0038610144095155784	0.0014498797052530511
2
150200
Ar	8.544639072190554e-05	0.00020890740515187118	0.0031809880620118714	-0.025884725165492898	0.002921422641730518	0.0012180967275842096
Ar	0.0001744320610237484	2.6191023628590648e-05	0.0027896580252351954	0.006994924961542936	0.0027406156625633827	-0.0011281150028481237
2
150400
Ar	-0.00017757633185713998	0.000187317474126009	0.0032006317555007095	-0.02429846117730777	-0.007282202162160171	0.0019490032224985584
Ar	0.0001973132969372424	4.440550774495242e-05	0.0027725393556521987	-0.0027082829773638632	0.0009207065856332937	-0.001642979364838308
2
150600
Ar	-0.00035514409258067213	7.436905789764602e-05	0.0032099154136463743	-0.009552834741167582	-0.01429318077293964	-0.00027047772057875967
Ar	0.00012268333016335982	4.3826260758607486e-05	0.002764373660127664	-0.011600933431380593	-0.0010782136357263643	0.00016610331952632865
2
150800
Ar	-0.00035353040628026346	-7.30938966214866e-05	0.0031965153524170188	0.009664496167866155	-0.013920299069384965	-0.0020447168456268934
Ar	-1.5337721261470832e-05	2.3830828849077914e-05	0.0027746417415738947	-0.014754752443818058	-0.0027887726976135764	0.001617725771917212
2
151000
Ar	-0.0001827278427700931	-0.00018332076117536772	0.0031813460555956906	0.023061284341403507	-0.007452194144754785	-0.0002607222920485346
Ar	-0.0001453957627145132	-6.743401973106504e-06	0.002787253512420711	-0.010079845916878731	-0.0029403649238730245	0.00029775910217457515
2
151200
Ar	7.639333572852496e-05	-0.0002118007437268697	0.0031926135566918293	0.026709931212773767	0.002195999870270268	0.0018863315621477838
Ar	-0.00020322478438830824	-2.9872404324101253e-05	0.0027794288404540783	-0.0010284165159594662	-0.001662636180703417	-0.0013404457674320988
2
151400
Ar	0.00030378498787939773	-0.00013947007714225433	0.0032057410544816664	0.01655660430038645	0.011657882124017388	0.00036868023463395303
Ar	-0.00016225345147835558	-3.927236282397554e-05	0.002770536152321791	0.00891266024894966	-0.00016374725050273125	-0.0001898485509458962
2
151600
Ar	0.00037833304564160937	1.0138767585787106e-06	0.003198378377958095	-0.002177366463686565	0.015148320720567944	-0.0016587830539374338
Ar	-3.967978229662316e-05	-3.246140470982403e-05	0.0027770455528848214	0.014527662546186097	0.0014928779155944213	0.0013787350609521614
2
151800
Ar	0.0002685183060980472	0.00013846416805584643	0.00318135874534864	-0.018594670924040588	0.011326772486111778	-0.0010419366514756452
Ar	0.00010256928869713472	-1.106434030241972e-05	0.002791019503579445	0.01252908672542637	0.0025268485540572497	0.0008763866765876561
2
152000
Ar	3.407433348936175e-05	0.00021380788122359173	0.0031877518441504526	-0.02670854564588702	0.003112814825871869	0.002055951644403737
Ar	0.00019105031509247263	1.13716451185819e-05	0.0027858664579058423	0.00462893409708307	0.001855263368615921	-0.001704592151436465
2
152200
Ar	-0.00022243434755374046	0.00019167356910433718	0.003207982711754711	-0.022122684790605487	-0.007537505060973365	0.0013502752057697161
Ar	0.00018727560197137524	2.629637075596406e-05	0.0027688552118684366	-0.005469780294537668	0.001110828138305285	-0.001225911807661329
2
152400
Ar	-0.000367935310455754	7.536121858446967e-05	0.0032088893917572065	-0.0056960866596306595	-0.014639215538299546	-0.001187744990757936
Ar	8.962883930364465e-05	3.17901213913042e-05	0.00276633730047179	-0.013230152054172202	-0.0001139486161858394	0.0007250369547846189
2
152600
Ar	-0.0003295656484522493	-7.531449152472803e-05	0.003189498949664099	0.012751734997818096	-0.014244330164900728	-0.0021506837724475174
Ar	-5.4741716584532756e-05	2.3432401355668476e-05	0.002780253282025081	-0.014312779541264958	-0.00152294825905889	0.0016504609857148664
2
152800
Ar	-0.00013671999294384096	-0.00019008354282812527	0.003179654796267426	0.024442835026871054	-0.007986922230667961	0.0006406386024575096
Ar	-0.00017049132229574434	5.420616010790332e-06	0.0027878105297450668	-0.00793791448006216	-0.0017669430004379786	-0.0004943199115775643
2
153000
Ar	0.00012504691995998208	-0.0002210197294359069	0.003195651840550654	0.025612464717314896	0.00232232752896285	0.0018129934280728315
Ar	-0.00020292879775517215	-1.0846585628194675e-05	0.0027762504019976223	0.0017954138400472226	-0.001530018324021753	-0.0012377424535314095
2
153200
Ar	0.0003285554537360819	-0.00014505949477570718	0.003205686512871715	0.013181192462128944	0.012191549222339941	-6.414374839881459e-05
Ar	-0.00013608035707307866	-2.4258835119493982e-05	0.0027706016473415377	0.011032844082971806	-0.0010192706616403181	0.00026155906779223485
2
153400
Ar	0.00036655108871720416	1.1925128539136927e-06	0.003195140606321294	-0.005705924369269523	0.015700564150157904	-0.0017533357949455664
Ar	-7.637439283170349e-07	-2.866467337383044e-05	0.0027806994579824247	0.014845022079722856	0.00021732379260516532	0.0015268620946570289
2
153600
Ar	0.00022904899355840038	0.00014444605914085942	0.0031820599094255393	-0.02053212331155957	0.011988934944826212	-0.00018572871141309293
Ar	0.00013386033197099808	-2.022137638323284e-05	0.002791951459433104	0.010817535871709326	0.0012752808461695489	0.000105996476192955
2
153800
Ar	-1.6164590829379605e-05	0.00022469351295179577	0.003194322688534472	-0.026693480544599118	0.0032133000938394983	0.002022836860798847
Ar	0.0002002491588644824	-6.4810044212774805e-06	0.002780648795912521	0.001989943962872096	0.0015351519308763975	-0.001845750180442497
2
154000
Ar	-0.00025840855673767686	0.00019909523886341656	0.0032091577999756034	-0.019439356047992056	-0.008195262426383318	0.0005211475565315189
Ar	0.00016931733477661506	1.0971439125860022e-05	0.0027659010309241503	-0.007981951556648822	0.0018545998910173723	-0.0007385476236909907
2
154200
Ar	-0.00037019175632501213	7.505095535601197e-05	0.003201984390847366	-0.0019994176300475557	-0.015448968418931052	-0.001817421226813577
Ar	5.351684427375927e-05	2.667251907891008e-05	0.0027684761053845164	-0.014215034583808033	0.0011097442398541758	0.0011732045320367386
2
154400
Ar	-0.0002992755732804493	-8.329301883220907e-05	0.003181587890247408	0.015262358654617563	-0.014942060037653151	-0.0015833193526188381
Ar	-8.978908891999931e-05	3.0627941355237315e-05	0.0027837247844879273	-0.01306009529983415	-0.0003217078654928594	0.0013400220213712658
2
154600
Ar	-8.960094912332538e-05	-0.0002042717142097195	0.003182068312899809	0.025298343250796797	-0.008365054090201674	0.0016275226102361899
Ar	-0.00018549326706858007	2.2705513273622955e-05	0.0027854009863964592	-0.0054862178948263205	-0.0011432653717019861	-0.0010043982234562516
2
154800
Ar	0.0001678141172254668	-0.00023357556289783801	0.0032014749955893112	0.02377923958600408	0.0029597636940187997	0.0015817439065368012
Ar	-0.00019135762273195874	6.762449525899809e-06	0.002773827512375738	0.00442678333277329	-0.002072520438070162	-0.0008453888638467655
2
155000
Ar	0.00034262755041861365	-0.000148659150448681	0.003206506067223394	0.009602348444085446	0.013242914404792796	-0.0006498046771003061
Ar	-0.00010310508691053877	-1.568893340613681e-05	0.0027732795289694256	0.012492032969339654	-0.002201368126476988	0.0007469398081932075
2
155200
Ar	0.00034604053499780353	7.511355234133124e-06	0.0031919949516929463	-0.008720240597288887	0.01662602147022883	-0.0017730852728002056
Ar	3.7322439994805136e-05	-3.252043317536542e-05	0.0027860983166941005	0.01432934441954851	-0.0009965975707087545	0.0014382449976077405
2
155400
Ar	0.00018663393190107352	0.00015914012301397167	0.003183639578225151	-0.02194878422118975	0.012722992033227817	0.0005903856434109345
Ar	0.00015692289223336912	-3.475163661727709e-05	0.0027916036906480974	0.008613330560631044	0.00041838213011027875	-0.000752946843047931
2
155600
Ar	-6.280159040996321e-05	0.0002423547522807537	0.003198625306398886	-0.02586797640509928	0.002932686258796712	0.0016874029413791963
Ar	0.00019845888048584896	-2.410585429992565e-05	0.002775809990472132	-0.0006768604617338374	0.0018364345199493612	-0.0017590460366333335
2
155800
Ar	-0.0002842203877436292	0.0002092534133714623	0.0032071928904352544	-0.016326281672033496	-0.009257717787776119	-0.00024628211460025963
Ar	0.00014298827070727981	6.417477992264185e-07	0.0027651503350886743	-0.009995439314720671	0.002902698310965513	-0.00017708709744375305
2
156000
Ar	-0.00036159162492587003	7.337786340918296e-05	0.0031946667536845684	0.0013395438691459877	-0.016599521748880467	-0.0019567363655314174
Ar	1.5155592735554213e-05	2.8544515611307546e-05	0.0027726802630171727	-0.01444177518170504	0.002368877476259294	0.001472148504550856
2
156200
Ar	-0.00026418837095678195	-9.522640352927408e-05	0.0031787019733328136	0.01711703749043814	-0.015873590354044304	-0.0005383533080994537
Ar	-0.00011994625335349222	4.3700320324144005e-05	0.0027864255637460407	-0.011272744610731654	0.0006000010525860709	0.0006904024454916596
2
156400
Ar	-4.352189505137736e-05	-0.00022315881638977408	0.003188781186263982	0.025462787926976628	-0.008585134366916481	0.002064397065912469
Ar	-0.00019311873064088955	4.134215034535578e-05	0.0027815425903914568	-0.0029077844893269774	-0.001166901722139318	-0.0012678427822583876
2
156600
Ar	0.00020235997080969228	-0.00024831069975681614	0.0032065431988934664	0.021389168572207053	0.003937382031240897	0.000972008446312871
Ar	-0.0001729351635810921	1.8844305941404515e-05	0.0027713178644943365	0.006851782140420491	-0.0031873738234253542	-0.000457348160768496
2
156800
Ar	0.00034617069899474856	-0.00015058909040195878	0.003204146215660724	0.006121463076920814	0.014627731082249488	-0.0013594668952680218
Ar	-6.697906123062171e-05	-1.680769397535979e-05	0.0027750099469093727	0.01342693854345604	-0.0035710164897819726	0.0011391692546761317
2
157000
Ar	0.00031829276787936656	1.7977132502063782e-05	0.0031862938637686124	-0.011171346530667847	0.01766211557887468	-0.0015811497585409052
Ar	7.278174525250784e-05	-4.58579303304214e-05	0.0027887327796113433	0.01317068393410708	-0.0019417111780949247	0.001136991203225803
2
157200
Ar	0.00014253463783549909	0.00017859423888204378	0.0031848011471180882	-0.022815332516845317	0.01335252276017362	0.001328764359771336
Ar	0.00017309826380383563	-5.443342512641011e-05	0.0027881218743848984	0.006178773334737356	0.00022246289701601194	-0.0013186986837501143
2
157400
Ar	-0.00010433723412644498	0.0002608526100765569	0.0032016170480712075	-0.024308474989353526	0.0021355462357086946	0.00136468493026727
Ar	0.00018857235671169943	-3.918363102861739e-05	0.0027720759291866666	-0.0032677955436293113	0.002856237987563365	-0.0013455025608035075
2
157600
Ar	-0.0003000890528711122	0.00021550870936420924	0.00320492962675073	-0.013037202368417903	-0.010777389309562678	-0.000794264277550536
Ar	0.00011192081034050833	-1.2729572077341218e-06	0.002767430108060088	-0.011413420341830186	0.0043748368048147305	0.00048277077796352
2
157800
Ar	-0.00034447338535287735	6.497658773227952e-05	0.003189266574189652	0.004292706566285708	-0.017950768179665625	-0.0018909654209017977
Ar	-2.0948062914087507e-05	4.0196793378457555e-05	0.00277934546445361	-0.013931951652749854	0.0034933610094495314	0.0015739713127033495
2
158000
Ar	-0.00022600930297686918	-0.00011536209028798377	0.0031797007935632053	0.018384578390282846	-0.016878464335427036	0.0005134977783116897
Ar	-0.00014133549081386685	6.300539151100547e-05	0.0027886744473566327	-0.00906836224469353	0.00103200308428906	-0.00016404961842266644
2
158200
Ar	-9.55975129130019e-07	-0.000247529589705432	0.0031958889041733734	0.024838406104563036	-0.008237768429142898	0.002045701414654065
Ar	-0.0001903527359794899	5.9462531887035223e-05	0.00277850059249091	-0.0003795492854031769	-0.0019340850612947513	-0.0013209254750808173
2
158400
Ar	0.0002272820599050319	-0.000262176079082019	0.0032089101845426036	0.018672860913845308	0.005531509593058723	0.00023860218869101974
Ar	-0.00014723958350192152	2.5181903042474218e-05	0.0027705492557979217	0.008671697574767186	-0.004664706641565257	-3.5391561433439046e-05
2
158600
Ar	0.00034006948959814395	-0.00014709507781793236	0.0031998687027905643	0.0030193559488390907	0.016356230428209228	-0.0017930738893274796
Ar	-3.080067922047088e-05	-2.5289558888218865e-05	0.002777804039115135	0.013616366350651653	-0.004927989310869809	0.001320073164384932
2
158800
Ar	0.0002874783149010128	3.647038621653309e-05	0.0031828767863030225	-0.012853107608843008	0.018944016104846754	-0.0009103583073918649
Ar	0.00010106278588548252	-6.452625762703182e-05	0.0027895861596584064	0.011436304270872652	-0.002611992722823431	0.0004958155848462446
2
159000
Ar	0.00010192450019981346	0.00020612674874617332	0.0031882205222735615	-0.0230197687146094	0.013617599273928182	0.0016072618939140424
Ar	0.00017965282114334327	-7.488730307027534e-05	0.0027824019592226816	0.003827604057886424	0.0006601882688160072	-0.0015810235766370256
2
159200
Ar	-0.00013627432002938795	0.00028201850455974737	0.0032025937472010615	-0.02241701424647164	0.0007258099260543816	0.0007870035333084658
Ar	0.0001715723535103105	-4.952056015327753e-05	0.00276885521606664	-0.005432427738076244	0.004301218422333223	-0.0007521781190037397
2
159400
Ar	-0.0003061929569191569	0.00021841973574356356	0.0032002110289569966	-0.010077919561742246	-0.012809794584978865	-0.0012112007135747303
Ar	7.90701856140268e-05	3.917023733673027e-06	0.002770421847275829	-0.012286565877757533	0.005896532005741286	0.0010119059563244283
2
159600
Ar	-0.00032340866290287324	4.942233484627066e-05	0.003184238804455715	0.006512436084354936	-0.019501610481551704	-0.001449724590649236
Ar	-5.296864078809697e-05	5.773280450090965e-05	0.0027846158592568153	-0.012879526322490377	0.00433886837546091	0.0013841195401408071
2
159800
Ar	-0.00019003367748521085	-0.00014313149895387126	0.0031830084333216587	0.01926955791454495	-0.01767668712765805	0.001338055329926449
Ar	-0.0001551722315656935	8.470614714497619e-05	0.0027882975904433616	-0.006795562848754189	0.000958063154221742	-0.0008018590118404633
2
160000
Ar	3.4949516897282884e-05	-0.00027481202169646866	0.0032012862655439616	0.023798007361363057	-0.007260195395998201	0.0016437071952500719
Ar	-0.000180636534024267	7.406945046395506e-05	0.0027760591184702353	0.001958871832767904	-0.003219430843896639	-0.0010973123177620298
2
160200
Ar	0.00024366593592213973	-0.0002730784618000563	0.0032074565383552757	0.01602742379193442	0.007626796108253313	-0.0005409325636841621
Ar	-0.00011796167846353315	2.4354512240950765e-05	0.0027720920338964398	0.010034800480604266	-0.00628770422724258	0.00038445299169125464
2
160400
Ar	0.00032904105519242926	-0.00013699847934036316	0.00319299617856865	0.0004806785601055582	0.018275792891212478	-0.0019383667073889187
Ar	3.2902468368191206e-06	-4.057112791615737e-05	0.002782131337711406	0.01314291764584096	-0.006064649002473664	0.0013538067454865808
2
160600
Ar	0.0002571996470221957	6.233675196074517e-05	0.0031803729322921886	-0.01412364926454366	0.020185442716750754	1.0943501172568837e-05
Ar	0.00012067690863971476	-8.655778900227463e-05	0.002790064002310561	0.009228021178243818	-0.0028268602773977745	-0.0002331446585726993
2
160800
Ar	6.530906833347631e-05	0.00023780342366325752	0.0031923387519650495	-0.02282677039841057	0.013287097895467857	0.0017499961267228275
Ar	0.00017541562939891775	-9.374267703357318e-05	0.0027784246614590744	0.0013449241075088557	0.0016261427814787009	-0.0015365911903718699
2
161000
Ar	-0.0001605912679627383	0.0003015764029364975	0.0032041510012547356	-0.020255890293504327	-0.001223597745369526	0.0002960602394304866
Ar	0.00014529811343449132	-5.410365092576817e-05	0.002768206927615348	-0.007136823910421555	0.006013988812217624	-0.0002626680093687636
2
161200
Ar	-0.00030465926650975284	0.0002159691760146873	0.0031969850375007823	-0.00734941747511565	-0.015041917230773666	-0.0015390076063281429
Ar	4.391497252763326e-05	1.6035151688458294e-05	0.0027741112498288483	-0.012291352696083023	0.007365986678244248	0.001313167773989551
2
161400
Ar	-0.0002989165115712285	2.7922262517064918e-05	0.003182134363633286	0.008156746531587156	-0.021026836806244703	-0.0007754597546601255
Ar	-7.924744658198447e-05	7.980413346278425e-05	0.0027876531420791962	-0.011115694537918745	0.004782063847096521	0.0008887619544801952
2
161600
Ar	-0.0001549659972641444	-0.0001753406449102518	0.0031883773190182034	0.019707145379816243	-0.018090666397224325	0.0017587775652178977
Ar	-0.0001592340902547141	0.00010613856447464427	0.002785130113309352	-0.004374860564281496	0.0003071296268442494	-0.001158088111335746
2
161800
Ar	6.527687132753747e-05	-0.0003009476188427215	0.003204684687509207	0.022328881062978145	-0.005722011818367698	0.0010033274787136109
Ar	-0.00016132006569410386	8.229632294274305e-05	0.002773962644862021	0.0040068167781186674	-0.004970063284651141	-0.0006774136780279318
2
162000
Ar	0.0002521714738808462	-0.00027830005894585437	0.0032038358383792887	0.013388152916469689	0.009997922318046647	-0.0011594160904274018
Ar	-8.503318367780578e-05	1.4500473840534664e-05	0.002774755235911578	0.010619803365520354	-0.00797977022809482	0.0008246884772053214
2
162200
Ar	0.0003124983677750695	-0.00012043509539544673	0.0031869002419297634	-0.0016028649804040434	0.02010563445152873	-0.0016822675502382045
Ar	3.30030802074553e-05	-6.29441941348944e-05	0.0027867689255349376	0.011892343624576756	-0.00676210293502093	0.0011664250251524014
2
162400
Ar	0.00022686234017059917	9.321265597331962e-05	0.003182040439925671	-0.014907101107320254	0.021179242134071272	0.0009755052926070905
Ar	0.00013077032519040647	-0.00011002871623680859	0.0027887681023240846	0.006867491449099131	-0.002394510237038569	-0.0009635932624776879
2
162600
Ar	3.395797515195663e-05	0.0002695302169722293	0.003197918163379584	-0.022085710840561837	0.012359493271716383	0.0015679039557177637
Ar	0.0001622391763360007	-0.00010618711786134637	0.0027742775101399007	-0.0007997316750740779	0.003283872821718605	-0.0013710048864300779
2
162800
Ar	-0.00017626656850337335	0.00031590645423810467	0.0032049116073834577	-0.018036827610203657	-0.0035617056558626668	-0.0003394938909867004
Ar	0.00011557832085887567	-4.803338741587949e-05	0.002767952512987928	-0.008169789099241005	0.007859965052524523	0.0002374813978082076
2
163000
Ar	-0.00029616944241865433	0.00020579762392145036	0.0031930597097937076	-0.005043888325805333	-0.017339267221023386	-0.0017169069339709815
Ar	1.2161994725641567e-05	3.716877881673658e-05	0.002777955104632293	-0.011621769388880383	0.00839686044102671	0.0015104009517318163
2
163200
Ar	-0.0002733331573230277	-1.0157909640748325e-06	0.0031815745927566935	0.009227098796528768	-0.02245014507712511	-9.09028737983793e-06
Ar	-9.584152412654767e-05	0.00010485194391182335	0.002789228335539368	-0.008926606367510397	0.004628644961355546	0.00025668984247888586
2
163400
Ar	-0.00012420175012858232	-0.00021201273140341724	0.0031933137620968025	0.019579859062194217	-0.017915315362829098	0.0018058224054222475
Ar	-0.00015317963923944827	0.00012376872987417294	0.0027821384383962307	-0.0022104635236013287	-0.0010786284766686528	-0.0012083751427006443
2
163600
Ar	8.661214056007542e-05	-0.0003254360694013017	0.00320587468042252	0.0206647399034718	-0.0036167059979073614	0.0003716702928317389
Ar	-0.00013676907002387913	8.21405359529912e-05	0.0027738067633948974	0.005373529617015361	-0.006927120470657474	-0.00022932010862611985
2
163800
Ar	0.00025276880097742675	-0.00027767183398178576	0.0031989095423232325	0.011126675791753575	0.012646346167365964	-0.0015904496452693092
Ar	-5.429683812514421e-05	-3.410695244410874e-06	0.0027786260746813546	0.01045299307439481	-0.009377068509819404	0.001080581244859557
2
164000
Ar	0.0002935045345917196	-9.691290354407205e-05	0.0031823020638633574	-0.003055446352182136	0.021976759463358704	-0.0010985889983325477
Ar	5.463094744122671e-05	-8.849977398623234e-05	0.0027894426860024437	0.010264001699525054	-0.006858822148889281	0.0006213240786967933
2
164200
Ar	0.00019859445969375712	0.00013041592012258358	0.003185675878621867	-0.015349591260252721	0.021836519933349178	0.0015986477152313816
Ar	0.00013274180369982815	-0.00013090454082622337	0.0027842710388712023	0.004840143370369586	-0.0013529594792418267	-0.0014895719068832628
2
164400
Ar	8.222306552734478e-06	0.00030189217280986554	0.003202606353442092	-0.021080102973601775	0.010720438651767496	0.0012096656931001397
Ar	0.00014548923567479397	-0.00011112554622445414	0.0027697766406274906	-0.0023820932108842455	0.005285621720141353	-0.0010046028780555714
2
164600
Ar	-0.00018570822302867336	0.00032462112670762636	0.003204064940218214	-0.015942617962236335	-0.006361266043475868	-0.0009484662264653507
Ar	8.841227354743952e-05	-3.326872153032808e-05	0.002768613880084011	-0.00859306425150456	0.00960267458308404	0.0007957707986615432
2
164800
Ar	-0.0002851084462207273	0.00018789825424213942	0.0031883249577855702	-0.0032791862567055066	-0.01964895662525255	-0.0017124764990316022
Ar	-1.2206071265088023e-05	6.396655738090036e-05	0.002782349299889483	-0.010604264010476754	0.008938995722954127	0.0015638193046483239
2
165000
Ar	-0.000250213444572733	-3.6657579719562094e-05	0.003181503754625289	0.009934911796784162	-0.02370033841591141	0.0006663017167345931
Ar	-0.00010359349168863456	0.00013015327562339234	0.0027901241466523727	-0.00689380445155566	0.003887863545230882	-0.00034796463587209383
2
165200
Ar	-9.864823089568614e-05	-0.0002502279461947582	0.003195817153309084	0.019217975979969163	-0.017010035425132436	0.0015747337325422877
Ar	-0.00014152354099667173	0.00013577874950834436	0.002780314714410182	-0.00046195056097859987	-0.002965196170620265	-0.001116183768610505
2
165400
Ar	0.00010172076703513343	-0.0003444309558123724	0.003203858728821331	0.01899854569496049	-0.000913029610488355	-0.0001603132466793575
Ar	-0.00011188146639087356	7.35460308814323e-05	0.0027747700562120014	0.006146221978445921	-0.008963062364561297	0.00013251192148752843
2
165600
Ar	0.0002488136525693158	-0.0002680158498845878	0.0031933992625356915	0.00920832838782901	0.015368146102754813	-0.0016170736591489194
Ar	-2.8236880594639873e-05	-2.7961806531225695e-05	0.002782270728674801	0.009873986764259018	-0.010406686980646698	0.0011612423213652322
2
165800
Ar	0.00027511959431754786	-6.460837252420719e-05	0.003181675538895635	-0.003962480836099452	0.02369033641863655	-0.00014839265328331415
Ar	6.759042442243007e-05	-0.00011576107369244275	0.0027902583693258836	0.008326687521032666	-0.006426342817007798	-3.243005973394206e-05
2
166000
Ar	0.0001751283547214958	0.00017254293128425731	0.0031927220229093964	-0.015447836734565281	0.02178532585144846	0.001828435098207287
Ar	0.00012522520351085587	-0.00014827730069708032	0.00277997523810309	0.002923739563781615	0.00025253400863607797	-0.001570725042566296
2
166200
Ar	-1.0198863017960783e-05	0.00033125907169157014	0.0032062096831994495	-0.019958162408225434	0.008388603955459392	0.00047739219185620186
Ar	0.00012275522672741085	-0.00010830030849904723	0.0027684268714041585	-0.00342342665334706	0.0074783073283460335	-0.0004469221305940771
2
166400
Ar	-0.00018871383393744297	0.00032520489836057674	0.0032000320957624563	-0.014168771475653246	-0.009434013048090398	-0.0015583526650193695
Ar	6.189366375167398e-05	-1.125628529414046e-05	0.0027725278753234304	-0.008271099863806383	0.011065705535090313	0.00117800795033142
2
166600
Ar	-0.0002722012556911994	0.00016136592492687542	0.0031826794439827415	-0.002075769468199984	-0.021826146987784324	-0.001315975131799947
Ar	-2.9068184523079498e-05	9.316257656557907e-05	0.00278657443857519	-0.009032382237609498	0.008848301504479449	0.001180342060510635
2
166800
Ar	-0.00023005166079664494	-7.866397647117311e-05	0.003183125376371199	0.010274541019614173	-0.024488932252941405	0.0013542685324154067
Ar	-0.00010160445722416143	0.00015215652460383284	0.002787849280587151	-0.004953161374413396	0.002587979500763105	-0.000901902501420818
2
167000
Ar	-7.943152306514345e-05	-0.00028786346306332756	0.003199472243843352	0.018608718523723308	-0.015297016596940405	0.001333189006066755
Ar	-0.0001228124657695096	0.00013946427966323892	0.002776946697260677	0.0008531644561986475	-0.005163246997262415	-0.0008369969948965717
2
167200
Ar	0.00010998540567109672	-0.0003560011463629967	0.003203166201878451	0.017545988974895396	0.0022890776048233572	-0.000657052428707724
Ar	-8.587294735021273e-05	5.626628169861438e-05	0.0027753118973019545	0.0062586723044770415	-0.010744854418456736	0.0005758913810789386
2
167400
Ar	0.00024225919192636075	-0.0002486520644081692	0.0031901482006277135	0.007918545315945198	0.018055084033968664	-0.001544871200713666
Ar	-7.686807211451922e-06	-5.693324725124447e-05	0.0027854802601561027	0.00869268576754449	-0.010823655414821375	0.0011365596827933846
2
167600
Ar	0.00025966693851311486	-2.4838487251747286e-05	0.0031831847911245946	-0.004459442567731621	0.02505996855323904	0.0005226692872058341
Ar	7.133477196116687e-05	-0.000141274953227824	0.0027896135062384013	0.006391175861194825	-0.005428076996453569	-0.0006325176568076712
2
167800
Ar	0.00015727605648760577	0.00021542791722126958	0.003196278330642063	-0.01536114371807392	0.020844862560207088	0.0014677955582955077
Ar	0.00011194828610943417	-0.00015819394480220882	0.0027767529330850866	0.0015129799207014361	0.0023160085454577957	-0.0014189915718793309
2
168000
Ar	-2.2268052819477973e-05	0.00035347495514355154	0.003203450253335743	-0.018919622154034872	0.005435995173112718	-0.0002245112251472122
Ar	9.958946353752877e-05	-9.653619827065749e-05	0.002768863944934303	-0.0038985958487942904	0.009499243510061678	2.232827432352974e-05
2
168200
Ar	-0.00018807126109805485	0.0003154997148007559	0.0031923807714404483	-0.012852024233064252	-0.012509149647004069	-0.0016975690545273266
Ar	3.9683233290683e-05	1.5522670388483063e-05	0.002776690527499806	-0.007599039166439825	0.011922220146196037	0.0013518729231968094
2
168400
Ar	-0.0002612350356929396	0.00012713187692861281	0.003179249326545389	-0.0014243616177743918	-0.023581564833078567	-0.0003252891612204
Ar	-3.8650580110000995e-05	0.00012001940909183906	0.0027886770977743254	-0.007249657014561059	0.008046219387952433	0.0005522770858862358
2
168600
Ar	-0.00021532817601427456	-0.00012302603117685958	0.003189430955692901	0.010441271176471844	-0.02448503110614222	0.0019000207366851657
Ar	-9.292428890041021e-05	0.0001656867831924156	0.002783903150449248	-0.003336236572732099	0.000730800185715162	-0.0011449407218715754
2
168800
Ar	-6.644078422144448e-05	-0.0003190507087990712	0.0032053459579468495	0.018061379786806813	-0.012819576934726089	0.0008555930597035633
Ar	-0.00010206353622388275	0.0001312521245158147	0.0027744322050078417	0.0015869666244981199	-0.0074083987817955485	-0.00043397673162822305
2
169000
Ar	0.00011414428949821079	-0.0003563283132190214	0.0032029479910370895	0.01645509542992266	0.005599737416762773	-0.0012532991988678196
Ar	-6.314572949542168e-05	2.9452196853934065e-05	0.0027772904587700085	0.005888326475793261	-0.012062976003702989	0.000914474498622092
2
169200
Ar	0.00023628225132424487	-0.00021977512896622096	0.003186709800237305	0.0071254221874272605	0.020374003612844898	-0.0014328685690503248
Ar	6.0785162318023295e-06	-8.875055747952994e-05	0.0027882238664722293	0.007298256786389958	-0.010452408766809322	0.0008756819982248632
2
169400
Ar	0.00024863639033653734	1.9694328763838203e-05	0.003184260053847015	-0.004758790199624765	0.025842234529402958	0.0009739774427243738
Ar	6.85999662651193e-05	-0.00016221322518668758	0.002787059596220414	0.004698580324713869	-0.0037872447685710483	-0.0011310896596352336
2
169600
Ar	0.00014516651450688752	0.0002555767827278663	0.003197073280918974	-0.015168829414985012	0.019098871732718573	0.0010594364294286565
Ar	9.51780891553638e-05	-0.0001581228378131745	0.0027736982045749132	0.0004892411164713282	0.004720622399597727	-0.0011002010807739046
2
169800
Ar	-2.9086977335198315e-05	0.000366460738548134	0.003199573436908063	-0.01809793185930379	0.002086804890851539	-0.0006203857511184812
Ar	7.763859463182648e-05	-7.466710267656078e-05	0.002770243821505758	-0.003874045100431614	0.011269794194969165	0.0004737748203175161
2
170000
Ar	-0.00018606414923295995	0.00029583909266284034	0.003187384922475835	-0.01203066033752506	-0.01542053314561485	-0.001427323457174183
Ar	2.3358881662961628e-05	4.7642738909076214e-05	0.0027810080394503117	-0.006514846484524629	0.012078330266903001	0.0013765538436514115
2
170200
Ar	-0.00025381558041342046	8.57413804656579e-05	0.0031817476196256463	-0.0011563437803962964	-0.025007095629020707	0.0007051459158755941
Ar	-4.0247402570386975e-05	0.00014517761346823834	0.002788909637824462	-0.005548072355972007	0.0066708454914690745	-0.00015183441147910876
2
170400
Ar	-0.0002057924769211466	-0.0001683268235749406	0.0031972622417429136	0.010604208766951503	-0.023632368103713663	0.0017669896981868981
Ar	-8.009163319677187e-05	0.00017201122993382574	0.0027804511757137905	-0.0022456971082734306	-0.0015895959822118133	-0.0011007876941700274
2
170600
Ar	-5.805201731006416e-05	-0.00034404028058833576	0.0032071685052950734	0.01762667160990558	-0.009833802261245802	-2.5454226303526798e-05
Ar	-8.26162263986194e-05	0.0001142848298454355	0.0027739918528413487	0.0017874951343202672	-0.009482231520612354	-9.182178286216358e-06
2
170800
Ar	0.00011629229319524616	-0.0003481473535392672	0.003197038659991068	0.015718191419670863	0.008879150254178072	-0.0017714001966048758
Ar	-4.661368643537823e-05	-2.1397058472011565e-06	0.0027803301821814346	0.005121232350145684	-0.012754462118787432	0.0010960829526601582
2
171000
Ar	0.00023224029859557786	-0.00018521222697891998	0.0031810011700428706	0.006752375284636273	0.022266644492213935	-0.000827705570605235
Ar	1.0965419975344002e-05	-0.00011758502277731261	0.002789776109102272	0.005778243821390035	-0.009296732370615558	0.00032801229172198194
2
171200
Ar	0.0002428501571800705	6.528864140847878e-05	0.0031859457471396183	-0.004916407846320547	0.02595712825810107	0.001525245023824108
Ar	5.8157621429450716e-05	-0.0001745639056023418	0.002782975451270906	0.0034064651349012902	-0.0017159486022207185	-0.001403195746877334
2
171400
Ar	0.00013844495245522669	0.00028955565131027767	0.003200280334153757	-0.015135027601232387	0.01676535271817191	0.0008802570797087985
Ar	7.649490432549508e-05	-0.00014768234643448982	0.002770747872818654	0.000132236629144152	0.006939978051286527	-0.0007004411260593421
2
171600
Ar	-3.350706878197455e-05	0.0003704883348449953	0.0031998160591197125	-0.017716119626722208	-0.0012573315238076492	-0.0009276085257840217
Ar	6.010878056106368e-05	-4.625614043229037e-05	0.0027719398764383995	-0.003308273096179146	0.012481139356751297	0.0008767449391947776
2
171800
Ar	-0.00018619736264202313	0.000269976466001996	0.0031870227319280675	-0.011660804320303168	-0.017771720138342058	-0.0011504421282835606
Ar	1.5205905609076322e-05	8.004196285473053e-05	0.0027844188104030328	-0.005271365107320263	0.011589437257661322	0.0012174837139893831
2
172000
Ar	-0.0002522024832727508	4.365355640893364e-05	0.0031859604796976495	-0.0010314215130632191	-0.02591837105846335	0.0010213890600715004
Ar	-3.441543952214675e-05	0.00016576036588624433	0.002788092056470382	-0.004231295000341353	0.004938437042326519	-0.0006074119350790984
2
172200
Ar	-0.0002019444453034579	-0.00020820683236683822	0.0031996941200701113	0.010808669491717951	-0.022153673739820114	0.0011760114849397874
Ar	-6.477275058158419e-05	0.00017160176374852383	0.002778533061777907	-0.0016907259267756635	-0.0039241030648428715	-0.0008833395113808571
2
172400
Ar	-5.301639257121486e-05	-0.0003592437341623006	0.0032026153277158534	0.017608381609618525	-0.0066479395302683885	-0.0006856886771654301
Ar	-6.603763406444825e-05	9.25600495154287e-05	0.0027753240916766025	0.0014555063005385503	-0.011210136797229152	0.00031506978301308467
2
172600
Ar	0.00011958229795253295	-0.0003319122132815671	0.0031893034727769813	0.015430020949662275	0.011665375589398255	-0.0016330537203752544
Ar	-3.710242739526756e-05	-3.360880117139816e-05	0.0027832762042052247	0.004117011091642251	-0.012896550116213512	0.0010309714377436372
2
172800
Ar	0.0002337888373783562	-0.00014788544803597334	0.003180059664144711	0.006692735964186906	0.02367558251229171	0.0002426331095403045
Ar	8.07543351847348e-06	-0.00014226557278083983	0.002788441739983591	0.0044163682966734934	-0.007928318036540831	-0.00033774492462390415
2
173000
Ar	0.00024242554970591902	0.00010806615077686982	0.003192408323534699	-0.005252079222992577	0.02538791536184756	0.0017153021064766594
Ar	4.4833905560378666e-05	-0.000181079781318667	0.002778178226294872	0.0028030983466626348	0.0005085740111843808	-0.001311410888682191
2
173200
Ar	0.0001350898844570083	0.00031509409944823743	0.003204280928681422	-0.015335049777374897	0.014043776261825132	0.00036043945317142996
Ar	6.143202755712214e-05	-0.00013141499962621806	0.002769904288195473	0.0003718860650126017	0.009055757749200163	-0.00013920680547194246
2
173400
Ar	-3.728549738706307e-05	0.0003648446694856197	0.0031983113781951377	-0.017612716137312	-0.004411982424373466	-0.00137348206045927
Ar	5.0800565473899756e-05	-1.4616325464099228e-05	0.0027763044911031675	-0.002427678822486748	0.013252549018365247	0.001253190574441087
2
173600
Ar	-0.00018920350746159636	0.00023802150002768773	0.00318457781120556	-0.011675064268126999	-0.019740452609104155	-0.0008332638514993834
Ar	1.644233015555213e-05	0.00010987146435989283	0.0027886797270980997	-0.00406814958252832	0.0104904223646073	0.0007495289230435859
2
173800
Ar	-0.00025497103790849497	-6.418130269280349e-07	0.003187861855616639	-0.0008708676920655299	-0.026257184839267894	0.001283984055603617
Ar	-2.210187816177037e-05	0.00017907680558479854	0.002786389843896149	-0.0034152748710221527	0.0028971304127545774	-0.0010251471081260636
2
174000
Ar	-0.00020165351270897168	-0.00024363847720882534	0.0032002001645827214	0.01118926377285753	-0.020072949470490008	0.0007454821204917959
Ar	-4.907747064079073e-05	0.00016244730760616108	0.002776268213996526	-0.0018078339674711282	-0.006191168916768871	-0.0006773731630911673
2
174200
Ar	-4.9708973820616653e-05	-0.00036608496090331056	0.0031989069553404717	0.017812925285329677	-0.0033488614790613074	-0.0009466696040497398
Ar	-5.509991046761482e-05	6.476434112097461e-05	0.002776103853789572	0.0007047544092071115	-0.012511464403226914	0.0006338976977452413
2
174400
Ar	0.0001240974692487736	-0.0003081662621354526	0.003185866205888916	0.015554006779978697	0.01422559793600573	-0.0012175410451456667
Ar	-3.574561871583527e-05	-6.600477449700765e-05	0.002785492390900235	0.0030132897033198513	-0.012413154499040171	0.0009050040514073666
2
174600
Ar	0.00023950112761966615	-0.00010602210865360565	0.003184087184491771	0.006710632167474366	0.024754354699537306	0.0009883621046591893
Ar	-1.642280097421252e-06	-0.00016220536064619125	0.002786694184259912	0.003478914090416096	-0.006111605288331604	-0.0007837453786104947
2
174800
Ar	0.00024549899469897886	0.00014991667915936727	0.0031985783316367264	-0.005767601980369892	0.024194089117003496	0.0013565729689395626
Ar	3.0332475833470042e-05	-0.00017939912308574438	0.0027752952842057233	0.0027715878335865043	0.0029019967210824585	-0.001057001306711321
2
175000
Ar	0.00013216171628024375	0.00033415155469469863	0.003203838026364642	-0.015872367539200363	0.010966442868907638	-0.0004407637895920699
Ar	5.01722956089165e-05	-0.00010779529150123779	0.0027713720229978287	0.0010145268422253077	0.01082184716937523	0.00036779076574356133
2
175200
Ar	-4.4166147771561836e-05	0.00035168846401478375	0.003191885447441523	-0.01786203107560181	-0.007393521586419758	-0.001597554877175675
Ar	4.795126286514179e-05	1.903571136131443e-05	0.0027810609448139937	-0.0014642708634757472	0.01341393644313682	0.0013280002206834767
2
175400
Ar	-0.00019796989788534823	0.00020215999307313071	0.003181489859246964	-0.011846619555330597	-0.021267863827804684	-4.21776250673365e-05
Ar	2.3909412277671333e-05	0.00013588934652246224	0.0027903512652054188	-0.0030639898362858817	0.00893476708095268	0.00014131266061381261
2
175600
Ar	-0.00026339998585838266	-4.372814526112094e-05	0.0031911389111447426	-0.0005009683504633531	-0.0259733207312391	0.0015178486380858886
Ar	-7.727091890423224e-06	0.00018525917376699971	0.0027838192620780306	-0.0031439171587519504	0.0005771584852565208	-0.0011007516640596806
2
175800
Ar	-0.00020372601322715222	-0.0002722570606308021	0.0032020601272061996	0.012012260683448642	-0.01756649741130903	0.0003833374360285844
Ar	-3.6248311410214634e-05	0.0001454458625104153	0.002775845980941268	-0.0023481698379675666	-0.008262311632786673	-0.00026271585044579414
2
176000
Ar	-4.436754160615369e-05	-0.0003648862599151867	0.003196873758714621	0.01841894854111724	-0.0002263464357530754	-0.0012532985808049017
Ar	-5.0097584897077554e-05	3.2964313627414354e-05	0.0027796037959436607	-0.00026463798389986747	-0.013246731244923508	0.0008821454123215701
2
176200
Ar	0.00013395180146835492	-0.0002801787670940343	0.003184128815278881	0.015868455380226118	0.016282075980735142	-0.00078337739969947
Ar	-4.064498890898781e-05	-9.603975828551319e-05	0.002788512536179803	0.00206055280891712	-0.011298234147644378	0.0004903068407408847
2
176400
Ar	0.0002513505580637291	-6.420389409652084e-05	0.003187422262340456	0.006634580587971892	0.025355769011265027	0.0012751228563714855
Ar	-1.4264540851709206e-05	-0.0001752268448258671	0.002784409074245152	0.0030401463371698347	-0.003985278642241361	-0.0011680250168656851
2
176600
Ar	0.000252278515664126	0.0001862427367443933	0.003200288270420151	-0.0066276199649445405	0.022434983812607695	0.000847211399823657
Ar	1.7851328245994068e-05	-0.0001696746002744527	0.002773229419119227	0.0032032417828637126	0.005135169759249409	-0.0007354939126583684
2
176800
Ar	0.00012938576648528505	0.00034478969007469196	0.003200300973782482	-0.016842994433317122	0.007890993196103218	-0.0008583336170396482
Ar	4.474660473862203e-05	-8.005676447771061e-05	0.00277317813440301	0.001897896310907276	0.01203681253760435	0.000726502929970322
2
177000
Ar	-5.5006042446454895e-05	0.000333039880187937	0.0031873362488629444	-0.018455487297363855	-0.009907025197832705	-0.0013331528483342674
Ar	5.180898405929489e-05	5.033328498457796e-05	0.0027844528087714445	-0.0005728919809350481	0.012841118625993003	0.0011845233738554705
2
177200
Ar	-0.00021284120998035482	0.0001650856929578979	0.0031829352937078467	-0.011988178508650381	-0.022459259563284616	0.0006961269370972191
Ar	3.570176422966028e-05	0.00015373852006360007	0.0027889967778620315	-0.0024146856996382694	0.007030834229890421	-0.00044102502386183823
2
177400
Ar	-0.0002746449033743314	-8.32364980631948e-05	0.0031955456162693335	0.0003680828158281985	-0.02507466841197127	0.0013219482471547082
Ar	5.964521231947561e-06	0.0001815552263733021	0.002779739484434952	-0.003425065720187565	-0.0017229486025599388	-0.0009903464359727232
2
177600
Ar	-0.0002035737101971198	-0.0002925559479100986	0.003201802769779822	0.013216877500727125	-0.014844990542486187	-0.00020659543621770628
Ar	-2.8979539268261432e-05	0.00012140502873250713	0.0027749549311717686	-0.003239181509525054	-0.009855201663736097	0.00015420884935633765
2
177800
Ar	-3.3692615671748773e-05	-0.0003556223600923355	0.003192632347511512	0.019237761483822117	0.0026232180440259596	-0.0013694784627906495
Ar	-5.2851759729836766e-05	5.347632999952459e-07	0.0027819591760018247	-0.0012701323933046928	-0.013254948658931483	0.0010210762108785432
2
178000
Ar	0.00015057160406864862	-0.00024817991587999886	0.0031829641498865094	0.01629099303741861	0.017893547825438484	-0.00011421743011065673
Ar	-5.214099792266724e-05	-0.00011983840418628584	0.0027889792493127107	0.0013149122913486096	-0.009731267545162674	1.5195027080893657e-05
2
178200
Ar	0.0002679269480855016	-2.3859935392877985e-05	0.0031911354434059256	0.006093489855642424	0.02528470282192469	0.0013606394739174132
Ar	-2.962620332044935e-05	-0.00017970644610846442	0.0027816996361294034	0.0031468472372964238	-0.0018116090129958046	-0.0011515246226118257
2
178400
Ar	0.00025906841146902416	0.00021507287983712345	0.003201238705839825	-0.007918715337384374	0.020277381649674516	0.00032673175181307704
Ar	7.703182289200484e-06	-0.00015284463849508657	0.002773420868573092	0.0040776949486721475	0.007024797337176904	-0.00027015470444179514
2
178600
Ar	0.0001232338576942286	0.00034668476041184844	0.0031959942693995705	-0.018004842657100405	0.004944623994074647	-0.0012408226167303176
Ar	4.473016500901152e-05	-5.0299306895725684e-05	0.002777524171239198	0.0029743580100603747	0.01260193004089152	0.0009799413834726948
2
178800
Ar	-7.023905432133996e-05	0.00030924843058139755	0.0031832491359687866	-0.019151162777875427	-0.01189125070623086	-0.0008157096603639212
Ar	6.129767962804534e-05	7.721898273044943e-05	0.002788201725585385	0.00022617251744452407	0.011693342649666233	0.0007604529419069701
2
179000
Ar	-0.0002324468227025584	0.0001279077119990185	0.0031856451372845266	-0.012028889504095207	-0.02306417571983469	0.001196168997408733
Ar	5.0590295649574275e-05	0.00016392561905051944	0.0027870913879072213	-0.0022537305139405752	0.005054583977586511	-0.0008796376747254344
2
179200
Ar	-0.00028843065478621413	-0.00011683032029052554	0.0031986570357344967	0.0014903505029619252	-0.023674405657394832	0.000989282363671242
Ar	1.74482996109875e-05	0.00017088888851246028	0.0027772846173591027	-0.0042071544005216985	-0.0037607288994506776	-0.0007364405245306723
2
179400
Ar	-0.00020365900660365268	-0.0003039425939661899	0.0032001998509657167	0.014672530147578963	-0.012077813006634327	-0.0006940995373015175
Ar	-2.739961827842027e-05	9.40387424918747e-05	0.00277594594207266	-0.004339615133486728	-0.010945880254752837	0.0005043552534372808
2
179600
Ar	-2.112168581644397e-05	-0.00033975616383818475	0.00318840646686144	0.02023734648456653	0.00501389908414046	-0.001298189617920379
Ar	-6.124529912940655e-05	-2.9647866100066966e-05	0.0027847503014621446	-0.002083999925707029	-0.012650685664968764	0.0009612114926862506
2
179800
Ar	0.0001707236867463765	-0.00021523427368675506	0.003183123381777321	0.016753908835644732	0.018932065988293778	0.0005182958868204757
Ar	-6.627368863455455e-05	-0.00013666679867688583	0.002788165929122507	0.001019193377764862	-0.007840172880707489	-0.0004973440501427455
2
180000
Ar	0.0002867659695053353	1.1748312257879947e-05	0.003194402708464471	0.005276580564885651	0.02461120224189609	0.0012576438097961736
Ar	-4.195532640629032e-05	-0.00017559477231230748	0.002778592451162003	0.0037747014795814905	0.0003682650251494142	-0.001030292120536479
2
180200
Ar	0.00026432254226967745	0.00023441778563533514	0.003200634334450372	-0.009596782067374859	0.01789762482771998	-0.0001846684120763661
Ar	4.5892003810491e-06	-0.00012931747565298726	0.0027734497010579043	0.005151316270097215	0.008528294766006014	0.00012472325427103598
2
180400
Ar	0.00011245611302898664	0.00033944110597310036	0.003191618796242132	-0.019360369490845675	0.002358297999845513	-0.0013722760148312913
Ar	5.175471402710218e-05	-1.8878671964231113e-05	0.002780578288010395	0.0038279039655811846	0.012626248686058274	0.001129332129976498
2
180600
Ar	-9.121087582421726e-05	0.00028178086459446235	0.003181696866450508	-0.01984945245172151	-0.013273824567964205	-0.00019386483592607735
Ar	7.447817959995512e-05	0.00010009969243643861	0.00278939971242434	0.0005957771931319275	0.010050351367559697	0.00025882601479570533
2
180800
Ar	-0.00025558686702032313	9.274696842465709e-05	0.003189783895912358	-0.01162108989776915	-0.02313385529904812	0.0014240341017682826
Ar	6.390710904792123e-05	0.00016683645232540818	0.002784116019410695	-0.002702783114942391	0.002854078536979699	-0.0010410134253385072
2
181000
Ar	-0.00030059092690972117	-0.00014314239675481866	0.0032010635157631623	0.003134012026942428	-0.021910180372958426	0.0004952906597544856
Ar	2.235683803216351e-05	0.00015278113039184	0.0027757145150872	-0.005306046720243448	-0.0055798520586680745	-0.0003730215500910598
2
181200
Ar	-0.0001979649344797742	-0.00030734578851444665	0.0031977145375206217	0.016421374758741274	-0.009505062581257766	-0.0010869671252784093
Ar	-3.3549552566921994e-05	6.388470005061318e-05	0.0027781292339466653	-0.005341080814245053	-0.011465926680872714	0.0007812414765926435
2
181400
Ar	-1.4009606461839243e-06	-0.00032027643334029494	0.00318541150745375	0.02127081382006208	0.006790931562915409	-0.0009183807251159031
Ar	-7.497111581454831e-05	-5.666756473833372e-05	0.0027872269255103635	-0.0025638551149550115	-0.011506132468847996	0.000658165062829365
2
181600
Ar	0.00019666105339572265	-0.00018374699125132393	0.003185963506803301	0.016828804527448817	0.01953610237620469	0.0009791947427856725
Ar	-8.170588343677144e-05	-0.00014649328752932932	0.0027858269743432054	0.0012216824792581	-0.005801317541817949	-0.0008681539713616782
2
181800
Ar	0.0003057864883397398	4.15729852597068e-05	0.0031976375030482803	0.0038593356989355745	0.023582914423896664	0.0008933318709361195
Ar	-5.034418428958679e-05	-0.00016459349752687995	0.00277593764018496	0.004906976877994263	0.0023432587904977406	-0.0007365386496070287
2
182000
Ar	0.00026562358368624033	0.00024654172400276797	0.0031989125463163124	-0.011504359359194997	0.015591674744597345	-0.0006728729855345569
Ar	8.798706665626356e-06	-0.00010307167219589818	0.002774594010255388	0.006407194728979775	0.00946702399576371	0.0005352785868054152
2
182200
Ar	9.642513603893152e-05	0.0003287303042407479	0.003187412004229314	-0.02080785485712379	0.00030915293949501676	-0.0012538099854819992
Ar	6.637116801785514e-05	9.224644566354257e-06	0.0027840681444378282	0.004543696894188386	0.0119558727456061	0.001091180200384087
2
182400
Ar	-0.00011757413799928558	0.0002555603628455273	0.00318247125912926	-0.020437547952101707	-0.014317007627481454	0.000529065948964045
Ar	9.250642169286769e-05	0.00011460233491117697	0.0027891833004371346	0.0005522418764259665	0.008221378248117492	-0.0002872538428895682
2
182600
Ar	-0.0002805518488140976	6.237687031964114e-05	0.0031943960417412623	-0.010661141930281942	-0.02282114898619598	0.0013761627415011428
Ar	7.645399214941e-05	0.00016197085664170182	0.0027812118214973172	-0.0037484543525098052	0.0009449367483345354	-0.0009214542273113744
2
182800
Ar	-0.0003095202454832256	-0.0001624263581509708	0.0032021820371510223	0.005169495276874923	-0.020100477229091904	-3.080435847526354e-05
Ar	2.161254173548675e-05	0.0001318061682062462	0.002776389996653282	-0.0067788113134832385	-0.006772434790790185	7.273060381279e-05
2
183000
Ar	-0.000186669419587202	-0.0003053450416017173	0.0031941120117034024	0.018223171835438968	-0.007333382383583292	-0.00133582772275146
Ar	-4.717026245076538e-05	3.7206349268823386e-05	0.0027822271405043442	-0.0063326358502890125	-0.011345551875836666	0.000926700344005455
2
183200
Ar	2.397196751793121e-05	-0.00030069248661622873	0.003183314957120511	0.022228158217918677	0.008058120330094202	-0.0004248061098279429
Ar	-9.392517309647821e-05	-7.479768986333374e-05	0.002789395064938388	-0.0026292254335585673	-0.00999435126716957	0.00015661917957805
2
183400
Ar	0.0002258953550373683	-0.00015608099601676243	0.003188289452129265	0.016493861334430593	0.019854652035770713	0.001156623304380672
Ar	-9.686768617500942e-05	-0.0001469782846254957	0.0027834853605849886	0.00210667144968416	-0.003949519053005329	-0.0010694608845708102
2
183600
Ar	0.0003235219811027205	6.506444596945937e-05	0.0031981643845843317	0.0020462474696794418	0.022424324093699096	0.00050009451403223
Ar	-5.283732951583274e-05	-0.00014803554574557297	0.002774509020225817	0.006384376190089846	0.003767639181727171	-0.00046700188914429165
2
183800
Ar	0.00026254070425512445	0.00025339372188070905	0.00319574233631413	-0.013630759364706438	0.013589113317521129	-0.0009153198113208127
Ar	2.046331781806122e-05	-7.73204628012864e-05	0.0027762380527867727	0.007600372185996573	0.00980058750646471	0.0007720167595787298
2
184000
Ar	7.537119178325705e-05	0.0003164465109139201	0.0031851343353794907	-0.022176524391513804	-0.00130671719176695	-0.0008095970303915954
Ar	8.574245703593332e-05	3.1472744599242635e-05	0.0027859413988385877	0.004856565648299954	0.010921532079165625	0.0008359636886832313
2
184200
Ar	-0.00014761713426780153	0.00023138301058440972	0.0031863928332366534	-0.020732662916191386	-0.015111752390179761	0.0010462105692876202
Ar	0.00011015438686388786	0.00012164017359781324	0.002787304653681514	-0.00010075895202571027	0.006439061603570768	-0.000590360501784898
2
184400
Ar	-0.00030499501731800344	3.5944663191110644e-05	0.0031988207966823353	-0.009193694835691423	-0.02235311176371035	0.0010191855759568791
Ar	8.279265797164387e-05	0.00015139779328787438	0.002779511595965268	-0.005277113982266424	-0.000708333709170679	-0.000655349048826423
2
184600
Ar	-0.00031401455761235906	-0.0001772374875639997	0.003201121641662598	0.007494795523039129	-0.018386754253931326	-0.0006092833669268875
Ar	1.2385296180272752e-05	0.00010825526968443232	0.0027779358060554065	-0.008196047412359474	-0.007583184876244217	0.00040683377719690633
2
184800
Ar	-0.00016929958533017905	-0.0003013580166729626	0.0031895119308911306	0.020076381802683042	-0.005507924758576582	-0.0013780838613671536
Ar	-6.690526693361625e-05	1.2096089215392773e-05	0.002785674042623719	-0.00694253867626793	-0.010754533384613877	0.0008761220989913431
2
185000
Ar	5.478787019568698e-05	-0.0002822660510290393	0.003181992581884225	0.02306659801770161	0.009115908360077222	0.000197465293190778
Ar	-0.00011457742344098331	-8.749240964735569e-05	0.002789239599088208	-0.002249609355230381	-0.008285114091838425	-0.00039954411509581417
2
185200
Ar	0.0002571469737651151	-0.00013118996607309997	0.003190873044755153	0.015554549625687919	0.01996022122345886	0.0011599503194451486
Ar	-0.0001086606822324536	-0.00014192234886288457	0.0027804425925709968	0.0034858589467239138	-0.0022332037886037426	-0.0010254491853510276
2
185400
Ar	0.00033731593445584694	8.432640739965586e-05	0.00319824767417356	-0.00034106908349060494	0.02119570272205734	7.466375827536628e-05
Ar	-4.8583534039560186e-05	-0.0001283994731134701	0.0027744913710750223	0.008036869317460721	0.0048247799852261155	-2.40399598480289e-05
2
185600
Ar	0.00025165929518791437	0.00025673279783832624	0.003192365594277274	-0.01594960029019402	0.011814813548192311	-0.0010786002745705096
Ar	3.836078629371627e-05	-5.293125970539336e-05	0.0027799923519563697	0.008554283981127184	0.00965242041937287	0.0009694745847840738
2
185800
Ar	4.6191566380608455e-05	0.0003037633414772442	0.0031836387602545806	-0.023466985491107206	-0.0026037710597541334	-0.00026975429712684763
Ar	0.00010722762629277583	4.769999521074151e-05	0.0027885267591396894	0.004633228700224582	0.009492489795347277	0.00042182269453578677
2
186000
Ar	-0.0001831226662620271	0.00020920007132159014	0.0031895043591031	-0.02055996751442518	-0.01569896187703474	0.0012106697062430997
Ar	0.00012472797906050982	0.00012120645508855543	0.0027855980564115814	-0.0012740843613976785	0.004727499329179362	-0.0008167942748572968
2
186200
Ar	-0.0003286025114958699	1.3602279159621419e-05	0.003199500404638225	-0.007135524043132059	-0.021723769711730484	0.000496693008263302
Ar	8.21825783330475e-05	0.00013613819111260494	0.0027781789691084325	-0.006958246034277662	-0.001876477905159293	-0.0004056556201969047
2
186400
Ar	-0.00031280846379392376	-0.00018770100656511867	0.003196518800976589	0.010101301460408383	-0.016801757885515387	-0.0010270895326067503
Ar	-3.408796827885408e-06	8.61935397488724e-05	0.0027796898292872683	-0.00940085873655219	-0.007708947442808912	0.0006829973068832854
2
186600
Ar	-0.00014584605039150993	-0.00029579720104863004	0.003184552134065305	0.02180218398454318	-0.004093014487317802	-0.000981644942379442
Ar	-8.911346493827298e-05	-5.20082461324223e-06	0.00278806571168107	-0.006952301785277254	-0.009693465388923485	0.0006984226398877193
2
186800
Ar	8.980126800781169e-05	-0.00026580925870758215	0.003183665311445624	0.023540885427083012	0.009910422457788037	0.00083566377465123
Ar	-0.00013130151092611783	-9.037332017049954e-05	0.00278816767247461	-0.0012449758191174617	-0.006658265641289674	-0.0007113089442643432
2
187000
Ar	0.00028697930342683176	-0.00011037854749102679	0.0031952846846344043	0.014070383956281188	0.019913327323800536	0.001083328444816089
Ar	-0.00011143494179807925	-0.0001300045354538543	0.0027787232068656547	0.005181226659718905	-0.0010030952612962738	-0.0008603914929503793
2
187200
Ar	0.00034537993082523816	9.910626505457681e-05	0.0031994502348108226	-0.0029423189792880224	0.020102583088913807	-0.00034945166870379104
Ar	-3.5165144399204365e-05	-0.00010825480696463895	0.002775521743287242	0.009404651372064744	0.005211304215250489	0.0002762568512646785
2
187400
Ar	0.00023443088886249014	0.00025776281375062133	0.0031900839711589955	-0.018161316349669013	0.010364930708835244	-0.0012279527984563813
Ar	6.0807880540992906e-05	-3.4096791610155885e-05	0.002782523678359661	0.00890078838225669	0.008966891072826572	0.000935137962228056
2
187600
Ar	1.2518847429051076e-05	0.00029268671040660774	0.0031829653165244254	-0.024506923205489292	-0.0035337515009306185	6.744361515504174e-05
Ar	0.00012729990838982223	5.474644084191761e-05	0.002788393805769051	0.0038929726945105734	0.007982680499856997	-2.148864955098959e-05
2
187800
Ar	-0.0002186855242136811	0.00019135551207266464	0.003190524041138619	-0.019735782188716144	-0.01606535450032406	0.0011017035757169007
Ar	0.0001331091031946481	0.00011356372254464915	0.002782990259200553	-0.0028411560481507504	0.0033997901157227484	-0.0007603208136599849
2
188000
Ar	-0.00034662177849169496	-3.1797856653513484e-06	0.003197725722671462	-0.004633196223616562	-0.021105700451040016	0.00012103862282425123
Ar	7.354241279982685e-05	0.00011815663539052805	0.002778619545479661	-0.0085849084636961	-0.002542704428532648	5.076928079545907e-05
2
188200
Ar	-0.0003040334253084674	-0.00019480008468299897	0.0031924283977895302	0.012671287998798048	-0.015569872108352433	-0.0010098948098086838
Ar	-2.451275435883976e-05	6.63262958198121e-05	0.002783871182134388	-0.010136641782653161	-0.007377130755749256	0.0008596191923762744
2
188400
Ar	-0.00011638495461033532	-0.0002912655701795536	0.003183910681620763	0.023267387975562128	-0.0031039116331297973	-0.00035562218959429273
Ar	-0.00011107860004645424	-1.6450283127177847e-05	0.0027909077393174276	-0.006420566365672219	-0.008403995028495499	0.00024181293777347467
2
188600
Ar	0.000126600345506412	-0.0002530362318754915	0.0031885577822537794	0.023403073505428525	0.010594085096258215	0.0010856215661820545
Ar	-0.00014382133443492683	-8.75508614026146e-05	0.002786360227497253	0.00012152180159609198	-0.005312429587976314	-0.00100909498060682
2
188800
Ar	0.0003125988403779963	-9.403536660361861e-05	0.003198338139903614	0.012018285934713227	0.019900569729975705	0.0005712572215820095
Ar	-0.00010768334772594396	-0.00011590129576034453	0.0027774053286912788	0.006876697980091141	-0.0001363126813623871	-0.0005524946118717698
2
189000
Ar	0.00034562072668994367	0.00011088379772081859	0.0031968111164991752	-0.005663268535557762	0.019262415725440133	-0.0008261610941250773
Ar	-1.6633231561746813e-05	-8.969439299907022e-05	0.0027777407326443093	0.01053103532536312	0.00518752822655702	0.0005784395321185962
2
189200
Ar	0.00021065439700148627	0.00025999924275864843	0.0031857916970594764	-0.020064702158763194	0.009433245003797861	-0.00099926594555455
Ar	8.441390994690069e-05	-2.053837130442854e-05	0.002785849110111082	0.008755432229330189	0.008027627732075908	0.0007908894788283449
2
189400
Ar	-2.3368377421692553e-05	0.00028720743862702065	0.003183317819675778	-0.024990567527967782	-0.004227236936307645	0.0006007410480417708
Ar	0.00014402095106806764	5.63092245426989e-05	0.002788133453280201	0.002750944486133461	0.00668486483730594	-0.00039196936581817793
2
189600
Ar	-0.0002501180065025181	0.00017971650836168598	0.003193023509161268	-0.018295596445258196	-0.016476058460471323	0.000959238281351202
Ar	0.00013510731504847665	0.00010388933663561944	0.0027813591971466755	-0.004541400164094891	0.0024918566016695334	-0.000654827167732857
2
189800
Ar	-0.00035632497781225026	-1.5338150243845886e-05	0.0031971373063007956	-0.001989597819740477	-0.020805993882925436	-0.00022995290927811944
Ar	5.9161210547156436e-05	0.00010245388813341992	0.0027789365749610086	-0.010008778426074344	-0.0027772171222143313	0.00026564213312095124
2
190000
Ar	-0.00028788896793572737	-0.0002011223968896681	0.0031896666340743554	0.014935726599806161	-0.014820763934979974	-0.0010114351231229081
Ar	-4.8084600061774225e-05	5.241359501927386e-05	0.002785121807918301	-0.010447737030222023	-0.006797528340325015	0.0007942426956338406
2
190200
Ar	-8.30010358117383e-05	-0.00029019206642044807	0.0031835576733118477	0.024407305498445175	-0.002430270158074252	7.296727371970563e-05
Ar	-0.00013168226572637563	-2.1056912577016267e-05	0.002789536948161068	-0.00559457127696968	-0.007250371276169214	-0.00011424133465125178
2
190400
Ar	0.0001636961064337961	-0.00024485044440423294	0.0031908062845352244	0.02285972467844076	0.011270608166276917	0.0010281160653458077
Ar	-0.0001518292079702869	-8.130152604209245e-05	0.002783252916400787	0.001738459906168431	-0.004420050797952982	-0.0008808761473692474
2
190600
Ar	0.0003342512132942506	-8.16536264446358e-05	0.0031976979243450595	0.009644767434332603	0.019928514780203594	0.0001365917984321872
Ar	-9.816197719630885e-05	-0.0001031634852501087	0.0027772018906926147	0.00859578511890167	0.0002233564785051894	-0.00015646078707237695
2
190800
Ar	0.00034033074073111936	0.00011992478552650769	0.003192543471368024	-0.00839985358014376	0.018642840357005065	-0.0010006621082938327
Ar	5.869239357549445e-06	-7.676223834108638e-05	0.002780797390708404	0.011280040150331877	0.004881336388408342	0.0007732336812795974
2
191000
Ar	0.00018272065421098035	0.0002619353874803247	0.003183309098688688	-0.021757849614805803	0.00873162052069912	-0.00047375360829146526
Ar	0.000107501144463027	-1.3778822230232531e-05	0.00278845270125809	0.00813318019181424	0.007096334035078261	0.00044744460178466184
2
191200
Ar	-6.1596406659973e-05	0.00028239847606613145	0.0031864732414251073	-0.025221294602736713	-0.004888443555733772	0.0009742990869584116
Ar	0.00015657143163797855	5.2874140365800745e-05	0.0027869291790639517	0.0013175389852378159	0.005733247747125698	-0.0006399987800398575
2
191400
Ar	-0.00027982729985092606	0.00016921553683991184	0.003196208187059328	-0.016428325469124105	-0.016846592047897627	0.0006520460777591491
Ar	0.00013098367637886488	9.335326136726679e-05	0.0027807256246574212	-0.006298412245705744	0.0020787863189547307	-0.00037771290196607533
2
191600
Ar	-0.00036117791006142754	-2.6065556328481e-05	0.0031960301446798556	0.0008171923267321862	-0.020480786082405483	-0.0006809107485112475
Ar	4.005362418840751e-05	9.067975783478081e-05	0.0027815017916224764	-0.011116119681163378	-0.0026349216068401655	0.0005326603182739613
2
191800
Ar	-0.00026660882806967614	-0.00020678515076002886	0.0031863325573560364	0.017145260755087665	-0.014230901054245416	-0.0009412376219362718
Ar	-7.181060216788675e-05	4.486147843462478e-05	0.002788555104619423	-0.010218854499682746	-0.006121992498535056	0.0006363307457923142
2
192000
Ar	-4.642407175880187e-05	-0.00029027555730939844	0.003183653443341457	0.025226542389477094	-0.0018210144822573158	0.0005097995952170641
Ar	-0.00014751224164001895	-2.039813606507148e-05	0.002789490431352743	-0.00435471155526076	-0.006341011118646467	-0.0005597881108547367
2
192200
Ar	0.00019897292082422124	-0.00023845109732556404	0.003192288560596615	0.021695426265380433	0.011901320486135025	0.000872967354423203
Ar	-0.00015222646683670982	-7.327627831295632e-05	0.002781128774576543	0.0035064061982808302	-0.0038848735621561034	-0.0008097896891484722
2
192400
Ar	0.00034893872714910484	-7.076396164617492e-05	0.0031962996794669693	0.006950197205430529	0.020125835407075965	-0.00019350864014734573
Ar	-8.21225178590658e-05	-9.233709807248767e-05	0.0027774747513325455	0.009928257314123456	0.0002598450841694626	0.00016600209029704708
2
192600
Ar	0.00032733478494634195	0.00012975819217935246	0.0031893777274059976	-0.010968703989422431	0.018280091693735602	-0.0009752839291773478
Ar	3.0049585804463382e-05	-6.800228001380216e-05	0.0027831581305364983	0.011514289168493692	0.00442632151298767	0.0008151908850288021
2
192800
Ar	0.0001498020717998837	0.00026725702235375596	0.003183180572964992	-0.023090714989433218	0.008229591345692728	4.056890996712305e-05
Ar	0.00012755392752877078	-1.194421954089746e-05	0.002789008090505403	0.007166805249823198	0.006228901706124791	0.0001302885827252218
2
193000
Ar	-9.9911234280235e-05	0.0002813384823500825	0.0031899282936614422	-0.024807445243497577	-0.005685995919789477	0.0010354003683882588
Ar	0.00016278065978089003	4.6573978193045895e-05	0.002785304862396239	-0.0003850662324562896	0.005085857530435312	-0.0006372141750401045
2
193200
Ar	-0.0003041207891504748	0.00016061264972638825	0.0031971883633332434	-0.014142205463103958	-0.017461458381895757	0.00018024741978260172
Ar	0.00011933137127749371	8.302176678237805e-05	0.002780709848240154	-0.007989024311553192	0.0019392089700114188	-0.00013484588180874476
2
193400
Ar	-0.00035887780546930693	-3.7847375214013504e-05	0.003192876480911809	0.0035721292063782945	-0.020502764536899278	-0.0009404848924923556
Ar	1.5964728874736742e-05	8.145339904720149e-05	0.002783496656383684	-0.011763290299631237	-0.002284383033731122	0.0006089496020256499
2
193600
Ar	-0.0002405317358506273	-0.0002163750486404008	0.0031836362249062214	0.019010183903779176	-0.01382462680568171	-0.0005693785878325959
Ar	-9.544692857257276e-05	4.134234821455346e-05	0.002789368681417834	-0.009527641769629384	-0.005327511084374532	0.00030134439050665175
2
193800
Ar	-8.685652065181865e-06	-0.0002938574566414194	0.00318536247366472	0.02560308684662801	-0.001002040450676112	0.0008380070085605421
Ar	-0.00015948663424448763	-1.5592982830655408e-05	0.002786831291221803	-0.0027952724802979834	-0.005617836407913098	-0.0007458151756336477
2
194000
Ar	0.000229908458149035	-0.0002329530504862363	0.003194170103213934	0.019981502811485412	0.012785340156542407	0.0006335078407357677
Ar	-0.0001465897507243763	-6.375785974526233e-05	0.002779274624044998	0.0053296913168239856	-0.0036742285091448104	-0.00048766337421688745
2
194200
Ar	0.00035593386594295017	-5.888698425852541e-05	0.003194600926362914	0.004161337811555633	0.020455238895869542	-0.0005355570219629334
Ar	-6.092952344355216e-05	-8.316720179077766e-05	0.0027791413275381474	0.011084668849131184	-5.650603021792011e-06	0.00046256614649298894
2
194400
Ar	0.00030779653030683777	0.00014195831263021	0.0031867439846284865	-0.013224636124844102	0.018040817397262036	-0.0007670597026852089
Ar	5.599782608764735e-05	-6.335849707797747e-05	0.00278616988863526	0.011234429302448765	0.00378449722779814	0.0007298027986416179
2
194600
Ar	0.00011446160938517019	0.00027534014103470654	0.0031847660616824854	-0.023955261824632517	0.0076292085892073185	0.0005035140874998554
Ar	0.00014454882504305892	-1.4616609335616715e-05	0.0027892109481720984	0.005747763190178962	0.005497341265351017	-0.0002656374700872983
2
194800
Ar	-0.00013485302396512678	0.00028095304340309857	0.003193001203658564	-0.02379080923289017	-0.0067218903910886574	0.0008323125626621875
Ar	0.0001628141965267596	3.895195519954313e-05	0.0027833292808700735	-0.0022692132156067113	0.004867331714631871	-0.000658464527699626
2
195000
Ar	-0.0003200234584289152	0.0001506652837383187	0.003196447050550448	-0.011592850890843255	-0.01820869251183151	-0.00026146887140743834
Ar	0.00010171014463578664	7.538001914312145e-05	0.002780126002086234	-0.0094621225694954	0.002077348780175634	0.00012066445527342043
2
195200
Ar	-0.00034791129666910157	-5.205773181715837e-05	0.003189213876655165	0.006133968383273499	-0.02062059280315868	-0.0009795194027821558
Ar	-1.0478839272766944e-05	7.666133956670942e-05	0.002784753115072721	-0.011954756378468424	-0.001832007909602998	0.000657585980023731
2
195400
Ar	-0.00021002686076190043	-0.00022897795257816224	0.0031824743623790393	0.0202777038530112	-0.013436878048420812	-9.299644827052771e-05
Ar	-0.00011692909372464127	4.223300838951817e-05	0.0027889837603980233	-0.008390823253491836	-0.004718355541332741	-8.131745494546388e-06
2
195600
Ar	2.7349263475368305e-05	-0.00030021912198914926	0.0031881730379906734	0.025316724074060742	-7.842309397434537e-05	0.0009771080298219136
Ar	-0.00016556783849352313	-9.821682515321855e-06	0.0027841128209665535	-0.0009872080881501342	-0.005355810516165923	-0.0007454630366293717
2
195800
Ar	0.000253879204091726	-0.0002281391172506678	0.0031956398323225296	0.017952071151027288	0.013940593545101732	0.00027602380853615217
Ar	-0.00013424030987936724	-5.782555188398501e-05	0.0027790746084645633	0.007030269522317848	-0.003858552698686266	-0.00012672083297761698
2
196000
Ar	0.0003554996111144079	-4.503181855661878e-05	0.0031927187613588876	0.0015799544760874034	0.021056901345673465	-0.0007605968868487466
Ar	-3.609485185539345e-05	-8.020381934256765e-05	0.0027822220613889803	0.01174691720207149	-0.0003789662121423102	0.0006849582974378429
2
196200
Ar	0.0002852714930294819	0.00015841323191722207	0.003184856555720189	-0.01493278107284974	0.018035456170145327	-0.00048826606095486486
Ar	8.016926989554265e-05	-6.468588929805e-05	0.002789077312278505	0.010438286964692612	0.0033286876248115904	0.0004600503422484179
2
196400
Ar	8.048644631151413e-05	0.0002883993607394585	0.003186408774276089	-0.024473951020693337	0.006892898434849882	0.000719362508532976
Ar	0.00015540651092715025	-2.0168846244126535e-05	0.002788333570161687	0.004047210495186245	0.005210959256481052	-0.0005497218599065962
2
196600
Ar	-0.00016505848661470845	0.0002827275805387207	0.0031945452450362014	-0.022500161366086183	-0.008100858069819056	0.0006124380952367227
Ar	0.00015510700053604411	3.290087760189731e-05	0.002781953411913334	-0.004148855746016045	0.005037631784774478	-0.000503460294638689
2
196800
Ar	-0.0003303086284231007	0.00013963464900718236	0.003195251021976315	-0.00912794594705701	-0.019258408359713007	-0.0005090013488797284
Ar	7.866275524424959e-05	7.2604635415131e-05	0.002780822263898982	-0.010483446839979826	0.002533627899240637	0.00028616355975635735
2
197000
Ar	-0.00033397152774171	-7.012326806731289e-05	0.003187097419964783	0.008286311470621132	-0.020920910150284595	-0.0008381347579845613
Ar	-3.698194600559231e-05	7.862724528219734e-05	0.00278593757138329	-0.011587349185097798	-0.0013683976826488898	0.0005497324903434006
2
197200
Ar	-0.00017959169375604943	-0.00024636129876185733	0.003183623808803961	0.0213767938288284	-0.01296766770751541	0.0002866271616744925
Ar	-0.00013339057407808696	4.8037985662873906e-05	0.002787713881984878	-0.006897492757860682	-0.00443142312543913	-0.0002840225925804516
2
197400
Ar	6.110166696967648e-05	-0.00030797515203525726	0.003190319732077167	0.024731096686125314	0.001285688460545839	0.0007716842781271235
Ar	-0.00016472267843415194	-3.3101169666907505e-06	0.0027821614989553154	0.0008900430973300186	-0.00550751293289356	-0.0005951384803918022
2
197600
Ar	0.0002731568911222329	-0.00022091868307448292	0.0031943166817712584	0.01578226825147721	0.015382728905016628	-8.539430291564179e-05
Ar	-0.00011651906025888793	-5.42805885579281e-05	0.002779704464866401	0.008397559141528826	-0.0042617335195455665	0.00016384516255565888
2
197800
Ar	0.0003507857810358479	-2.675018122896077e-05	0.003189224693993402	-0.0008100071525442063	0.021722909001659612	-0.0007631481021962784
Ar	-1.060548422380561e-05	-8.080071914642531e-05	0.0027850701409682125	0.01183148605724778	-0.0008040762683022781	0.0007634637761844599
2
198000
Ar	0.00026052465733435366	0.00017876832362121578	0.0031841221463901836	-0.016423890112073285	0.017811837153371864	-4.926702152724547e-06
Ar	9.966145488345858e-05	-6.910217000894998e-05	0.002790640698106437	0.009254217380451625	0.002985044736395544	0.0001551793168577843
2
198200
Ar	4.728974687196948e-05	0.0003018891301190226	0.003189816758406888	-0.024554608886851032	0.005725946878649664	0.0009031342508462985
Ar	0.00016030873944890959	-2.6540210958416754e-05	0.002787339019469695	0.002423764009712687	0.005246718109832892	-0.0006525972795805799
2
198400
Ar	-0.0001905329524062798	0.0002813887741734033	0.00319647243954636	-0.02085835041687907	-0.009714428759810698	0.00021963106534291372
Ar	0.00014405192626657632	2.8923385234915966e-05	0.0027818055954312187	-0.005600691535327852	0.005413857411738176	-0.0002855404698846704
2
198600
Ar	-0.000334377383611088	0.00012394494095384128	0.00319288582347164	-0.0067028801773504265	-0.020358396705689796	-0.0008296181972840494
Ar	5.727498685934509e-05	7.285500508639724e-05	0.0027827825797048845	-0.011036272495127933	0.002964721411107583	0.0004388178867669408
2
198800
Ar	-0.0003158335620890497	-9.168077064339948e-05	0.0031841504977342546	0.010109567052414243	-0.021017680769167178	-0.0006221893310221336
Ar	-5.7677139468327814e-05	8.279251954328925e-05	0.002787719421837851	-0.010907439407819831	-0.0010580421661968418	0.0003234355746570195
2
199000
Ar	-0.00014875741433459087	-0.00026460711436452125	0.0031841584601441874	0.02202979055515507	-0.012201470968365444	0.0005983828601675796
Ar	-0.00014242928558794263	5.438943548750078e-05	0.002786800501946794	-0.005393514899849539	-0.004399103407324877	-0.0004838001597245958
2
199200
Ar	9.061679963671153e-05	-0.00031398513194016444	0.003191627365795056	0.023775855587984836	0.0028900436840415384	0.0006413896409026785
Ar	-0.00015788703739509806	7.652779451318602e-07	0.0027814161084039075	0.002446330374929622	-0.005926625228754342	-0.00037034827752655355
2
199400
Ar	0.00028627646428949587	-0.00021073212050194223	0.0031936085789865403	0.01365307181976316	0.016841544599486405	-0.00029061982035261314
Ar	-9.705617119745243e-05	-5.500812432115584e-05	0.002781411633081482	0.009253322162530862	-0.004760415301458946	0.00037875535687331734
2
199600
Ar	0.0003421208298809525	-6.396372036696194e-06	0.003188051208535651	-0.0028520751115056857	0.022293008394605556	-0.0006098680697631564
Ar	1.1761841143163937e-05	-8.58780657558737e-05	0.002787375414109117	0.011535298835878722	-0.0011243103677373164	0.0006185237144030139
2
199800
Ar	0.0002357479328037706	0.00020021053003326167	0.0031860442082072356	-0.017577778317664994	0.01743372035745332	0.0003219701588023348
Ar	0.00011360506163334678	-7.591721942070419e-05	0.0027899422055974138	0.007971492648761428	0.0030067973537782826	-0.00020743168541157903
2
200000
Ar	1.6855269805959384e-05	0.0003144159004407148	0.0031924421518862538	-0.02440110489439778	0.004316352919820803	0.0007012134417012506
Ar	0.00015922310710764188	-3.0562569893686586e-05	0.0027848162764492587	0.0007983302131720306	0.005759694529060113	-0.0006114555824610354
2
200200
Ar	-0.00021135747684393122	0.00027735646233730004	0.003195510382836233	-0.019219546731882513	-0.0114326298704653	-0.00017985834199170546
Ar	0.00012791452834909648	3.073583212279576e-05	0.002781449297923858	-0.006826499935920756	0.005999929797073278	3.714127036413007e-05
2
200400
Ar	-0.00033558906380361556	0.00010550127925855826	0.0031890671493415065	-0.004633748078721899	-0.021401021577688265	-0.0009197718709817422
Ar	3.3753228396595345e-05	7.951255309691645e-05	0.002785106593815094	-0.011177175758028034	0.003295789335694356	0.0005742337354707717
2
200600
Ar	-0.00029859094846215766	-0.00011592056597070161	0.0031823523792954755	0.011629843626836748	-0.02112431072448146	-0.00019981897510227956
Ar	-7.572834363854095e-05	9.098042419088095e-05	0.002789287501537273	-0.009730958753510165	-0.0010609341041598228	9.140545305078922e-05
2
200800
Ar	-0.0001208659749023367	-0.00028447882821457836	0.003186071268598971	0.022543629937884724	-0.011136215157303106	0.0008127137155272935
Ar	-0.00014580295546591325	6.076640395167481e-05	0.002786253969208826	-0.00378815108055245	-0.00477509092329834	-0.0005763865816539985
2
201000
Ar	0.00011612369014792626	-0.0003182688333717649	0.0031938042317162336	0.022762757172948258	0.004766878730543183	0.0004926424792116238
Ar	-0.00014540198116174647	1.670164488736353e-06	0.002781581288894752	0.003878569918541597	-0.00660845141833085	-0.0002286170632536562
2
201200
Ar	0.0002958224623966526	-0.00019702736993854538	0.003193614352242043	0.01165811049166388	0.018357271958645997	-0.0004746711028713284
Ar	-7.43215769260297e-05	-6.073580554035901e-05	0.0027829143370772537	0.009759142116783621	-0.005318527744829409	0.00047275290971725254
2
201400
Ar	0.00033154594945327315	1.779519205754167e-05	0.003187384698696806	-0.004683908264519675	0.0228289383309648	-0.0005363767215058399
Ar	3.3137744274111354e-05	-9.53713167230978e-05	0.002788256711814444	0.010778578857722747	-0.0013078017814148622	0.00039396116509510633
2
201600
Ar	0.00021058190352543142	0.00022432568440385959	0.0031866976894456985	-0.01857802049278786	0.01681850699371842	0.0003989470923884013
Ar	0.0001228842169375785	-8.497937232999564e-05	0.002788301956060461	0.00646681071820379	0.00325003708330152	-0.0003822806406535838
2
201800
Ar	-1.1912823987818263e-05	0.00032619933094618414	0.003191845585591986	-0.02403050796361874	0.002577851432441918	0.00041852195488397987
Ar	0.0001528685279967296	-3.4505299327813244e-05	0.002783511963981342	-0.0007318397681087984	0.006464569170336137	-0.000396506647881089
2
202000
Ar	-0.00022912792828063045	0.0002703419617279624	0.0031917295287057696	-0.017493384092905025	-0.013269946354443429	-0.0004500820948524961
Ar	0.00010910190309016419	3.415301462667964e-05	0.0027829979428774408	-0.0076319118466588376	0.006677213959926872	0.0003035763646648049
2
202200
Ar	-0.00033365356998729266	8.38860385572941e-05	0.003185135579704734	-0.0026253562195087204	-0.022380125587037333	-0.0006526884721305283
Ar	1.2699841496775835e-05	8.759977901218362e-05	0.002788215014933505	-0.010798980385086967	0.0035352128454079848	0.0005628101422026768
2
202400
Ar	-0.0002798635744780076	-0.00014194295052441657	0.0031831477315436623	0.012937253528568312	-0.021021738397491243	0.0003676065927074389
Ar	-8.812888569777548e-05	9.925476192450006e-05	0.002790297604848568	-0.008532208580270423	-0.0012628406986328851	-0.000235444391864021
2
202600
Ar	-9.392612955879165e-05	-0.0003033734938339308	0.003190741076909986	0.022775539511884567	-0.00979203309617118	0.0008722449937978399
Ar	-0.00014492518455384916	6.452754321582385e-05	0.0027848821179394575	-0.002397290028272649	-0.0054541507295898075	-0.0006643983558201962
2
202800
Ar	0.00013831467951039772	-0.0003194713310536894	0.0031959541212193527	0.021610012519077994	0.006758134814115702	3.0721476178614374e-05
Ar	-0.00013240166496895775	-2.403498069640761e-06	0.0027804002153148533	0.004845781137459173	-0.007366578089384259	-0.00012546687404516493
2
203000
Ar	0.00030177584873426	-0.0001799102470776545	0.003191565314889017	0.009718352649511607	0.01988884721900991	-0.000779124907007487
Ar	-5.5410666421773424e-05	-7.064749664438533e-05	0.0027826747392482357	0.00990385813653159	-0.005650234556836196	0.0004960961518873003
2
203200
Ar	0.00031922055674786135	4.52324931954956e-05	0.0031845733273918528	-0.0062727450265449855	0.023310676362113075	-0.0003731646244130435
Ar	4.837304528205521e-05	-0.00010575036372633553	0.0027870400981852817	0.0099123446150991	-0.0010437262636625322	0.00021957683996465393
2
203400
Ar	0.00018612180920611564	0.0002500909672643191	0.003185775722629898	-0.019315413099567396	0.01597412406169534	0.0005095580704257656
Ar	0.00012693901158283106	-9.013555068587189e-05	0.0027858225943439337	0.00518505257745231	0.003998504118712873	-0.0003680422845380275
2
203600
Ar	-3.694376102546802e-05	0.0003370011137357606	0.003190784010378596	-0.023369594883074475	0.0005491230806664924	0.0003142097665792158
Ar	0.00014431043490702733	-3.132697076975195e-05	0.002782846178118362	-0.0018698595000997608	0.007333855430657851	-0.00010353615563413956
2
203800
Ar	-0.00024181184990738067	0.00025985284600974417	0.0031902071604885947	-0.015845327431574047	-0.015247834001364693	-0.0003995195592920606
Ar	9.24595299453493e-05	4.4643625414641183e-05	0.0027849593518644972	-0.008067734161436543	0.007212257923127116	0.0004926051568759179
2
204000
Ar	-0.00032914325232084364	5.8424654803043196e-05	0.0031855328521413883	-0.0009933358964910337	-0.023328259384094392	-0.00034666439778546754
Ar	-3.6391664315828465e-06	0.00010020353958102716	0.0027901621697662793	-0.010304162364740117	0.003420620143266815	0.0003777898236839955
2
204200
Ar	-0.0002612180283819397	-0.00017047518119156046	0.003186721882096631	0.014076663577253892	-0.020630631448533165	0.0005529717125987453
Ar	-9.586529902206819e-05	0.00010794039056344474	0.0027899151642973713	-0.007412404943860286	-0.0019037673057911285	-0.0004465540738857873
2
204400
Ar	-6.877532250730108e-05	-0.0003204234790061889	0.0031932319234053196	0.022806560319649474	-0.007957823847392883	0.0004952567696331495
Ar	-0.00014085697057203577	6.44688529810641e-05	0.0027837613369407536	-0.0012403015520148402	-0.0064998297309507794	-0.0005700513504765446
2
204600
Ar	0.00015693413792687667	-0.0003152098178919575	0.003193955561394083	0.020389060665915924	0.008960313000850463	-0.000415709052451304
Ar	-0.0001183999102220414	-1.1842462909135688e-05	0.0027811222622524433	0.005571827302427377	-0.008146160625774604	0.0001171303369535852
2
204800
Ar	0.0003052450309577559	-0.00015732612551404098	0.0031870174191079106	0.008098681450547842	0.021213768419215503	-0.0007572205473093659
Ar	-3.834802517729973e-05	-8.429826612364263e-05	0.0027844952014594304	0.009738476826479853	-0.005680018909066966	0.0004406270430922335
2
205000
Ar	0.000307726425923245	7.484087869692381e-05	0.003183161792897862	-0.007572381357891132	0.023366499343902614	0.00010861877469204613
Ar	5.917842717445892e-05	-0.00011600845685586648	0.0027870108710767445	0.008895950762189872	-0.00043340656038371833	-4.52819521845183e-05
2
205200
Ar	0.00016471241354411737	0.000273426198376426	0.00318811380934973	-0.019934522847129866	0.014637197419624945	0.000683072301088458
Ar	0.00012630513837091304	-9.252063061755358e-05	0.0027841086631370427	0.003991919092896836	0.004976591845412148	-0.0003781854251565032
2
205400
Ar	-5.847397811869288e-05	0.0003416239054508341	0.0031929732151423163	-0.022758600089942863	-0.0016585856792267724	0.0001505939578573964
Ar	0.00013291330661853527	-2.3391768978949727e-05	0.0027824834682374155	-0.0027283166385406337	0.008279579880209328	0.0001519086816317203
2
205600
Ar	-0.00025267689302060285	0.00024339909038242576	0.0031907568075349273	-0.014434813716981132	-0.0170851554890411	-0.0005105768459408409
Ar	7.566057011150586e-05	5.9023106798621576e-05	0.0027864990291416266	-0.008233230991122314	0.007463514479453054	0.0005630696218292775
2
205800
Ar	-0.00032500612094970357	2.8877960025262183e-05	0.0031861421019496053	0.00045720489412894553	-0.024066392152168457	-0.00021178737681488684
Ar	-1.747491075456592e-05	0.00011325662462919228	0.002791104764285152	-0.009565399218904572	0.0029285679181661004	0.0001707513116924671
2
206000
Ar	-0.0002443640358054808	-0.00020032540643678235	0.0031880676508550683	0.01508709783218239	-0.019886329847722897	0.0004946439211326091
Ar	-9.983109964812691e-05	0.00011347900048084151	0.0027889401385622317	-0.006298628505308042	-0.002888845728844462	-0.0005145746016150816
2
206200
Ar	-4.641212071239804e-05	-0.0003351005029853813	0.003192189637074889	0.02282604812618339	-0.005851515280629681	0.00017891664832041357
Ar	-0.0001340749501618552	5.919930362784935e-05	0.002783760906879571	-0.00027059936632088655	-0.007538539650637937	-0.0003588060565982642
2
206400
Ar	0.00017385940395515224	-0.0003070160518826893	0.0031900311193888684	0.019321861009045153	0.011187081715729998	-0.0005517724242359692
Ar	-0.00010451365905991795	-2.526169307348027e-05	0.002783189126622452	0.005967456754183948	-0.008640590347535245	0.00024408968339321866
2
206600
Ar	0.0003093009094429683	-0.00013123901004985126	0.0031839778444407766	0.006710715136132382	0.022467866976317637	-0.0004474539619811686
Ar	-2.4777105085991633e-05	-9.879716934323194e-05	0.002786495407889446	0.009260656485785397	-0.005410136365262628	0.00027242157454321087
2
206800
Ar	0.00029841398501488956	0.00010665083982818892	0.003183839602151637	-0.00880873777698611	0.023212568171554655	0.00042934679759510074
Ar	6.482878440072067e-05	-0.00012454802616019975	0.0027867168354945944	0.007935458940507017	0.0004291121481479398	-0.0002400855948566277
2
207000
Ar	0.0001455856357047253	0.00029553423140797993	0.0031899820540654306	-0.020522734591031218	0.012911593450060604	0.0006012851858650916
Ar	0.00012192691842102017	-9.101049086921211e-05	0.0027836234645798427	0.003048162282461235	0.006051723404463508	-0.0002462411114955594
2
207200
Ar	-7.810739153932371e-05	0.0003420497958344499	0.0031928668920756867	-0.022265745025740052	-0.004031640983143626	-9.517249417184887e-05
Ar	0.00012092390633791118	-1.2590242785760317e-05	0.002783849429177369	-0.003251785007597125	0.008964187786288118	0.00031007146185299875
2
207400
Ar	-0.000262820679997754	0.0002226024393170988	0.0031889000564484585	-0.013174459575215507	-0.018762422758111463	-0.0005412227075531593
Ar	6.203939863702003e-05	7.314998634176984e-05	0.0027888441620593355	-0.008005066742763968	0.007421423469924451	0.0005643020230021679
2
207600
Ar	-0.00032183426243405643	-2.0832450850841046e-06	0.0031856580841683156	0.0018078611650555047	-0.02438156626666342	2.24534833009869e-05
Ar	-2.5478022852595693e-05	0.00012342026594965087	0.0027918246486207674	-0.008721813006000416	0.0022356621871120644	-5.6176181678570854e-05
2
207800
Ar	-0.00022898302765689016	-0.0002270571256724817	0.0031888512747459607	0.01606994394252077	-0.018704105244885128	0.0004770647032510084
Ar	-9.874167296744441e-05	0.00011475411814571353	0.0027880510172328303	-0.005384803074716318	-0.003930204019118574	-0.0005679016191033462
2
208000
Ar	-2.588992739290825e-05	-0.0003439436255384401	0.0031917539841633262	0.022801162519021364	-0.003606103936276028	6.587540366633535e-07
Ar	-0.00012468943051654715	5.045858902878378e-05	0.0027832316724499227	0.0004244626741569977	-0.008421551432876111	-0.00027101758452479974
2
208200
Ar	0.0001890020250851221	-0.0002934533219697468	0.003188924923008866	0.01834224754536373	0.013195801697714967	-0.000496395585063451
Ar	-9.092034594314883e-05	-3.9838642915351884e-05	0.002783308309856915	0.006062063654094785	-0.008831611668738575	0.00023938201801451968
2
208400
Ar	0.00031227144066444735	-0.00010263958852068514	0.0031847241156922512	0.005376466202184788	0.023361460526730174	-0.00019551523821087163
Ar	-1.3729176324183981e-05	-0.00011152687316818915	0.002785954634810449	0.008667624645166735	-0.004865460905266255	0.00014106735287390282
2
208600
Ar	0.00028816488324236823	0.000137166625952989	0.003186632747584774	-0.010068798308101291	0.02264637682015849	0.0005245043403831137
Ar	6.831491824282865e-05	-0.00012917772718976672	0.0027850862293978106	0.007062041828381622	0.0014795168626497823	-0.0002617086575044616
2
208800
Ar	0.00012583544332470957	0.0003128003777258068	0.003191482322310688	-0.021066661916146756	0.010909521209804809	0.0002735806492728855
Ar	0.00011679607107723783	-8.442386556887119e-05	0.002783206163179212	0.0022783027621852137	0.007162051843306459	-2.7845221739746602e-05
2
209000
Ar	-9.751669134187862e-05	0.00033677597427618787	0.003190662509896342	-0.021677819968606345	-0.006277840615059015	-0.0004315499237082753
Ar	0.00010996802225671032	2.38910226427365e-06	0.0027853969568384213	-0.0036089790705126604	0.009455198878260898	0.0004396772882213048
2
209200
Ar	-0.0002724912900216411	0.0001985958224596637	0.003185400108859857	-0.011945037371987417	-0.020135424509781764	-0.0004181717772200924
Ar	5.0607787720203314e-05	8.861783706971566e-05	0.002790013876495869	-0.007721671954044942	0.007017775090697111	0.00035370414141958133
2
209400
Ar	-0.00031849830852691686	-3.3465857732742395e-05	0.0031851223612839714	0.0031264830606980943	-0.024412850970950754	0.0003646128151862233
Ar	-3.149091580264145e-05	0.0001317538195869148	0.0027906678610213373	-0.007996009501040444	0.0012728246821633966	-0.00025208895135930696
2
209600
Ar	-0.00021386331550450632	-0.0002507015435213778	0.0031904529169984965	0.017029978320690618	-0.017189930971675333	0.000535630257677434
Ar	-9.693535588927232e-05	0.00011200971204327037	0.0027861159688695927	-0.004596438392434928	-0.0050776175394003226	-0.000517156337281943
2
209800
Ar	-5.606064814633985e-06	-0.0003479696816882155	0.0031928651433522377	0.02280085877886443	-0.0013778022909249831	-0.00010668246977572755
Ar	-0.00011641389042465297	3.763810713145621e-05	0.0027829902492827285	0.0008865345497327043	-0.0091825093153858	-2.650268068294901e-05
2
210000
Ar	0.00020438777981926845	-0.00027658837870590537	0.003189009863331302	0.017416050586456996	0.01498966907562191	-0.0005262934954848332
Ar	-8.036744060990304e-05	-5.624808744920748e-05	0.00278466255632834	0.0060238297528368255	-0.008778429968808756	0.0002813076091786137
2
210200
Ar	0.0003159349187064311	-7.318781985161646e-05	0.003185602458640442	0.004008690442368327	0.024008689769349972	-6.600716366048632e-05
Ar	-6.0630964980338765e-06	-0.00012319472025193158	0.002786350800687551	0.00815890926031671	-0.004022915298573767	-3.836745670483032e-05
2
210400
Ar	0.00027822531043659554	0.00016597556881359462	0.0031877187168679907	-0.011342174784850346	0.0218149771578025	0.00039771205850703905
Ar	6.966101263930986e-05	-0.000130733341639539	0.002784388020098486	0.006418906381356628	0.0025864585924416927	-0.0002679640549286939
2
210600
Ar	0.0001067016958432397	0.00032649296322675677	0.003190707056545509	-0.02151264575498623	0.00884226421726847	7.544199632225881e-05
Ar	0.00011240506899121227	-7.50303372811301e-05	0.0027831635213086277	0.0017691915167672677	0.008116500077898195	7.756861468137462e-05
2
210800
Ar	-0.00011611489327061932	0.0003283192423774203	0.0031883044884735965	-0.021157005589380436	-0.00844569757536794	-0.00044720531338174444
Ar	0.00010183701353640407	1.821279229989233e-05	0.002786352259633242	-0.0038114871047425164	0.009699464370088584	0.0004753613295010489
2
211000
Ar	-0.000282535294154487	0.0001728372776578974	0.0031843976705884774	-0.010819615870185498	-0.021326903953427182	-0.0001820726520832031
Ar	4.267761331205672e-05	0.00010268937681269051	0.0027902185473885795	-0.007460323887749869	0.006452781759582365	0.0001748935466799866
2
211200
Ar	-0.0003157151139522978	-6.473226118911152e-05	0.0031864763634656436	0.004492563018006768	-0.024265570115188758	0.0005348901070878859
Ar	-3.482904061889985e-05	0.00013717677474166983	0.0027888805796903136	-0.007439219556241641	0.00019477063289308173	-0.00041170796539185666
2
211400
Ar	-0.00019842832696141818	-0.0002729079784095802	0.003191950289607951	0.018017828649116354	-0.015545036867133216	0.000412353103162857
Ar	-9.506901080266826e-05	0.00010590447447817061	0.00278443091705188	-0.004129280816452321	-0.00620702044793643	-0.00033435569108545275
2
211600
Ar	1.4793744363604406e-05	-0.00034903179011983666	0.003192572538246594	0.022757764390495868	0.0009418010413948776	-0.00027639820778620254
Ar	-0.00011054819184422398	2.2469840239804913e-05	0.002783557498495483	0.001178887666047641	-0.00975729761079097	0.00014898018297629262
2
211800
Ar	0.0002196247959881938	-0.0002565178802433976	0.0031877650469313767	0.01653774697767998	0.016718599228539625	-0.0005261365811490435
Ar	-7.316553021276492e-05	-7.301691906638184e-05	0.002786101406675253	0.005986358323293618	-0.008498839042332826	0.0002528090466624475
2
212000
Ar	0.00031986710559466256	-4.180684072464569e-05	0.0031852497537115105	0.0026962259370464725	0.024465246482595647	7.669422546761174e-05
Ar	-1.2002934063044287e-06	-0.00013316681942407557	0.0027869072304813167	0.0077862261192193395	-0.0030415174066311993	-0.0001409747840518729
2
212200
Ar	0.0002684578398480474	0.00019391910059443103	0.0031879212619844873	-0.012614036246129124	0.020692235207463914	0.0002996942246888336
Ar	7.04090797104687e-05	-0.00012929966652049554	0.002784410785263214	0.005999248333369012	0.0037965840752354836	-0.00023420590722151866
2
212400
Ar	8.731544778674376e-05	0.0003368861445305326	0.0031891899480695238	-0.02204020274198213	0.006653020903621568	-0.00010525350486320891
Ar	0.00010899399511324889	-6.272188568636949e-05	0.00278407999877046	0.0014017243666861866	0.008978225547126534	0.0001907284382113948
2
212600
Ar	-0.00013556556848397206	0.0003168484402610268	0.003186616000574785	-0.02062484994770816	-0.010429712482574967	-0.0003238969150964385
Ar	9.591581290401452e-05	3.5303987004209554e-05	0.002787752639358554	-0.003923861993702578	0.009776243441273914	0.0004357678743526601
2
212800
Ar	-0.00029300605943398503	0.0001461326003493132	0.0031848956777498685	-0.009604858013867545	-0.022289538444857683	9.884596041314343e-05
Ar	3.755665651591866e-05	0.00011627644814652858	0.0027905228153077993	-0.007243344115798744	0.00572960183058387	2.6722045032395313e-05
2
213000
Ar	-0.00031249149347306355	-9.43981762796012e-05	0.0031887425919326323	0.005955794729105598	-0.02379748266749966	0.0005475812104598658
Ar	-3.694183823243159e-05	0.0001410017071529942	0.002788067007193403	-0.007094917216227571	-0.0009879921541313629	-0.0004217819935123558
2
213200
Ar	-0.0001824078388981138	-0.0002901914279866863	0.003192729664408295	0.018981234497825586	-0.013661858652381011	0.00017606089052281455
Ar	-9.380804495306884e-05	9.76895436554297e-05	0.0027843976330375955	-0.00382039381332272	-0.007346447036533754	-0.00022293843416976386
2
213400
Ar	3.544485653088092e-05	-0.00034486155444610704	0.0031910002325731784	0.022690781278398405	0.003128074711611041	-0.0004607859098893528
Ar	-0.00010652151827665921	6.072027431655185e-06	0.0027842289256053104	0.0013897508815375167	-0.010180706545836518	0.00012952392210706387
2
213600
Ar	0.00023517118376620123	-0.0002337873054058508	0.0031858753803794522	0.015620104878916331	0.018107117013257307	-0.0004027281483501379
Ar	-6.813416031791444e-05	-8.860106605309306e-05	0.0027855981326528802	0.005939697151894888	-0.007944305993176415	6.575755038978872e-05
2
213800
Ar	0.00032333156133128565	-1.1635671856570305e-05	0.0031849404468107306	0.0012364788507668986	0.024516324462238122	0.00021222767671294374
Ar	2.2630718917092298e-06	-0.00014015800812397185	0.0027845826751857054	0.007565958906779369	-0.0019394149541019123	-0.00023759953657038243
2
214000
Ar	0.00025703612096817437	0.0002171532594897539	0.0031881180226755695	-0.013976088608454203	0.0192616911100225	0.00027253176582503144
Ar	7.145684282965863e-05	-0.00012416736508760802	0.0027828503843161743	0.005735595144421562	0.005035632875399491	-4.0605155012746706e-05
2
214200
Ar	6.661718867337596e-05	0.0003413766127605033	0.003189055080460587	-0.02245960467606181	0.004522670264270041	-0.0001283976431879487
Ar	0.00010761414860161372	-4.735312196586309e-05	0.0027847224735733974	0.0011783041807137326	0.009654666119544056	0.0004127025077393652
2
214400
Ar	-0.00015494170286409325	0.0003009604556825016	0.0031869529647931584	-0.02003379623210911	-0.012190238090867328	-0.0001710085772533665
Ar	9.260616886969698e-05	5.2884956029159494e-05	0.0027893264497268855	-0.004044568745027105	0.009471989984690279	0.00040592724539113926
2
214600
Ar	-0.00030295110984272414	0.00011766487024457505	0.003187287279508732	-0.008360060233253261	-0.022987190455030365	0.00027641082534663846
Ar	3.394563569563574e-05	0.00012655331312471093	0.002790929777056078	-0.007186998266274815	0.004650404629177871	-0.0001392536104195048
2
214800
Ar	-0.0003077284774392676	-0.0001225407722427812	0.00319104290767159	0.007517331219715189	-0.023007970220793657	0.0003623251308296678
Ar	-3.993404360180806e-05	0.00013867342576730568	0.0027875830402079404	-0.007002757338603226	-0.0023122476391930916	-0.00043321287152872705
2
215000
Ar	-0.00016390110641072243	-0.00030436206500190704	0.0031925095888484683	0.02001496747207948	-0.011768160718478346	-0.00016808653719681437
Ar	-9.535962916829665e-05	8.378266073696076e-05	0.0027841217982206446	-0.0036236020636618276	-0.00824512608514105	-0.00017547285467367138
2
215200
Ar	5.896734013848275e-05	-0.0003388094785531991	0.0031885610341098234	0.02266893476949166	0.005110023926060036	-0.0005064384688843096
Ar	-0.00010591699978449016	-1.2795767861189553e-05	0.00278411382117408	0.0016338224595409607	-0.010211866965291085	0.00014530645761217853
2
215400
Ar	0.0002532256636018716	-0.00021109471509585872	0.0031846751158392363	0.014622031835724355	0.019365090619951574	-0.00017210188502244031
Ar	-6.534107453974835e-05	-0.00010326484325208592	0.0027853838486130962	0.0060758719086681946	-0.007101489750331917	2.3245846058730377e-05
2
215600
Ar	0.0003277990137182186	1.7752687277749166e-05	0.0031856811205714024	-0.0003771775772022503	0.024535404458933787	0.00031416472226463706
Ar	5.56332585429427e-06	-0.0001435788768199365	0.0027845552107078728	0.007533937504237248	-0.0006287048884574706	-0.00012092980811900515
2
215800
Ar	0.0002449347105068897	0.00023919396102237242	0.0031887435780825002	-0.015497101147617279	0.017835432434694144	0.0001811489817043576
Ar	7.385102418845386e-05	-0.00011486739352327185	0.0027842973576918013	0.005564443405044624	0.00616761305794663	0.00012432912395671626
2
216000
Ar	4.3717084202475215e-05	0.00034478320638175965	0.0031885421355951392	-0.023027836093450032	0.0024143944693468715	-0.00017936283191778547
Ar	0.00010777105629161066	-3.036184831264923e-05	0.002787298438403808	0.0009006811106963103	0.010031208382826999	0.000425266184838702
2
216200
Ar	-0.00017790271656090858	0.00028466828527887514	0.003186636628804431	-0.019496647037039277	-0.013913943070864753	-9.190698365297011e-05
Ar	9.045817757584084e-05	6.907132940391142e-05	0.002791125053967156	-0.004192825605062966	0.008975748041350961	0.00020491283284796997
2
216400
Ar	-0.00031533386294880616	8.882808435496369e-05	0.0031879554718220243	-0.0068211427887335625	-0.023670022209909127	0.00035946797577290034
Ar	3.126117004198483e-05	0.0001346132291794392	0.0027900417483959035	-0.007157412115556744	0.003584529127462359	-0.00035343536225393007
2
216600
Ar	-0.00030246254217369486	-0.0001504716678588781	0.003191415571579537	0.009341060265239228	-0.022151750492929598	0.00022046395617516542
Ar	-4.199999611962963e-05	0.00013538543493358274	0.002785497067418846	-0.006934694097339289	-0.0034439982050439365	-0.00044655730354481676
2
216800
Ar	-0.00014350642211534773	-0.00031712139071992545	0.003190927249876347	0.021067634134050467	-0.009759928037403534	-0.00034452720024920325
Ar	-9.63843920090488e-05	7.074938126936673e-05	0.002783035628759619	-0.0034814658458952835	-0.008965551629426772	3.958952538642002e-06
2
217000
Ar	8.385393709564143e-05	-0.0003301143238820716	0.0031859129946538484	0.022483699777154607	0.0071977221600864165	-0.0005130505742978822
Ar	-0.00010545487280519743	-2.8882582895219223e-05	0.0027847095024576135	0.0017659769039244568	-0.010100858752181498	0.00023260525191981507
2
217200
Ar	0.00027074545173867926	-0.00018578038655801	0.0031833896369115114	0.013376705494629978	0.02049831282753462	6.848140538324989e-05
Ar	-6.419767656022696e-05	-0.00011446167997202775	0.0027861492808003256	0.006111803020657695	-0.006299883297284716	3.297061966408801e-05
2
217400
Ar	0.00032960027626216455	4.7660996151397956e-05	0.0031863897364284347	-0.002169520065830816	0.024263454049667576	0.0004178537797905234
Ar	7.06479874013184e-06	-0.00014482937248241098	0.002785678039178067	0.007557450056837414	0.0004714134131927374	-4.449311397059779e-05
2
217600
Ar	0.00023013428637284262	0.0002594247937515026	0.0031893966457140683	-0.016907546248801957	0.016229192841970948	0.00011597607903891093
Ar	7.539294579701129e-05	-0.00010544411288414119	0.0027862974115249106	0.0055355441820833925	0.007095989084306228	0.00019779997108640036
2
217800
Ar	1.9834736556028294e-05	0.0003455169211269355	0.003188719372232186	-0.023360976074926668	0.00031031974441775973	-0.00017981105781898584
Ar	0.0001083150378646598	-1.4738976045036694e-05	0.0027891762158282554	0.0007654979620740648	0.010256896401970996	0.00032776136087166364
2
218000
Ar	-0.0001994427707690077	0.0002663805061724899	0.0031874711896571276	-0.018711105348977512	-0.015466960421573233	8.915223505504508e-06
Ar	8.9528466786466e-05	8.28667272113926e-05	0.002791046092007548	-0.0043394638116836	0.00840137390040504	-1.1940124466744922e-05
2
218200
Ar	-0.00032441216602532326	6.0434405888376265e-05	0.0031891870795892133	-0.005204856786573742	-0.02402572845699747	0.00027468743272296897
Ar	2.8858294192586295e-05	0.0001397365325919536	0.002788926666494147	-0.0073269528725079976	0.0025256740025500716	-0.00035010058850132986
2
218400
Ar	-0.00029403867884258674	-0.00017539853185220537	0.003190858039618952	0.011062807074267286	-0.021110719182662566	-1.0216409896738766e-05
Ar	-4.564170222866181e-05	0.00012917896612643228	0.002785678488785852	-0.006965357155786964	-0.00454519420090383	-0.00020525131259831785
2
218600
Ar	-0.00012146230731497201	-0.00032648626624449777	0.003188455341388642	0.021939539107981625	-0.00782235938017671	-0.0004207054502957905
Ar	-9.909745496371909e-05	5.6405565082554696e-05	0.0027851666828463705	-0.0032545931782472608	-0.009410656452659228	9.269174967254999e-05
2
218800
Ar	0.00010892686999724359	-0.0003198689622877254	0.003184309844896362	0.022203913378279868	0.009030284374520355	-0.0002761697514155711
Ar	-0.00010543963080727609	-4.349673190556588e-05	0.002786565266868682	0.0020610337198449574	-0.009725114579060088	9.640029446375617e-05
2
219000
Ar	0.0002875928094482127	-0.00016061504184440584	0.003184024212195026	0.012035369808353492	0.02153551797546446	0.00025023831593260084
Ar	-6.181242275718192e-05	-0.00012184548013572637	0.002786582143209387	0.00628412629853764	-0.005288415040166536	-9.180308772501744e-05
2
219200
Ar	0.00032926212357411105	7.625700978883521e-05	0.003187827664416177	-0.004091130436288279	0.02384321009358189	0.00038777063612464017
Ar	1.0841294252838667e-05	-0.00014104256705877688	0.002785650352677003	0.007639250321160684	0.0015896757117218254	-1.9448083429415165e-05
2
219400
Ar	0.00021213450728842413	0.0002765694152608681	0.003189732693255956	-0.018323205200118636	0.014497080721172097	-2.6709409382612667e-05
Ar	7.883254278095945e-05	-9.24935231910258e-05	0.002787214011951928	0.005374116326278995	0.00773962201144121	0.00031300876292544215
2
219600
Ar	-6.6732112932178265e-06	0.0003429165064487267	0.0031879583641669525	-0.023598281621451212	-0.0017186606488826938	-0.00023692291851930343
Ar	0.00010941231353053418	6.246922015647356e-07	0.0027906059210752302	0.00045668408084576705	0.01007465629636245	0.0002892116453966596
2
219800
Ar	-0.0002220241251728662	0.0002456568751080127	0.003186932929115696	-0.017710439640656495	-0.016909206846183987	9.700480451964078e-05
Ar	8.751415313039444e-05	9.239654062326184e-05	0.0027913139254416687	-0.004624531027852767	0.007511113685100696	-0.00017882963598307925
2
220000
Ar	-0.00033208924745739327	3.116380208795591e-05	0.0031890171394274	-0.003360577778538402	-0.024237440825356088	0.00026278578751438744
Ar	2.439341503937318e-05	0.00013908008634555904	0.002787697460786875	-0.0075057277522973895	0.001456750283215043	-0.00045516922287420467
2
220200
Ar	-0.00028233806204818005	-0.00019900578224296564	0.0031901066037306907	0.012896716779086425	-0.01982401075319268	-0.00010641367965393662
Ar	-5.065127467738731e-05	0.00011890233403004815	0.0027840725234743774	-0.006926688510277734	-0.005324687204890993	-0.00021075467776481745
2
220400
Ar	-9.585874117900157e-05	-0.00033241250773764373	0.0031874634001948267	0.02277909323880584	-0.0057766789674016635	-0.00037330243544714714
Ar	-0.00010287199833506114	4.094807401527959e-05	0.0027836779742344843	-0.0030471114916517644	-0.009599397563785727	9.820721905606738e-05
2
220600
Ar	0.00013602116067002232	-0.0003059578414881208	0.003184529255107363	0.02169537840933104	0.010808273157427727	-0.00012104288764546997
Ar	-0.00010584231774962683	-5.675728916567516e-05	0.0027851023490822586	0.0024493106321095506	-0.009106656236811226	0.0001252710251599382
2
220800
Ar	0.0003035219258613893	-0.0001334978377388477	0.0031856396730500914	0.010384226538216896	0.022290197772066648	0.00029007429156087465
Ar	-5.8456429993894844e-05	-0.000126579288301885	0.0027857537482335773	0.006633206038653864	-0.004270130077575139	2.2273579163333508e-05
2
221000
Ar	0.00032589286200794966	0.00010356515893636875	0.003188575348719246	-0.006127450545191015	0.02310724372165152	0.00017834831131954335
Ar	1.6658763613594136e-05	-0.00013534380035730656	0.002786483785587339	0.007815813095911516	0.0026041122887916985	0.00016644156608051482
2
221200
Ar	0.00019099458250452107	0.0002902590255453148	0.003188557449705992	-0.01966862199636771	0.012656031661758544	-0.00016436204817227648
Ar	8.468414201271587e-05	-7.876580549025904e-05	0.0027893184842801917	0.005230891096861813	0.00824742622293087	0.00035177574203211075
2
221400
Ar	-3.530275855758436e-05	0.00033681654925012795	0.003186527757170414	-0.023711843852107593	-0.003659999994907074	-0.00015943285316240004
Ar	0.00011271338900599849	1.5406596271279765e-05	0.0027922017323498676	0.00015047672785033767	0.009779522345316526	0.00012307726444489236
2
221600
Ar	-0.0002451730168525789	0.00022317053354543311	0.0031864562266157356	-0.0165071610812516	-0.018179364083067247	0.00016186062945457646
Ar	8.75659855175903e-05	0.00010084477609341699	0.0027910326059167267	-0.004963121389767744	0.006586792918624818	-0.000337924442872661
2
221800
Ar	-0.0003385517526860364	2.1118778738154714e-06	0.0031887066058061374	-0.0013256199680670474	-0.02417812065061413	0.00020629779861086112
Ar	2.0941571856389287e-05	0.0001369637932613967	0.002786950306857566	-0.007859588165713156	0.0003442359018645529	-0.0003725925846379966
2
222000
Ar	-0.0002689158871712412	-0.0002203238619540844	0.003188964638831915	0.014662642978296682	-0.018402602902159355	-0.00015134124579983685
Ar	-5.69628717169845e-05	0.00010742457402361544	0.002784280572169075	-0.007059822785625338	-0.006041475990682517	-8.492049685728212e-05
2
222200
Ar	-6.997870468342939e-05	-0.000336168183014827	0.0031865070009821097	0.023461959182909317	-0.003799360204304649	-0.0002678284816618331
Ar	-0.00010861261275144818	2.6029953866711692e-05	0.0027850423469377677	-0.0028086784618708976	-0.009531886844681658	0.00018565924200904715
2
222400
Ar	0.00016212831627419947	-0.00029115003174591064	0.0031854728846132004	0.021070594031101838	0.012429285498401934	7.574896918266736e-05
Ar	-0.00010838054228378927	-6.740470687132853e-05	0.002786551597029062	0.0028565521640541137	-0.008381548085926687	8.104966984562407e-05
2
222600
Ar	0.0003171433405877037	-0.00010689367941118804	0.003187646605854597	0.008606300007145257	0.022904544520186157	0.00028278397241014654
Ar	-5.634144002844234e-05	-0.00012818042153170213	0.0027867674850329035	0.007135361162019341	-0.0032643738974616585	2.957174413061089e-05
2
222800
Ar	0.0003197937306532684	0.00012972099884273175	0.0031891490423858167	-0.008123726248462058	0.022365920133255758	-2.7122620670326675e-06
Ar	2.33636058901018e-05	-0.0001271015708405557	0.0027877316268322618	0.008120124402154413	0.003480953145336979	0.00017039811086929898
2
223000
Ar	0.00016834581418594146	0.00030355706225389104	0.003187577722070298	-0.020849623086035128	0.010961310967717646	-0.0002569502565429376
Ar	9.268800080710975e-05	-6.440604413682517e-05	0.002789996554903377	0.005145272132070591	0.008514019269662824	0.0002202058206221508
2
223200
Ar	-6.31113655665155e-05	0.00033156934352175947	0.0031855523213124453	-0.023556604492454208	-0.005539444006315934	-6.761380879508317e-05
Ar	0.00011772763023819913	2.880153669352106e-05	0.0027909306616662037	-0.00031952272534458136	0.009316969220774025	-8.661451429070527e-05
2
223400
Ar	-0.0002649425188745993	0.00020166654097603548	0.003186271524862106	-0.015122777680681536	-0.019383243344674634	0.00018845017252319842
Ar	8.695940462497955e-05	0.00010704738575615101	0.0027883867430096867	-0.0055807620487017375	0.005704686079964143	-0.0003794531379286862
2
223600
Ar	-0.00034031438918087685	-2.5251915164817005e-05	0.003188160867203306	0.0007229417403738612	-0.02406015763426756	7.323851805659834e-05
Ar	1.4571325366339045e-05	0.00013381622131146306	0.0027849009871050386	-0.008311191661331324	-0.0005856850015799838	-0.00024694450237751543
2
223800
Ar	-0.0002514976182583321	-0.00023990677378405649	0.0031873416030775105	0.016268797816496722	-0.01706090284292739	-0.0002105167341017947
Ar	-6.584689339204461e-05	9.617218035664754e-05	0.002784251201239056	-0.007072306516608705	-0.006636731123908565	0.00012828687004837934
2
224000
Ar	-4.2093621787133085e-05	-0.0003385968354551877	0.003185350706960207	0.023836853561128333	-0.0019145959016970478	-0.00013447154334831656
Ar	-0.00011507566330373521	1.2291026838921225e-05	0.002786287099664684	-0.002356057495792644	-0.009413813613410166	0.00022090975161199542
2
224200
Ar	0.00018743266509975602	-0.00027562658695898853	0.0031854023522748433	0.02013574051504734	0.014016479804372223	0.0001801999045727919
Ar	-0.00010885000993220331	-7.67268428450241e-05	0.0027874896850080236	0.003548616518862045	-0.007647563987120777	2.283078287332636e-05
2
224400
Ar	0.0003277969663401465	-8.026142026356415e-05	0.003187750850535699	0.00672774154933561	0.02343030088168613	0.00021583912225637837
Ar	-5.0172865759769986e-05	-0.00012847566609533066	0.002787359960898602	0.007683703858528196	-0.0022708602279058127	-3.4833904561551164e-06
2
224600
Ar	0.0003104249785100644	0.00015421149366840416	0.0031885572483063528	-0.010057445162630662	0.021470044862420677	-6.919873040693697e-05
Ar	3.261713211305675e-05	-0.00011844158092035129	0.0027879148509769177	0.008190935221187226	0.00419391401705566	0.00013639520095580152
2
224800
Ar	0.00014361665338587232	0.00031405925751176077	0.0031870268922427844	-0.021856926651200932	0.009166529999366589	-0.00019966295775160502
Ar	0.00010015422458709652	-5.1513205238585546e-05	0.0027898392097234024	0.004717027552149292	0.008646509036477776	0.00015551481752169302
2
225000
Ar	-9.12880317576113e-05	0.0003236571250214396	0.0031858493022941317	-0.023197639304582587	-0.00731798803249362	2.391695686153166e-05
Ar	0.00011936544243194533	3.9879641963736356e-05	0.0027903092137571946	-0.0010347639020128398	0.008845758398537032	-9.734303069718128e-05
2
225200
Ar	-0.0002832108507676558	0.00017903008273693143	0.0031873331040805464	-0.013557529787483012	-0.020424427901476225	0.00023040646481857857
Ar	8.142317269777917e-05	0.00011105314031781577	0.0027881594895154426	-0.006258955579446513	0.004852411195824895	-0.0002839624522239443
2
225400
Ar	-0.0003395406975913165	-5.153434440214841e-05	0.0031890689079073042	0.00279760842438619	-0.023720850484615127	7.995587930838847e-05
Ar	4.206048313269624e-06	0.0001292016866670185	0.0027857498185777556	-0.008562493015604567	-0.0013914235906861204	-0.00014669594631712806
2
225600
Ar	-0.00023169435899320377	-0.00025630711457373705	0.003188241973626293	0.017808834516381683	-0.015510165222610433	-0.00020399875703982598
Ar	-7.603057322231604e-05	8.510482458802013e-05	0.0027855777546963337	-0.006775648716320528	-0.007042336907807269	0.00011146833646434962
2
225800
Ar	-1.2726458810198494e-05	-0.0003373429275010179	0.0031863636572637684	0.024157606729510953	-3.6447753938067466e-05	-9.888558143609096e-05
Ar	-0.00012010286375045019	8.568367018266375e-08	0.00278694338411004	-0.001649199283296778	-0.009217695642964067	8.963118656518524e-05
2
226000
Ar	0.0002126265229289258	-0.00025740072859577217	0.003186823465120539	0.01901744869990438	0.015433722290753777	0.00018018254890052202
Ar	-0.00010657061792364364	-8.430806990871505e-05	0.002786983415131373	0.00423339035279136	-0.006963891268092022	-9.033781568313245e-05
2
226200
Ar	0.00033633970869159765	-5.3769301640403634e-05	0.00318867614337979	0.004657254243834437	0.023585246864982586	0.00011675162756152214
Ar	-4.18248035123042e-05	-0.00012798921002699323	0.0027861379644081113	0.008168752965153812	-0.001390723526636688	-2.3441054973703373e-05
2
226400
Ar	0.00029795075183371795	0.000175591596824959	0.003188355093413784	-0.011984585922636931	0.020315020479586065	-0.00015791200730201562
Ar	4.3525648708113134e-05	-0.0001101001455520677	0.0027869899024738467	0.008214103385834115	0.004818335554456136	0.0001885347644239536
2
226600
Ar	0.00011659333807829215	0.00031991717234361076	0.003186357440572253	-0.02274989060971597	0.007373522575788968	-0.00014714352025252294
Ar	0.00010854928348548404	-3.965023713812032e-05	0.0027889576984494995	0.004203229270929542	0.008656254476070177	0.0001385840480938058
2
226800
Ar	-0.00012041658879828815	0.00031144125065245525	0.003186106722258181	-0.02267759643515298	-0.008980429380073505	0.000117105225569994
Ar	0.00012115072984639025	4.9131462371126576e-05	0.0027890458127080857	-0.0017733377237049103	0.008345258660891709	-0.00011061572331004896
2
227000
Ar	-0.0003003046819559088	0.00015411377922420048	0.003188175862012105	-0.011767418000814317	-0.0211814646346793	0.00022657902937684178
Ar	7.614239796854251e-05	0.00011410819440843033	0.0027869924585496733	-0.006880042812444392	0.004096771260701551	-0.00021494463429892605
2
227200
Ar	-0.0003361698650170304	-7.754038176756315e-05	0.0031889976999867394	0.004907272443019529	-0.02315823835549164	-8.051038849848285e-05
Ar	-5.639603530107797e-06	0.00012457141154231699	0.0027859919984264004	-0.008782763140204632	-0.002110358352358394	2.1089870817287333e-05
2
227400
Ar	-0.00021025007515310546	-0.0002714075817380715	0.0031869812272542087	0.01917105565556061	-0.013997687311316745	-0.00024629891265334097
Ar	-8.518282665823526e-05	7.54443620578794e-05	0.002787244262773475	-0.006422229061020462	-0.007305766352989665	0.00017501388444904722
2
227600
Ar	1.59980723508386e-05	-0.0003353761291193532	0.003185278878505575	0.024205226434484344	0.001730280172613907	-4.078378733103675e-05
Ar	-0.0001239110970066151	-9.784734317643445e-06	0.002788351229227574	-0.0010017764489579778	-0.0090049171266983	6.3481358012672575e-06
2
227800
Ar	0.000234876687213771	-0.00023943874251500637	0.003186434517541971	0.017743728436067356	0.016695672607303456	0.00021416912873684104
Ar	-0.00010359942277315501	-8.99644193806916e-05	0.002787438348390154	0.004893456619364888	-0.0063548028661532556	-0.0001482331846050367
2
228000
Ar	0.0003414717220802364	-2.8324607009600857e-05	0.0031882301949078635	0.0026528702495894245	0.023725625889215056	0.00010470098030784661
Ar	-3.332594941387275e-05	-0.0001269275159670946	0.0027864483088414693	0.00857513783198943	-0.0007257379447908974	-1.7130770759416984e-05
2
228200
Ar	0.00028361393030979605	0.0001958844871357442	0.0031881450300054823	-0.013711845756635584	0.019226298666606547	-0.00010735193979749366
Ar	5.395327391999529e-05	-0.0001032202918865146	0.002787205450303926	0.008120325658659288	0.00529912076776633	0.00015784049617470155
2
228400
Ar	8.9817856147233e-05	0.00032559892454204467	0.0031870639839043395	-0.023409828898824654	0.005668101719572552	-5.545832614021457e-05
Ar	0.00011534538892711577	-2.9879665979813722e-05	0.0027884471711538345	0.0036465885222796333	0.008742972349336055	5.735748932135196e-05
2
228600
Ar	-0.0001470020391090473	0.0003001713566900188	0.0031875746646160773	-0.021996203882178433	-0.010574713649616716	0.0001403920607662059
Ar	0.00012122137345863256	5.727294025528214e-05	0.002788048140864765	-0.0025404550781567207	0.007994945431399208	-0.00013936631411316043
2
228800
Ar	-0.0003139077259074877	0.0001309261666332385	0.003188819715735104	-0.00994126632255947	-0.02186012922331592	4.2417926828443797e-05
Ar	6.877878213557673e-05	0.00011728074160658756	0.002786285444040645	-0.007538958890881897	0.0035000537404936685	-0.00015820030064052248
2
229000
Ar	-0.0003296096292662067	-0.00010144907951791753	0.003187818601663638	0.0069356439016751556	-0.022623001125506154	-0.00020720865932807715
Ar	-1.7473621281323083e-05	0.00012136432844823088	0.00278588035543994	-0.008963953988428032	-0.0027323362392639786	5.080124530484212e-05
2
229200
Ar	-0.00018701915191141866	-0.00028483054763567706	0.003185402890919776	0.020373217498737543	-0.012524071340853427	-0.00020943224125326998
Ar	-9.580652209050047e-05	6.704806136402499e-05	0.002787158096813442	-0.006033611021857949	-0.007626945533449792	0.00012484248400205128
2
229400
Ar	4.513406804207527e-05	-0.00033220779296554484	0.0031847712944306377	0.02411817154346963	0.0034383491839908506	9.990398077540082e-05
Ar	-0.00012820385744527032	-1.856596775899626e-05	0.002787760161024304	-0.00017889190760735546	-0.00878079275291646	-7.5880059506040165e-06
2
229600
Ar	0.0002564874922494812	-0.00022096692858663333	0.003186766131990906	0.016360152288517716	0.01791542467437652	0.00024148977963265293
Ar	-9.910599161147966e-05	-9.447875501876479e-05	0.0027872588257609955	0.005768790541116391	-0.005759929557543326	-7.156352142299548e-05
2
229800
Ar	0.0003448341870154959	-3.365968583256216e-06	0.0031883490318219665	0.0005458134246655282	0.023761387896261796	5.531376652718476e-05
Ar	-2.2283444156890205e-05	-0.00012491324450857104	0.002787311060362953	0.008969666561969144	-8.367480863414249e-05	6.995115246791661e-05
2
230000
Ar	0.000267075356972959	0.00021527239559935036	0.003187838850244679	-0.015399420739694789	0.018139521171159294	-0.00011916770512562075
Ar	6.563079309517896e-05	-9.570982818137183e-05	0.002788540402423057	0.007872726056358751	0.005688665447269236	0.0001241246131898325
2
230200
Ar	6.174427839251856e-05	0.00033041774670655196	0.003187105982516632	-0.02393834260016874	0.003955329702451612	2.4537223076996714e-05
Ar	0.0001221536033913839	-2.072372787890867e-05	0.002789226306577263	0.0029681243821605406	0.008669352750760279	-4.129072578952908e-05
2
230400
Ar	-0.00017339087532786652	0.00028791573066542484	0.0031881851228965094	-0.02111905912541579	-0.012130806032552953	0.0001375431246420956
Ar	0.00012017879672686708	6.340375154039122e-05	0.002787978507305049	-0.0033586700388575945	0.007504307339410754	-0.000186507897814191
2
230600
Ar	-0.0003257651391114606	0.00010689584768668398	0.0031888344061218855	-0.008036574666915071	-0.022544722279467754	-5.774867026402151e-05
Ar	6.026822253422414e-05	0.00011745281443173246	0.0027864940873269153	-0.008137204834822666	0.0028504778240399844	-9.056882953563763e-05
2
230800
Ar	-0.0003209388259254252	-0.00012578657582944794	0.003186986873460118	0.008938656664207822	-0.022012944703330768	-0.0002823537817329443
Ar	-2.9366127707089932e-05	0.0001155437269068848	0.0027866153354572623	-0.009009452772528447	-0.003261642996027874	9.871747833917535e-05
2
231000
Ar	-0.00016216586891875734	-0.0002978522248811298	0.003184838736085289	0.021471043541259664	-0.010987141821507396	-0.00011903082852616074
Ar	-0.00010506547792829874	5.7734968642906316e-05	0.0027877219903550206	-0.005455126591130181	-0.007786841963713891	6.579120319584658e-05
2
231200
Ar	7.417866706566308e-05	-0.00032792683730071854	0.003185059468738962	0.02380654606741078	0.005236928006131317	0.00015920288696286182
Ar	-0.0001296581205044986	-2.7269181207964845e-05	0.0027873070074563217	0.0007059684633537938	-0.00850893767460537	-0.0001249073250333938
2
231400
Ar	0.000275405250946964	-0.0002008105988663784	0.0031874506296004587	0.014709223157365238	0.01912470723915751	0.00024888562653196
Ar	-9.208889247908195e-05	-9.878921752567047e-05	0.002786189168402536	0.006525497796153883	-0.005227121022526242	-5.7355005698317275e-05
2
231600
Ar	0.0003440650125153365	2.3193365610772214e-05	0.0031888888978971273	-0.0015514865759700285	0.023763055902453777	-1.6560247399581718e-05
Ar	-9.817854562642344e-06	-0.00012338669186575331	0.0027865819011177136	0.009236525547977511	0.0005382627657265116	0.00011852258993517421
2
231800
Ar	0.00024724467692425605	0.0002353801155598788	0.003187564046615326	-0.016959200351790403	0.016925616659550228	-0.00018701744329677457
Ar	7.746309708601397e-05	-8.896706590868814e-05	0.002788242353082937	0.007465364026064212	0.006047898201469768	0.00015361440721577358
2
232000
Ar	3.256470985257054e-05	0.00033499021054622094	0.003186411568154269	-0.02420982309926769	0.002153085316221576	-1.607715313440423e-05
Ar	0.00012729956519035734	-1.25477865428271e-05	0.0027890093669640822	0.002069539056792395	0.008599477161160338	-2.448919465263283e-05
2
232200
Ar	-0.00019802739385477776	0.0002748877673749486	0.00318692163126426	-0.019960033804817805	-0.013717297051684474	9.52487552802046e-05
Ar	0.00011576659538377919	6.930916092729895e-05	0.0027881245104094026	-0.004284854594891266	0.007088407752295681	-0.00011367788940527542
2
232400
Ar	-0.0003336683422093638	8.250631098376336e-05	0.0031872517167157647	-0.0060098095807746485	-0.02310018234588196	-2.050192632684379e-05
Ar	4.846255098360036e-05	0.00011815343648414666	0.00278730108526481	-0.008626059470404013	0.002252102559835382	-2.7852420236095654e-05
2
232600
Ar	-0.00030855534528831976	-0.00014931502910957287	0.00318649030171536	0.01081057581384589	-0.021315593598190224	-9.725510490128653e-05
Ar	-4.251579196108572e-05	0.00011046048700631875	0.0027874800890853	-0.008792457185586862	-0.0037379581201644075	1.383340159525296e-05
2
232800
Ar	-0.000135672268714511	-0.0003095575686467616	0.0031861751138416985	0.022315479296974527	-0.009412331149594432	6.749819180324257e-05
Ar	-0.00011298802793328524	5.005715482986107e-05	0.002787676217858488	-0.0046879037260020365	-0.00784357531310165	-2.6938905363985706e-06
2
233000
Ar	0.000102044801215229	-0.00032221775161840485	0.003187631201346628	0.023232092466503998	0.007012269971600384	0.00019265433547515967
Ar	-0.00012884648558305085	-3.369973807275933e-05	0.002787352637776	0.0016418868964073296	-0.008240105997083257	-4.6277504452187905e-05
2
233200
Ar	0.0002909163991741013	-0.00018022233863686937	0.003189246501860747	0.01293347825372463	0.020197302171544015	6.715277180987392e-05
Ar	-8.288666276247074e-05	-0.00010159820708094877	0.002787466303562016	0.007172206207917571	-0.004779657516559316	7.15652971868794e-05
2
233400
Ar	0.00033950717167361967	4.843240072246375e-05	0.0031887915453078872	-0.0036011733050355125	0.023590087293911897	-0.0001540509364189151
Ar	3.355697728653886e-06	-0.00012110259315194113	0.002788566792983937	0.009360620234768666	0.0010395785008006102	0.0001378337590730331
2
233600
Ar	0.00022521920822665882	0.0002533178456730648	0.003186910322611285	-0.01826873806839991	0.01568984078788429	-0.00016669319077589528
Ar	8.844462080208915e-05	-8.26589115164606e-05	0.002789616412317417	0.006920359249056828	0.006317898186501311	4.2677305562823137e-05
2
233800
Ar	3.4788888945547913e-06	0.0003370744706585686	0.0031858701665295934	-0.02423666061060379	0.00033531578363102003	-2.670032189086881e-05
Ar	0.00013088446762739528	-5.257730358914821e-06	0.0027891504638770325	0.0012025493085438066	0.008528009014603445	-0.0001346309913300042
2
234000
Ar	-0.0002202485716697583	0.0002593117215936847	0.0031859854567471003	-0.018614772828196256	-0.015237862558438672	3.617846877081413e-05
Ar	0.00011044675539904484	7.417270668788975e-05	0.002787508530894647	-0.005089584687622454	0.006715415246376912	-0.00015996479739289175
2
234200
Ar	-0.0003383130580538897	5.715798157220553e-05	0.003186329536962638	-0.004001027986903566	-0.02348103115153412	2.9702924798559053e-06
Ar	3.721191949501955e-05	0.00011835023080573767	0.002786563433752198	-0.00895312534718314	0.0017420985010526407	-3.850353659378422e-05
2
234400
Ar	-0.0002940395379301589	-0.0001718263739133108	0.00318639443349801	0.012468835338014095	-0.0203891779950707	6.799750666792082e-06
Ar	-5.398120867664826e-05	0.00010599612335385065	0.0027868903236785247	-0.008499752342559421	-0.004118778614714067	6.581534765595083e-05
2
234600
Ar	-0.00010908283427824842	-0.00031814594923697996	0.0031869579546861867	0.023018638451849767	-0.007657519692984214	0.00012469249457829653
Ar	-0.00011867049457070579	4.273683435361033e-05	0.0027874323764161394	-0.0038997042094256885	-0.007981129598509232	1.4741122012630315e-05
2
234800
Ar	0.00012880820398405835	-0.0003124101087072052	0.0031884407338837774	0.022579010856607844	0.008797721509634678	0.0001282987080390778
Ar	-0.0001260738001013671	-4.0627727734899756e-05	0.002787208491694114	0.0024822517822456406	-0.008009263235850404	-5.6156538895760605e-05
2
235000
Ar	0.00030531127174875295	-0.00015662575579491434	0.0031887475308487135	0.011217415495550328	0.021036841835338566	-0.00010251884056806961
Ar	-7.267559837872936e-05	-0.00010489544011075135	0.002786865233338871	0.007743054427663161	-0.004297975840015339	4.093278399058353e-05
2
235200
Ar	0.0003349838463579648	7.413547043790527e-05	0.0031867407031647152	-0.005529035475249839	0.023168154536590355	-0.00023787488201739722
Ar	1.6227033621030448e-05	-0.00011920904343990928	0.002787939597904085	0.009260344851295895	0.0015459603896240313	0.00013014331448049432
2
235400
Ar	0.00020413082866911741	0.0002691135153661708	0.0031850140143565033	-0.019547771480203445	0.014209484843329243	-5.265466898457054e-05
Ar	9.715304768338816e-05	-7.67769698505626e-05	0.0027887852699605992	0.006235078082563396	0.0065703474267030165	3.323172470566457e-05
2
235600
Ar	-2.4355373178574224e-05	0.0003355463130290698	0.0031857515791197965	-0.024279732723621102	-0.0014752613395280507	0.00017746341093577666
Ar	0.00013129816034024227	1.6933911138997032e-06	0.00278809114090153	0.00031956866092747415	0.008499009334184774	-0.00015992579053851822
2
235800
Ar	-0.00024171768319718244	0.00024169776955172855	0.0031873188437495873	-0.017355686954708283	-0.016534084074075237	0.00010628343557655914
Ar	0.0001030004781772362	7.953389426199303e-05	0.0027866211292995225	-0.0057529192656598175	0.006428521041125027	-9.254149956306562e-05
2
236000
Ar	-0.00034261622140587005	3.202173102555651e-05	0.0031873677974576255	-0.00197719061640524	-0.023646613190638103	-9.906425202510929e-05
Ar	2.529392230714069e-05	0.00011970511556496536	0.0027863631874379927	-0.009142692798328942	0.001257857521858171	4.996258129210784e-05
2
236200
Ar	-0.00027897657425699494	-0.00019259224237968702	0.0031864429809378134	0.014173146981296321	-0.019398817427482274	-6.952966771248088e-05
Ar	-6.492408090633261e-05	0.00010243949879043768	0.002787272866901339	-0.008110187380134299	-0.004568440060007566	9.492541249883e-05
2
236400
Ar	-8.192673132127626e-05	-0.00032511211516832015	0.003186451401009184	0.023578323741192543	-0.005973798479859364	8.842232701078708e-05
Ar	-0.0001237040250596303	3.605811523424013e-05	0.0027876670372509907	-0.0031387623778301207	-0.008140798917313315	-9.661761800997531e-06
2
236600
Ar	0.00015468516103157883	-0.00030206901735082826	0.0031877068734569663	0.021725089585712804	0.010398725391053881	0.00011520889440346896
Ar	-0.00012307514490260196	-4.740360562350086e-05	0.002787367545215094	0.003276238124347425	-0.007867915236250415	-1.0737660895150342e-05
2
236800
Ar	0.00031720575770421245	-0.00013401396421352792	0.003188175606909157	0.009385946390152547	0.021775433731953498	-2.781076863897826e-05
Ar	-6.347138737898108e-05	-0.00010864190970355723	0.002787851854326879	0.008146976511137138	-0.0038493880412429427	0.00010209901438809477
2
237000
Ar	0.00032717935983321664	9.812216440821025e-05	0.0031873124974744916	-0.007454689132985104	0.02271091526721831	-0.00011615634255798608
Ar	2.6967430378574793e-05	-0.00011803918819348808	0.00278895554890049	0.009156488447185047	0.002064240348897797	9.827842267207719e-05
2
237200
Ar	0.00018053239133902343	0.00028335272751179837	0.003186817895576907	-0.020643563310193246	0.012793860987032094	4.3930376453298196e-05
Ar	0.00010439613508523546	-7.085550594446929e-05	0.0027890999642797864	0.005685413253844999	0.006956177671756433	-9.25914039786606e-05
2
237400
Ar	-5.2568779273226117e-05	0.0003332688571269114	0.003187641426816352	-0.02404760533917873	-0.0032521653586688637	9.527107906674159e-05
Ar	0.00013179862648638366	1.0209629595767099e-05	0.0027875422582841064	-0.00045721738631676205	0.008593018241916108	-0.00018383142182386888
2
237600
Ar	-0.00026071988947233446	0.00022335508255231536	0.003188213312705657	-0.015833932033889657	-0.017789561798447394	-4.680470781487621e-06
Ar	9.58260429316329e-05	8.687482021982539e-05	0.002786144816257892	-0.006420058371894902	0.0061059197994127856	-8.690110823144453e-05
2
237800
Ar	-0.0003430847046545999	6.160436206305965e-06	0.0031875026933090166	4.056201101894214e-05	-0.023808511294251638	-0.00014368061061991743
Ar	1.3868575090665114e-05	0.000122319261412313	0.0027862532894699686	-0.009297005663189351	0.0006599769691628347	7.499776768576516e-05
2
238000
Ar	-0.00026061116917482194	-0.00021381284595471152	0.0031860444816263845	0.01576313916681741	-0.018372030752302874	-9.815077907247679e-05
Ar	-7.472484800668572e-05	9.920495818242557e-05	0.002787304859617172	-0.007662816022044736	-0.005103089238020153	0.00010821892150617235
2
238200
Ar	-5.331340107123888e-05	-0.00033153932066626047	0.003186230226960442	0.02396876160350134	-0.004191067964614737	0.00011662319738778862
Ar	-0.00012700009256405055	2.8894544125765293e-05	0.0027878794658964976	-0.0023570859619358032	-0.008369797013393514	1.0336316344165216e-05
2
238400
Ar	0.0001798417868134494	-0.00029063245954486855	0.0031876440018930685	0.02068651960714583	0.012054576797220025	0.00013166813874303707
Ar	-0.00011821811895443442	-5.498333145865488e-05	0.0027878463032159065	0.004035752790260461	-0.007727607171615475	1.0784644867206115e-05
2
238600
Ar	0.0003263825147299856	-0.00011007715082558197	0.0031882405401948994	0.007390719507921042	0.0225139275725744	-2.0005104959200984e-05
Ar	-5.2458916004277256e-05	-0.00011268160709736411	0.0027882480085653274	0.008551579945146211	-0.0033375262505918627	6.509123573587684e-05
2
238800
Ar	0.00031594775607754456	0.00012278450321571307	0.003187768318897113	-0.00937399642280647	0.022128184046879724	-5.539196759783429e-05
Ar	3.850517286589382e-05	-0.00011625979945132698	0.0027888159894561637	0.008862909815080193	0.0026389209900741875	1.3976226302055716e-05
2
239000
Ar	0.00015447557960540623	0.0002968838950289737	0.0031873890977916785	-0.021584721730781235	0.01122658158185334	1.228032242165374e-06
Ar	0.00011055037258300353	-6.412557153485509e-05	0.002788233860778827	0.00493291551959772	0.007356944988325303	-0.00013000020986750506
2
239200
Ar	-8.103619075740107e-05	0.00032876316580743314	0.0031874459759229767	-0.023545853568806285	-0.00511861897697776	5.407349386451787e-06
Ar	0.00012950134185242543	1.866391014415356e-05	0.0027865839570328983	-0.0013152576552987727	0.008514836485337162	-0.0001726087564454473
2
239400
Ar	-0.00027782101212575443	0.00020270595084134562	0.0031870865902010846	-0.014146399704748241	-0.01903485166626178	-9.172763029929244e-05
Ar	8.58519063171441e-05	9.257331315482081e-05	0.0027855138182390974	-0.00703555534755334	0.0056465563588065605	-2.3456983920717637e-05
2
239600
Ar	-0.00034077424614001057	-2.0675868782986064e-05	0.0031857879596459736	0.0020584836341613084	-0.02377953410347675	-0.0001420882160099666
Ar	5.395304720756129e-07	0.00012233706206922902	0.0027862061577107436	-0.009308998145882723	6.273915777249526e-05	0.00015045890850065891
2
239800
Ar	-0.0002403352517163071	-0.0002343236419785761	0.003185169789328454	0.017172131368198767	-0.01715967546514989	4.367508324023796e-05
Ar	-8.490077504573674e-05	9.374905929525923e-05	0.0027875148023348024	-0.00705951977927448	-0.005522826537441516	5.693341402137425e-05
2
240000
Ar	-2.4930148291319477e-05	-0.00033613943381304956	0.0031866969107286988	0.02410063177173946	-0.0023213065279741943	0.00023475175888761286
Ar	-0.00012943361110900547	2.0562367337492368e-05	0.0027877048191322536	-0.0014565739150485175	-0.008490293882279759	-1.562800497864428e-05
2
240200
Ar	0.00020274971694837445	-0.0002766628720564392	0.003188553797098528	0.0194813054771112	0.013726588153989888	0.00010756747602676562
Ar	-0.00011151972099430979	-6.260432859350527e-05	0.002787435233461011	0.00486713461723844	-0.0074423398196990604	-7.301076647296118e-06
2
240400
Ar	0.0003330061139288693	-8.405200535733765e-05	0.0031887339912958544	0.005449063677230582	0.023177762617046495	-5.648502930353588e-05
Ar	-3.99224963810952e-05	-0.00011619157227668272	0.002787760305134755	0.008844222848898065	-0.0028092241967780174	7.419754000345659e-05
2
240600
Ar	0.0003034367040308768	0.00014904522953665698	0.0031875201082238055	-0.011113357309530728	0.021485744932548588	-0.00013703916519832742
Ar	5.098935820873864e-05	-0.00011409534391399383	0.0027882720422887867	0.008556846223713584	0.0032071509685369414	1.951246250770044e-05
2
240800
Ar	0.00012862808854285953	0.00031087793682743	0.0031867780201845653	-0.0223945288908656	0.0095313165770339	-2.354037816182955e-05
Ar	0.00011713700158701118	-5.71921444397381e-05	0.0027881584580843133	0.0041335987002680645	0.007694821997611767	-3.200525226789691e-05
2
241000
Ar	-0.00010807535781387792	0.00032389985664692267	0.0031866618374088527	-0.022940017509322147	-0.007085538104727819	-5.0676767629530796e-05
Ar	0.00012720163922062532	2.733723470563071e-05	0.002787603525118731	-0.0022342426579125014	0.008492060324062713	-5.066056393671188e-05
2
241200
Ar	-0.0002928543701891427	0.00018090094272718907	0.003186117123203316	-0.01243323823107355	-0.02029041503998349	-7.844082096004609e-05
Ar	7.628727597428448e-05	9.895719002561956e-05	0.0027876502125248176	-0.007526395977403111	0.005231854484212471	5.4534017138868724e-05
2
241400
Ar	-0.0003368019967618966	-4.906443327836429e-05	0.00318550705534446	0.004026301055074285	-0.023777327493089594	-3.0132961873970768e-05
Ar	-1.1075419171601548e-05	0.0001231979720255525	0.0027883025603312327	-0.009194120638299804	-0.000583522254174629	5.4610093484177546e-05
2
241600
Ar	-0.00021949281996383593	-0.0002558492666421467	0.0031861526265363326	0.018472992294719482	-0.01585995339272072	0.00013690828927311087
Ar	-9.26385860706591e-05	8.83778581475215e-05	0.0027882894995639547	-0.006448159047120616	-0.006095080090753884	-5.63273173207014e-05
2
241800
Ar	2.7674978438268974e-06	-0.00034039642263537014	0.0031878269627421633	0.02413132441578444	-0.0003063431050777609	0.00013838829283917305
Ar	-0.00012976644098977014	1.120791748736502e-05	0.0027875914949449937	-0.0006595978715236001	-0.008688394949043082	-7.277092372157861e-05
2
242000
Ar	0.00022364622754511129	-0.00026153881865814053	0.0031884453725853482	0.018174560191267893	0.015403590946711085	-1.9967297589402997e-05
Ar	-0.00010469521857751919	-7.154265960792287e-05	0.002787468420008484	0.0054612801521881395	-0.0071559898768954	4.0095032577096783e-05
2
242200
Ar	0.0003367938075592077	-5.7286775781057585e-05	0.003187514130148411	0.0035168392893978676	0.023708112894580073	-0.0001477698766178659
Ar	-2.90942283969566e-05	-0.00012053326847316755	0.0027880469652727755	0.008996419052905973	-0.0022158561837627897	4.393214646129002e-05
2
242400
Ar	0.00028847833588489894	0.0001744027689564335	0.003186441107478844	-0.012773301494147214	0.020693682004448422	-8.113244766560525e-05
Ar	6.03153584795841e-05	-0.00011203753450714416	0.0027882916644743944	0.008128999003405692	0.0038388367714693077	-3.415546669104953e-05
2
242600
Ar	0.00010193122527535491	0.00032286042549197055	0.0031860008503149617	-0.022968168323319754	0.007747136291311614	-2.814043220702007e-05
Ar	0.00012055525499509275	-5.010817315000802e-05	0.0027875075032235655	0.00342046808910604	0.008055697191247876	-0.00011097296681893533
2
242800
Ar	-0.00013363163757873058	0.00031645135269937517	0.003185740006718079	-0.022150037570922446	-0.008987414676749655	-1.9763730610960363e-05
Ar	0.00012319263187048592	3.586708396494238e-05	0.0027867006287985345	-0.002947126258755074	0.008422749918031403	-1.3376973205046013e-05
2
243000
Ar	-0.00030497212869533085	0.00015803121963365492	0.0031855817796026674	-0.010674612756445724	-0.021350298886694662	-8.08158773586744e-06
Ar	6.664603459073612e-05	0.00010462786352932427	0.0027870767508298743	-0.00785716559339234	0.004754129978917528	8.913158881789525e-05
2
243200
Ar	-0.0003298777815819299	-7.58413573774633e-05	0.0031859205491369265	0.0058955920054993335	-0.02347624429647587	0.00010340874234503322
Ar	-2.146942118205872e-05	0.00012330650262168977	0.002787780504347901	-0.009025420604243273	-0.0011843296170679228	5.540640892202228e-05
2
243400
Ar	-0.00019671839672914064	-0.00027347140021876775	0.003187501464392713	0.019607543911645924	-0.014385891825451162	0.00019780344263407875
Ar	-9.915101466886085e-05	8.303135568306864e-05	0.0027880527137247616	-0.005871182454139948	-0.0065463053843879725	1.4404313899545626e-06
2
243600
Ar	3.074946449824541e-05	-0.00034013095220103136	0.003189083232768364	0.02393411725739077	0.0016397952199302128	8.20764981873566e-05
Ar	-0.0001293212310600554	3.0228241429238087e-06	0.002788242618095772	0.00010063369287155268	-0.0088007351734805	4.022037607480496e-05
2
243800
Ar	0.00024295903554442236	-0.00024333888133121754	0.0031885591060532878	0.016687526767988337	0.016889785549431914	-0.00013731994073325497
Ar	-9.713712973439455e-05	-7.864316548926637e-05	0.002788720441883405	0.006055123440891146	-0.006853295322526154	6.666838797288027e-05
2
244000
Ar	0.0003377764163332645	-2.9748022686295585e-05	0.0031867713831584964	0.00150646099020413	0.024040330083178584	-0.00016732903038563742
Ar	-1.8480629608077675e-05	-0.00012288857139264783	0.0027889964236831413	0.009006832503405586	-0.0016226615778271827	-2.4967295781413068e-05
2
244200
Ar	0.0002706589968930623	0.00019843019483542477	0.0031856295551174114	-0.014339548752432738	0.019678469944154973	-5.5062948428193026e-05
Ar	6.86522292179022e-05	-0.00010851674391758785	0.002788050751444714	0.0076717670712890314	0.004375143550699435	-0.00017078314379765072
2
244400
Ar	7.39645212239897e-05	0.0003315069383166689	0.0031857785376280144	-0.023341119115354143	0.005826517391053568	5.6193760725651176e-05
Ar	0.00012215581882942637	-4.254050521227053e-05	0.002786381257239699	0.002617372399476985	0.00829978381113961	-0.00014521296166228746
2
244600
Ar	-0.00015830656862826062	0.0003055182804626998	0.003186428772097763	-0.021143151475068903	-0.010825186941754616	3.944215625864798e-05
Ar	0.00011692053457429607	4.4196470686993865e-05	0.0027858960293408114	-0.0036078477975278116	0.008320753783113448	7.14082945258152e-05
2
244800
Ar	-0.0003144096371250447	0.00013286052872790965	0.0031866805114891352	-0.00877702877154193	-0.022246687349215557	1.5258401905225272e-05
Ar	5.5527132916554464e-05	0.00011029693788893015	0.002787195192199651	-0.008131284391295096	0.0043480606189136755	0.00013537031100870056
2
245000
Ar	-0.00031995052514253953	-0.00010353132911028435	0.0031869620425653577	0.007721387932445087	-0.023059811250437455	7.045125421138291e-05
Ar	-3.236502715289863e-05	0.00012374892772619686	0.002788127404028453	-0.008706238505187567	-0.0017520601186289588	4.2809609412625855e-05
2
245200
Ar	-0.00017252469378665992	-0.00029049192563895555	0.0031877541787388086	0.0205249974298733	-0.012768178537776977	7.793809453762588e-05
Ar	-0.0001044701635209502	7.809723505633119e-05	0.0027882986226355566	-0.00511659871467816	-0.007005430302285584	1.699951919057282e-06
2
245400
Ar	5.736290649527792e-05	-0.00033827210957852754	0.0031877976790171594	0.023528768884836505	0.003626080916559242	-9.490395716494786e-05
Ar	-0.00012639564511223787	-5.05683946909097e-06	0.002788290537562827	0.0009467587375131377	-0.008934488194686452	1.4638076633288398e-06
2
245600
Ar	0.00025973824434832914	-0.0002239894167773946	0.003186338389830866	0.015261353069469824	0.018267496651326126	-0.00016798685627188243
Ar	-8.739286357129234e-05	-8.608942155322733e-05	0.0027883624256092717	0.006524809557339013	-0.00658258253348411	8.741440039727023e-07
2
245800
Ar	0.00033778500247929244	-2.3990306546423685e-06	0.003185226275963451	-0.0002737597318994699	0.024183971989891005	-3.4336037257527316e-05
Ar	-6.618209740693659e-06	-0.00012598893148684827	0.002787812438421147	0.008946026434139736	-0.0010422473921176836	-9.361263363521e-05
2
246000
Ar	0.0002544916749519127	0.0002203666739950026	0.003185879385411656	-0.01569925962727593	0.01852552306124538	0.00014738062074306748
Ar	7.70566679366968e-05	-0.0001055218652318161	0.0027866543399219287	0.0070980003731002505	0.004979865271664667	-0.000117708244570892
2
246200
Ar	4.936829750757778e-05	0.0003377773223087761	0.003187295022299926	-0.023614060472024922	0.003930870266409175	0.00012054517642921598
Ar	0.00012402376874095418	-3.441601053533803e-05	0.002786003652817613	0.0019114054080380124	0.008665563188752574	9.032555779680105e-06
2
246400
Ar	-0.00017934896199838565	0.0002924840045213483	0.0031877531569254264	-0.020192327093969592	-0.01259017719298454	-2.7286146563860646e-05
Ar	0.00011173822992900667	5.376186251461218e-05	0.0027868297399220674	-0.004265385833628819	0.008212990164133693	0.00014770625154051167
2
246600
Ar	-0.00032164362505036394	0.00010702686118703797	0.0031874434829494707	-0.007097012129370007	-0.022963576598805234	-5.7753602256195816e-06
Ar	4.5554335922800045e-05	0.00011640336931691615	0.002788690475002852	-0.008402448454094394	0.003782807464194032	0.00019702044688304067
2
246800
Ar	-0.000310120971054483	-0.0001298628014245349	0.0031877663536655997	0.009316686604729195	-0.022429703848670605	4.65309472557996e-05
Ar	-4.2452341720050544e-05	0.00012310075121560926	0.0027900208729137667	-0.008458342157699429	-0.0024774738538957766	5.050921576668084e-05
2
247000
Ar	-0.0001501693464284528	-0.00030499622306824907	0.0031880511398248647	0.02134611846258584	-0.011098123340647643	-3.0338432519522408e-05
Ar	-0.00010989417072853778	7.103655838224744e-05	0.002790032215152973	-0.004457422562873306	-0.007507630299764334	-3.6795684230251955e-05
2
247200
Ar	8.175250329840943e-05	-0.00033388612535881776	0.0031871349644053007	0.023086993373945895	0.0055801579666003055	-0.0001471402479555865
Ar	-0.00012456284372056256	-1.496444169033294e-05	0.002789629449592566	0.0016389449532973773	-0.008954332759811433	-4.1592150808766446e-05
2
247400
Ar	0.00027428611120367387	-0.00020248078413729774	0.003185812570978284	0.013792757858477842	0.019601866355381362	-7.80034392699589e-05
Ar	-7.975000025382043e-05	-9.37017572646321e-05	0.002788892241219217	0.006934996062868635	-0.006108610772097854	-0.0001096220955937952
2
247600
Ar	0.0003356318407534591	2.6183341870403605e-05	0.0031858967466824764	-0.00202422692167208	0.02422919997852578	8.684824506853379e-05
Ar	2.9264737513939534e-06	-0.00012735176828399965	0.0027872362240646273	0.008911172474090753	-0.00034125637643672523	-0.00021735242511021334
2
247800
Ar	0.00023663329213280114	0.0002425836677995318	0.0031872633123849977	-0.016957681580900233	0.017238530514543077	0.00013270398982429378
Ar	8.405972035085139e-05	-9.994064853167004e-05	0.002785317601099046	0.006646965755845181	0.005590242092527712	-0.00014431779320620136
2
248000
Ar	2.381515404970393e-05	0.0003425164372782631	0.003187819312360697	-0.023788262367403085	0.0019159315867277183	-4.3252367827055136e-05
Ar	0.0001249278143119543	-2.4265669140496127e-05	0.002784937581713269	0.0011939207328523812	0.0089166971036853	8.413249324814866e-05
2
248200
Ar	-0.00020005554233160127	0.0002775776550111172	0.0031867149817760678	-0.019124528089172883	-0.014350355666217349	-0.0001427947185606214
Ar	0.00010578877646220064	6.377365550726502e-05	0.0027868805859488743	-0.004873963306470702	0.007924561830514308	0.00028436552046267233
2
248400
Ar	-0.00032775285578707874	7.91220189469938e-05	0.0031858393479643294	-0.0053561738358742185	-0.02366899985071993	-2.5614143485117266e-06
Ar	3.582468218384047e-05	0.00012137650271262528	0.0027893334844407295	-0.008522627035819878	0.0031055468110329004	0.0001775764765406297
2
248600
Ar	-0.0002987221377828895	-0.00015760957937956702	0.0031866057888892954	0.01091386709058842	-0.021694275992053588	0.00015921618462747173
Ar	-5.0775748039082934e-05	0.00012083638603291743	0.0027903128477204243	-0.008081883979596577	-0.0032150992141857797	3.14244470715039e-05
2
248800
Ar	-0.00012715461684193559	-0.0003189984374715523	0.0031879195792454194	0.021981484899577467	-0.009231410999020436	7.330018152296625e-05
Ar	-0.00011275497637278092	6.209209849952283e-05	0.002790136193935633	-0.0038171503391786375	-0.00801136634315738	-6.446741603519787e-05
2
249000
Ar	0.00010542812490687737	-0.0003271277657892794	0.0031878737180252134	0.022576433433782177	0.007648818396830654	-6.332049458017785e-05
Ar	-0.00012082692760767834	-2.6189643877576147e-05	0.002789390317088067	0.002245258970155972	-0.008906246013240368	-0.00011311436150374751
2
249200
Ar	0.0002875725299631019	-0.0001786456097739944	0.003187089096916963	0.01234324267610543	0.02079381029155195	-6.178261666167181e-05
Ar	-7.117833083761135e-05	-0.00010182723740742629	0.0027877976776401678	0.0072519956192866495	-0.005568147288833742	-0.00019527908619331927
2
249400
Ar	0.0003321270671775053	5.5303704627046654e-05	0.0031867475599649682	-0.003808664446028891	0.024041365438830876	-7.60194077361172e-07
Ar	1.2527908186360876e-05	-0.00012856743519506196	0.0027856346391082324	0.008787492080167707	0.00044297252731882345	-0.0001922910046388504
2
249600
Ar	0.0002173720600921943	0.00026271742848790416	0.0031868030359696914	-0.018176539115327708	0.015691618417097777	3.2242629892960644e-06
Ar	9.02814981569166e-05	-9.336555731023442e-05	0.0027842412937912385	0.006117630479043101	0.006299249429612235	-3.642397255137213e-05
2
249800
Ar	-1.6997800621376944e-06	0.0003437279448255568	0.0031864595083475134	-0.0237846823084809	-0.00016988331089205343	-8.782345633681759e-05
Ar	0.00012474692621994914	-1.2816206161308987e-05	0.00278541773942393	0.0004856891566775526	0.009112256743290414	0.00023773451594546235
2
250000
Ar	-0.00021970816246497855	0.0002595084581554728	0.0031857186486465945	-0.017996936204188532	-0.015928863888118875	-3.504501416056143e-05
Ar	9.920516362717612e-05	7.390978623789544e-05	0.002788494193967427	-0.005370252422751903	0.007491114789485767	0.00030917238230473895
2
250200
Ar	-0.000332571883734394	5.12094926673123e-05	0.0031863429184057542	-0.0036603170716758213	-0.023993996142352494	0.00014757866230677362
Ar	2.644345927384901e-05	0.0001249442001560296	0.0027908623648684465	-0.00857324662193152	0.002283301057553488	0.00011236397438334515
2
250400
Ar	-0.00028680937940824696	-0.00018156064112717873	0.0031881480501832053	0.012455123220306261	-0.020593327234866822	0.00015755844997494934
Ar	-5.871723570366716e-05	0.0001161143054364313	0.002790910537984251	-0.007734703870323861	-0.003986121530850324	-9.339951686921817e-05
2
250600
Ar	-0.00010345981878769468	-0.0003274413087596208	0.0031887537935258933	0.02267221152370942	-0.007348416023764664	-1.342981789777229e-05
Ar	-0.00011580058332022545	5.159237839231908e-05	0.002789564450480753	-0.003181396374258668	-0.008371322038286074	-0.00016617428684179787
2
250800
Ar	0.00012964794812013163	-0.00031620103335049137	0.0031879062542005837	0.021986410425939157	0.009479441685580969	-0.00014349609357511552
Ar	-0.00011731989798255362	-3.7724657555401344e-05	0.0027878680141369783	0.0028916391524190076	-0.008727196535672978	-0.0001961055045153924
2
251000
Ar	0.00030063493922325	-0.00015345617641406627	0.0031863843121884123	0.010756852629732232	0.02168988173941805	-0.00011278252832601799
Ar	-6.274050718530633e-05	-0.0001088305218232568	0.0027858903834900783	0.007548591620917317	-0.00491063860857135	-0.00018146273525882016
2
251200
Ar	0.0003274817050675288	8.245106325005193e-05	0.0031861036442441273	-0.00561317695039483	0.023501468036031536	3.150988018576013e-05
Ar	2.181750886121005e-05	-0.00012783800960126376	0.002784443736902402	0.008659308628617041	0.0012743394060732054	-9.969827690961756e-05
2
251400
Ar	0.00019752046594624092	0.00027846484624788353	0.0031864469118733437	-0.01929235046532684	0.014058421889595324	3.696779472613137e-05
Ar	9.613181644152464e-05	-8.520052861709194e-05	0.0027845365131073004	0.005581697091013991	0.006914865970030908	0.00011740823116453932
2
251600
Ar	-2.7024988180004036e-05	0.00034060978134086556	0.0031868167536753342	-0.023723658205879385	-0.0021530447433728496	1.2726651183708026e-05
Ar	0.0001245638975238903	-1.0851126563882352e-06	0.002786544651117268	-0.00013232902493798257	0.009201677122278974	0.00030093103634889915
2
251800
Ar	-0.00023828675521499968	0.0002393091073515044	0.003186980083354262	-0.016791351762649138	-0.017228446221294703	3.864810771504515e-05
Ar	9.371827037888582e-05	8.34951202172883e-05	0.002789517392410448	-0.005798897385991022	0.007004478407946408	0.0002610806057969242
2
252000
Ar	-0.00033603261504302687	2.3720127542677462e-05	0.003187651322236797	-0.0019150077573807096	-0.02407352869859095	0.00010018473633399805
Ar	1.810915043668662e-05	0.00012793383788349807	0.0027910967601277275	-0.008668216082706164	0.001499172643119748	4.391694535214241e-05
2
252200
Ar	-0.00027319937902078363	-0.0002033386239851311	0.0031884390532465772	0.013993179113080081	-0.01942703178002079	3.709397537331669e-05
Ar	-6.574007374474995e-05	0.00011087140210194045	0.0027905053053493708	-0.007417926889069297	-0.004773490079068762	-0.00012066476992326458
2
252400
Ar	-7.904172278452654e-05	-0.00033302876399571735	0.003188121432747085	0.02321729282118449	-0.005404618778751706	-0.00010075315886027132
Ar	-0.00011827141674007183	4.046255843578591e-05	0.00278894213015927	-0.0026636365358505085	-0.00872331605631848	-0.00018740668643068255
2
252600
Ar	0.00015304339569642593	-0.0003029359956964035	0.003186930555603194	0.02127090169829453	0.011179176743737041	-0.00010546399555081621
Ar	-0.00011443871162763966	-4.9228324834819474e-05	0.002787026137016702	0.0034001734477859843	-0.008478147085311383	-0.00019732990320390508
2
252800
Ar	0.00031191388426389044	-0.00012775211828579744	0.003186034955092994	0.009167548294150434	0.022401995288741025	-4.2617255863441554e-05
Ar	-5.564527826668723e-05	-0.00011507668901256744	0.002785036820577396	0.007859096276097209	-0.004167108490410155	-0.0001544378048864341
2
253000
Ar	0.0003215172463510836	0.00010882794183882584	0.0031861414023400605	-0.007339225527482105	0.02291424079431783	3.8605173190024334e-05
Ar	2.9966148718801323e-05	-0.00012570371884760843	0.0027843045701922754	0.008561935773617838	0.002141891968716058	3.084925694255275e-05
2
253200
Ar	0.00017670098813913636	0.0002931973781034757	0.003186553658399034	-0.020398163354561495	0.012401971200165831	3.79404991828438e-05
Ar	0.00010160988600738909	-7.587705455076273e-05	0.0027855793540317113	0.00513642864440847	0.0074168975200035216	0.00019339282695339153
2
253400
Ar	-5.285678655861121e-05	0.00033652153351352486	0.0031867068130617166	-0.02357735833797017	-0.004052086595112651	-3.5978049222097325e-06
Ar	0.0001245687991239359	1.0648822066183179e-05	0.002787654043804021	-0.0007504479419436941	0.009144408503159803	0.000213163088300722
2
253600
Ar	-0.00025692145919575717	0.00021872012479077994	0.003187071126920715	-0.015545526653630402	-0.01852687712772076	8.732381242529348e-05
Ar	8.798157608836902e-05	9.215733862028293e-05	0.002789515462557745	-0.006276907371180955	0.006459433465527761	0.00013475863520402906
2
253800
Ar	-0.00033857188800401295	-3.92481057540314e-06	0.0031881584542423616	-9.448664137440509e-05	-0.02411408959194752	0.00010707003927893306
Ar	9.435964054393866e-06	0.0001293016149739158	0.0027903756915157196	-0.00877049854160166	0.0006509001366513354	3.141007089371776e-05
2
254000
Ar	-0.0002583198408636286	-0.00022459131052359436	0.003188591914127647	0.0154887592088068	-0.018170395883247804	-3.4005091872564824e-05
Ar	-7.32115632393574e-05	0.00010434780700430356	0.0027898487787483143	-0.007087930070582704	-0.005432024430073998	-9.891890226908212e-05
2
254200
Ar	-5.3778801925408605e-05	-0.00033764526121418377	0.003187419356790428	0.02369792847054323	-0.003500486217498803	-0.00018792606890208425
Ar	-0.00012065607710465998	2.936825498553875e-05	0.0027888143422982103	-0.0020188421447091018	-0.008949844609214323	-9.169703081935976e-05
2
254400
Ar	0.0001767574769055379	-0.0002890559724728919	0.00318569339698616	0.020470391968116904	0.012825026781615154	-0.00015702143977849617
Ar	-0.00011027667730940995	-5.9715864060974e-05	0.0027876729835126985	0.003997724872814613	-0.008129017138616261	-0.00011257429441528456
2
254600
Ar	0.0003229626952495195	-0.00010193717910082493	0.0031848822019427407	0.007505728259619798	0.023037322828053947	-5.085030910016516e-06
Ar	-4.737829734845193e-05	-0.00012011933456474069	0.0027863658816855525	0.008046175122220915	-0.003475229427815617	-0.00015177387306148914
2
254800
Ar	0.0003144156898104747	0.00013424196047561937	0.0031854269702215558	-0.00916356241177231	0.02219946378689562	0.00010180557397851678
Ar	3.789472272590277e-05	-0.00012350028648313053	0.002785508081525153	0.008310113652351438	0.0028302140358991003	-5.308091814950262e-06
2
255000
Ar	0.00015474798870561486	0.00030571001684261904	0.0031864509479243297	-0.02140951253590486	0.01064318570403929	0.00010570897470960815
Ar	0.00010534281903899585	-6.76145606724102e-05	0.002786519625297137	0.004592056017733574	0.007894725704212836	0.00019876988947880296
2
255200
Ar	-7.895751049127032e-05	0.00033005924780837967	0.0031874919511395033	-0.023378558818683854	-0.005968767624803598	0.00011094032360410284
Ar	0.00012218114862084728	2.1275195654633854e-05	0.002788424511313312	-0.001355716007924163	0.009114617101914293	0.00017487820079265036
2
255400
Ar	-0.000274992053366646	0.00019617907873723832	0.0031884631060804997	-0.014192846615994223	-0.019692754917173635	7.595891387052414e-05
Ar	8.05834929165981e-05	9.954484743157199e-05	0.0027896348060194543	-0.006618826699286659	0.005893902024296665	4.768368219469181e-05
2
255600
Ar	-0.00033953743395849896	-3.198597952412335e-05	0.0031889137353227825	0.0018544381933487657	-0.024005065766049733	-1.0853657769458293e-05
Ar	6.55186866183895e-09	0.00012997203977745746	0.002789731717516742	-0.00880745801100416	-6.998141515866715e-05	-2.882285239913835e-05
2
255800
Ar	-0.00024092826866060533	-0.000244681616633603	0.0031878794913196796	0.017024541574018698	-0.016737445101922904	-0.00017121466232179378
Ar	-8.109711403812887e-05	9.825729980001925e-05	0.0027894649400621555	-0.006741402380614294	-0.006008410592639528	-4.327955689285862e-05
2
256000
Ar	-2.6608514432482578e-05	-0.0003395532471441851	0.0031855334158588664	0.024022120039003485	-0.0014549540008487087	-0.0002467762948614633
Ar	-0.00012382328151816434	1.945338635867757e-05	0.0027886918689409854	-0.0014237465317331894	-0.009063475584860262	-0.00010925358723635602
2
256200
Ar	0.00020060216148388632	-0.00027170955491009137	0.0031839969913709095	0.0195275417989858	0.014465271793249725	-2.8260765528731725e-05
Ar	-0.00010730416311331685	-6.807008860937314e-05	0.0027874072356273965	0.0046001446669127885	-0.0076938281037938015	-0.00013615030190360843
2
256400
Ar	0.0003321019499035833	-7.378746558677591e-05	0.0031848202513945086	0.0056574439062656474	0.023453437934658337	0.0001658704541284537
Ar	-3.950001277598094e-05	-0.00012221418018577642	0.002786302468536978	0.008414891801210283	-0.0027139035500881	-6.519847711307167e-05
2
256600
Ar	0.0003043377196082809	0.0001593588700914245	0.003186879603592915	-0.011004504206501524	0.021179328104085657	0.00022461105430481796
Ar	4.719832225526243e-05	-0.0001181379720758096	0.002786548447186362	0.008225309854341622	0.0035094132838059304	0.00010254588241627486
2
256800
Ar	0.0001300998470755721	0.0003155621321834451	0.0031887957843519357	-0.022354644952100114	0.008747859199765331	0.00012451449554841778
Ar	0.0001116307714996708	-5.762859859374544e-05	0.0027880221812283134	0.004095748294724457	0.008108699516745607	0.00016871248955530795
2
257000
Ar	-0.00010634257479709052	0.0003205396378358287	0.0031893524134143786	-0.022962581171332385	-0.007786019868758782	-1.0075357752456188e-05
Ar	0.00012218752877719632	3.0743410718471535e-05	0.0027894480412562163	-0.0020546071093005135	0.008834920261908736	9.225924324022821e-05
2
257200
Ar	-0.0002919361463962034	0.00017233165733289223	0.0031887516983584202	-0.012582134193183556	-0.020628635582536053	-8.268238167166979e-05
Ar	7.398381143222053e-05	0.00010447806972150605	0.0027897307310713122	-0.007173959867922529	0.005297238217734086	-4.179901484443269e-05
2
257400
Ar	-0.00033759022953729344	-5.871918927294415e-05	0.0031873656678753043	0.0038360359689284446	-0.02364025143022328	-0.00019926339218556615
Ar	-9.539625007840541e-06	0.0001281492443474319	0.0027886564336542363	-0.00882249366181248	-0.0007633223925364805	-0.0001402533160164088
2
257600
Ar	-0.00022150658601519162	-0.0002617361031422172	0.0031852826738039425	0.018394950618785683	-0.015262813164220613	-0.00019093773183942784
Ar	-8.838686399355238e-05	9.040722353835787e-05	0.0027872787859110682	-0.006273877139183813	-0.0064578836944539815	-0.00012305688650885582
2
257800
Ar	6.247796932978969e-07	-0.0003392989926980004	0.0031839208541072804	0.024157080966202622	0.0003939634936542947	-4.470348664268644e-05
Ar	-0.000124561332266447	9.368029572933995e-06	0.002786239562567012	-0.0006928392069669562	-0.00905708803174575	-8.218663833460142e-05
2
258000
Ar	0.00022254789063340467	-0.00025461030604020306	0.0031848332275596723	0.018366917099547617	0.015848932479996785	0.00021027193894237786
Ar	-0.00010127245827254798	-7.602124955535976e-05	0.0027856714210730367	0.00513500773282712	-0.0073030108598851175	-3.115304163444061e-05
2
258200
Ar	0.0003378986261511797	-4.7802386164628094e-05	0.003187441784864787	0.0036901158590292994	0.023765222729709722	0.00027882948514233654
Ar	-2.9904047283653023e-05	-0.00012504695947805272	0.0027859354186325065	0.00853858982265846	-0.002093034442613917	0.00010134797990300947
2
258400
Ar	0.0002903956709181749	0.00018189041566214035	0.0031891411601361603	-0.012789948999083202	0.020243376121280684	6.26870449520955e-05
Ar	5.592820603746862e-05	-0.00011425992916919461	0.0027874032662032603	0.007921840044096958	0.0041785948483609855	0.00019289814187853732
2
258600
Ar	0.00010301448072212995	0.00032435867411581716	0.003188869441064481	-0.023088516992391186	0.007043675049155839	-0.00010152969831875734
Ar	0.00011537717133602854	-4.841185948353633e-05	0.0027893510897157732	0.0034866408522424668	0.008447755011319474	0.00016364300281661821
2
258800
Ar	-0.00013387598042704973	0.0003114264390243028	0.0031874618737447887	-0.022331698739271752	-0.009526545938439242	-0.0001582528427341241
Ar	0.0001197387278430474	4.051855424159231e-05	0.0027901576923044856	-0.002630504038001586	0.008590801272192156	2.6004628723607912e-05
2
259000
Ar	-0.00030697532881023866	0.00014930629283525616	0.0031858243682623593	-0.0108197140652616	-0.021542686092884417	-0.00015456452196508082
Ar	6.727436752163364e-05	0.00010947761124557576	0.0027897467756879805	-0.007438116960491135	0.0046184322932971075	-8.550951135452973e-05
2
259200
Ar	-0.0003328253145986406	-8.439918977450492e-05	0.0031845536531207247	0.005869918077918749	-0.02324870781742134	-0.00011532490603937525
Ar	-1.702213048616549e-05	0.00012558189317976595	0.002788821891832886	-0.008713456733449912	-0.001504756469041744	-5.9795445612914447e-05
2
259400
Ar	-0.0001991217832248188	-0.00027766884116331577	0.0031842736484315216	0.019739354344657723	-0.013773963808442192	5.2766463568438874e-05
Ar	-9.300133533158357e-05	8.189546002847121e-05	0.002788302888847477	-0.005836713179785552	-0.0068647499796088765	-5.369201353667637e-05
2
259600
Ar	2.989167563209112e-05	-0.00033764618012633636	0.0031855686626426818	0.024143843252329364	0.00226109103254876	0.00022531605719101948
Ar	-0.00012420537958420118	-7.852445630678591e-07	0.00278771989933672	-0.0001637493459731191	-0.00897736703002964	-7.104291800758922e-05
2
259800
Ar	0.0002445088461222842	-0.00023581677208900752	0.003188039064214112	0.016975969072929847	0.017260248705062722	0.00022308301754969646
Ar	-9.578256007629365e-05	-8.29821168866687e-05	0.002787108714610455	0.005615452394021419	-0.006796556147833953	-4.117183991840458e-05
2
260000
Ar	0.0003414872703061904	-2.0796887832728728e-05	0.0031895648061061833	0.0016008655888579317	0.02393325542056332	6.302680964276363e-05
Ar	-2.1021953574441893e-05	-0.0001259619008052471	0.002787005278362687	0.008722046363848532	-0.001425250526660979	2.1523379431677118e-05
2
260200
Ar	0.0002740216598290644	0.00020405340444295574	0.003189208709262268	-0.014504276390222627	0.01912901428016077	-0.00012938731419723535
Ar	6.420913551097792e-05	-0.0001087251486683208	0.002787548948853832	0.0075992101233817505	0.004733374878759754	6.465275038124963e-05
2
260400
Ar	7.509124840245636e-05	0.0003302484848756369	0.0031872627522537694	-0.023595244078433796	0.0050997052778539225	-0.0002460896161908372
Ar	0.00011852535605475128	-3.9147379289193995e-05	0.002788197451275877	0.002823077667823919	0.0085940446450397	7.609400351998187e-05
2
260600
Ar	-0.00015960175903241802	0.00029828455112774756	0.0031851676388002215	-0.021384182018794815	-0.01123665429518877	-0.00015643370426783512
Ar	0.00011628445977244754	4.894422465569669e-05	0.002788503734799851	-0.003258154579379775	0.00829658977205784	-1.65829894845122e-05
2
260800
Ar	-0.00031772156705784017	0.00012372078610718023	0.00318448305414473	-0.008904632356299727	-0.022219165166974007	-4.901635410325245e-06
Ar	5.868351762810123e-05	0.00011342294176747372	0.0027881327179376724	-0.007776103765712055	0.004042242095503808	-4.930237079503184e-05
2
261000
Ar	-0.00032341366943075637	-0.00011032442630014991	0.0031849791741940235	0.00778782422180979	-0.022610588731496576	0.00011368500565711362
Ar	-2.6775475869938544e-05	0.00012338617459904422	0.0027878681078167093	-0.008606297458359235	-0.002147094334252447	-1.3600168562883256e-05
2
261200
Ar	-0.000174414547105088	-0.0002915705582854136	0.0031864968194465844	0.02075726316942313	-0.012121790134034846	0.0001645471594475536
Ar	-9.936803018965721e-05	7.406440610302385e-05	0.0027877448038202777	-0.005297161648775479	-0.007293725627411459	-2.8540344067087146e-05
2
261400
Ar	5.8093321023252036e-05	-0.0003332254680669401	0.003188222365968175	0.023792700268166544	0.004174905233872971	0.0001685462043843097
Ar	-0.0001240970049396744	-1.0530995502809013e-05	0.0027874637173285572	0.0005625637654502094	-0.008915413756828996	-3.538923946044498e-05
2
261600
Ar	0.0002626289741301932	-0.00021489713314213154	0.003189392983439664	0.015400972298607532	0.018505946105628925	5.487236711885721e-05
Ar	-8.902898766728256e-05	-9.014060728832645e-05	0.0027870726567786512	0.006171756822031108	-0.006314039819478241	-4.383418900479929e-05
2
261800
Ar	0.000341085254834703	6.484682389715317e-06	0.0031890625577084466	-0.00039925274670405303	0.023906865832360864	-0.0001275486722648842
Ar	-1.0690688462920626e-05	-0.00012662257618153487	0.0027867722950162374	0.008838328354896426	-0.0006783320512020952	-2.057650793683162e-08
2
262000
Ar	0.00025560346372001684	0.00022476027615859326	0.0031869907916317664	-0.015964690513488502	0.017900732198331003	-0.00026758422783270004
Ar	7.333295556375163e-05	-0.0001023968371151748	0.0027871076316755027	0.0072375054678002855	0.005312480299173381	4.9449354630467794e-05
2
262200
Ar	4.7947397758433185e-05	0.0003356152046510152	0.0031846264859937447	-0.023848554907909034	0.0033377765280828142	-0.00015689366794161387
Ar	0.00012199014564275997	-2.9211566935410163e-05	0.002787714204254945	0.0020987505146050746	0.008735758773800154	5.6250731925351455e-05
2
262400
Ar	-0.00018279128241197458	0.00028602863527445226	0.0031840689485288895	-0.020343092954304268	-0.01283049301648843	4.699624202891124e-05
Ar	0.00011210644011024163	5.771552269541924e-05	0.0027883706525655395	-0.003976620975178144	0.00792647394333721	4.667265636947347e-05
2
262600
Ar	-0.00032620021763612295	9.969507314149247e-05	0.003185394393337709	-0.007112225699246183	-0.02288058388603808	0.0002341065620999015
Ar	4.87699407398877e-05	0.00011654325642527966	0.0027884844800128393	-0.008169978913113338	0.0033423511071729263	-1.4322413175863165e-05
2
262800
Ar	-0.0003132611437689217	-0.00013439537683948544	0.0031876499202786626	0.00958024975394438	-0.021958687959159697	0.00020243616503228784
Ar	-3.7940781750802065e-05	0.00011934491309080819	0.002788407246183159	-0.008448136176720475	-0.002811240730252598	-2.0138397486938715e-05
2
263000
Ar	-0.00015012170544862123	-0.0003038047967973579	0.0031890026914748893	0.021678305273463	-0.010506029422979603	9.098742928611438e-05
Ar	-0.00010656882482383922	6.511597891709154e-05	0.0027881645730059063	-0.004692927845552005	-0.0075909841860259475	-4.694085352148297e-05
2
263200
Ar	8.468189043174355e-05	-0.00032751023657691104	0.003189153633219707	0.02332928993394928	0.00598515865237575	-6.25353997852786e-05
Ar	-0.0001243791039275187	-2.0179652189279884e-05	0.002787547469304086	0.001296419562539743	-0.008756878620392794	-5.094917075296876e-05
2
263400
Ar	0.00027853383921431916	-0.00019374590177744492	0.0031877766736994194	0.013810812140606466	0.019655308394848338	-0.000188294087379887
Ar	-8.261606997160609e-05	-9.61062786539963e-05	0.0027871285389120576	0.0067178406305950945	-0.0057648612808221585	-2.280798902968352e-05
2
263600
Ar	0.0003387969445388037	3.307744093214794e-05	0.003185719947162816	-0.0022852241398592828	0.02379720789710195	-0.0002011563154664861
Ar	-1.1163699442644338e-06	-0.00012594474316792866	0.002787025642204507	0.008908651572839944	6.177313051322759e-05	-3.1328221033844925e-07
2
263800
Ar	0.00023664438357947216	0.00024393956807170216	0.0031842364796697627	-0.017272277142689637	0.016604109684273127	-9.017793304795665e-05
Ar	8.104435152695252e-05	-9.521412479015148e-05	0.0027874071566790343	0.006827515054460336	0.00582207693582619	4.393865723305521e-05
2
264000
Ar	2.1396624604919835e-05	0.0003382533588537977	0.0031843884115355246	-0.0239772686142324	0.0014552086825632493	0.00011155364473120775
Ar	0.00012440462972030595	-1.8953431535663977e-05	0.0027879118695483644	0.0014947927840022412	0.008776712048610141	2.9898949638706146e-05
2
264200
Ar	-0.00020392370415322456	0.00027072378355246895	0.0031860764693649045	-0.019206579814390137	-0.014374050366210624	0.0001997110175666969
Ar	0.00010838961951444427	6.612755036933779e-05	0.0027881570290552143	-0.004573698687932641	0.007516302275483096	1.1854538084881079e-05
2
264400
Ar	-0.0003315673889514569	7.372740049685941e-05	0.003188132734097628	-0.005266334910582675	-0.0233717139190161	0.0001787943816643885
Ar	4.046333032355957e-05	0.00011924182234048102	0.00278827470012902	-0.008454038217718377	0.0026776559239357167	1.3256879799044817e-05
2
264600
Ar	-0.0003003508582581404	-0.00015859388037171352	0.0031893106348276803	0.011241432887491763	-0.02116236048847073	5.9730853310660466e-05
Ar	-4.693978692322816e-05	0.00011533906104040154	0.0027881599815600196	-0.008300464534142482	-0.003437005985482836	-2.6980070987753042e-05
2
264800
Ar	-0.00012510350166025508	-0.00031494247437889323	0.003189254388692504	0.02233201530590023	-0.008790619768185563	-8.901220619292391e-05
Ar	-0.00011204538755761193	5.632161334269156e-05	0.0027878701338081052	-0.004178928860614593	-0.007880436123577486	-3.100299349601674e-05
2
265000
Ar	0.00011001751689267715	-0.00032018349941677116	0.0031878472591432335	0.0227140979505751	0.007758908607468083	-0.00019277570469894022
Ar	-0.00012362796412998468	-2.9713280775254973e-05	0.002787540724098235	0.001936967861320388	-0.008613655606686674	-2.176093698402493e-05
2
265200
Ar	0.00029210255629561843	-0.00017209171348030422	0.0031860824870950386	0.012142563194083971	0.02060158301250184	-0.0001493873966774547
Ar	-7.610072477492472e-05	-0.00010148443381132336	0.002787353741886311	0.007163537225296594	-0.005135243958785365	1.3714530951932197e-05
2
265400
Ar	0.00033392236210991937	5.8416276962434735e-05	0.003184980964503394	-0.00414533053922016	0.023563015883302722	-5.735371424144885e-05
Ar	7.986859962091239e-06	-0.00012419295322787374	0.0027878367125640747	0.008908395688405037	0.0007831062223751525	6.849115111148413e-05
2
265600
Ar	0.0002160858805561331	0.0002606560085806817	0.003185165223335457	-0.018446767028191306	0.015199690093389838	9.434320558197114e-05
Ar	8.779852724173039e-05	-8.712940808342577e-05	0.00278834252117084	0.006366227070798052	0.006289939668952186	3.2204849453583014e-05
2
265800
Ar	-5.1522155770436125e-06	0.00033820550471936326	0.0031868431440019783	-0.023925424615222034	-0.00034143404228472265	0.00021799152845086543
Ar	0.00012509779334964578	-8.327432047724564e-06	0.0027883210228907343	0.0007795494514597947	0.008819224727549188	-4.225026736908003e-05
2
266000
Ar	-0.00022371350281774242	0.00025411643154012945	0.0031887435934097852	-0.017949285458478802	-0.0157772127752434	0.00014174919024140953
Ar	0.0001020630683572137	7.481067031944947e-05	0.002787831155299444	-0.005200951190617325	0.007095354912605394	-5.224522287610414e-05
2
266200
Ar	-0.0003349713159193174	4.832663904054668e-05	0.003189313099838222	-0.0033649322858014417	-0.023656495056245112	-1.2723483086503366e-05
Ar	2.9833509661086914e-05	0.00012218313479093822	0.0027873186776835074	-0.008673568351279373	0.0019646898297687693	-4.545575249193171e-05
2
266400
Ar	-0.00028548195368997755	-0.000180579116957531	0.003188476177326338	0.01281177854385958	-0.020179037132370212	-0.0001293599760876558
Ar	-5.699788365727231e-05	0.00011100591198543274	0.0027870009097659704	-0.007962054303355608	-0.0041274385160436885	-2.983533610717687e-05
2
266600
Ar	-9.951740825820037e-05	-0.000322715609697265	0.003186986554085989	0.022805898437061368	-0.007071673125240387	-0.00015279747026522328
Ar	-0.00011641594627544265	4.63135501577864e-05	0.002787078261870588	-0.0034406432637177375	-0.00825256749910408	2.1574800326749467e-05
2
266800
Ar	0.00013378667336037752	-0.0003104107942019297	0.0031857968595483117	0.021912645324370802	0.009440727925096213	-7.486091869515307e-05
Ar	-0.00011987469504081437	-4.043961044358354e-05	0.0027873871449466607	0.002779095579406662	-0.008368180526784038	3.868004512804085e-05
2
267000
Ar	0.00030307811176713654	-0.0001494362504243054	0.0031857098655053507	0.010525069906387486	0.021415173536869597	4.270593362614984e-05
Ar	-6.586863300191716e-05	-0.00010780427200189326	0.0027875617561754287	0.007572747113316144	-0.0045229451969704985	1.0332602529761563e-05
2
267200
Ar	0.00032722173787385765	8.331122022985553e-05	0.003186289963524115	-0.005877086299128255	0.023181150619512536	7.206042337139103e-05
Ar	1.933745857301717e-05	-0.00012355640915321045	0.0027877433934862575	0.008768442855652469	0.0015040412078661154	4.5722886638561446e-05
2
267400
Ar	0.00019466229761193782	0.0002762907838792438	0.003187303138059508	-0.019496777596808155	0.01381373894471504	0.00012046149263229612
Ar	9.516235070550842e-05	-8.00268439194305e-05	0.0027879457918301197	0.00577462807266862	0.006822924749221616	1.7458037134395573e-05
2
267600
Ar	-3.1076830030903356e-05	0.00033711410625141577	0.0031883336177746745	-0.023738310123176547	-0.0021740414788158986	6.0878645480858714e-05
Ar	0.00012532678101002617	1.6176727184167795e-06	0.002787948072018835	1.4089211988000742e-05	0.008814245503522927	-3.797509045130384e-06
2
267800
Ar	-0.0002416986628148686	0.0002364095578035254	0.003188488172166564	-0.016601531775000525	-0.017125403223955483	-2.5343358519570305e-05
Ar	9.545319031329089e-05	8.230662723878845e-05	0.0027879745813867746	-0.005728887176601344	0.0066297271393541595	-1.0800831826669413e-05
2
268000
Ar	-0.00033624630518596765	2.2305051407107636e-05	0.0031878787544156787	-0.0015257140168959526	-0.023883762247811597	-9.083571795139622e-05
Ar	1.9721959117304685e-05	0.00012345761560698238	0.0027875983799150457	-0.008789230815049578	0.0012307379539635657	-6.969387760468348e-05
2
268200
Ar	-0.0002699001312370375	-0.00020239973918210092	0.003187069788648606	0.014235043900939581	-0.0191924277527159	-5.062988200002218e-05
Ar	-6.580269718656357e-05	0.00010514480379442182	0.002786951811994045	-0.0075941787477737	-0.004746354342237422	-5.510452512917192e-05
2
268400
Ar	-7.425740884997858e-05	-0.00033027082951761396	0.0031867741304908003	0.02325433911034616	-0.005303019643676306	-5.447820314261111e-06
Ar	-0.00011974763557632097	3.638844168695989e-05	0.002786708804411562	-0.002746712960686214	-0.008440528003470461	-1.287860992351771e-05
2
268600
Ar	0.0001574316246618057	-0.0002999781332627875	0.0031869114390312577	0.021128423389676312	0.011115312822628039	2.3710816590272738e-05
Ar	-0.00011612510005988443	-4.998625356790526e-05	0.002786515222702068	0.0034366966865334247	-0.008092915927932296	4.3674632387223285e-06
2
268800
Ar	0.00031353509748959505	-0.00012576772933368068	0.0031869465421538266	0.008789794329446037	0.022260264479409528	-2.5075203078033762e-05
Ar	-5.6701660377598584e-05	-0.00011232497200439042	0.0027867207825920236	0.007967116330797523	-0.0038488301224507385	5.9674742150112346e-05
2
269000
Ar	0.000319222328457443	0.00010894021922326454	0.0031867265327777563	-0.007688648198551091	0.022704893030541243	9.322845123953942e-06
Ar	3.015182261837498e-05	-0.00012085539287204504	0.0027873357278471868	0.008662651801832509	0.002206789818089972	6.397386963819191e-05
2
269200
Ar	0.0001720379340532457	0.00029147995671444717	0.003186981498306382	-0.0205283733492474	0.012290561568631128	3.822589332431286e-05
Ar	0.00010239618197884543	-7.14655825578635e-05	0.002788057013548553	0.0051730858876536225	0.007219434948908669	6.69077616836615e-05
2
269400
Ar	-5.7754785837404e-05	0.0003348485316178434	0.003187570607484899	-0.023501161147373283	-0.003996158490198653	5.043033148865885e-05
Ar	0.00012547080334895136	1.1789025206380557e-05	0.002788450395035013	-0.0007383537945265807	0.008723309584979126	3.196211688900392e-05
2
269600
Ar	-0.0002599585764557447	0.00021784780537318453	0.0031879013163219876	-0.015237780495394758	-0.018424890065319718	1.6354451180528586e-05
Ar	8.8542270391566e-05	8.908596171277774e-05	0.0027885457732422366	-0.006309766860218026	0.006099850327385975	-1.4864343093872076e-05
2
269800
Ar	-0.0003375460214777263	-3.6727731391996472e-06	0.0031878028380450834	0.0003510857018692934	-0.024005505749588922	-3.375719183465281e-05
Ar	9.557593664535881e-06	0.00012383602186309944	0.002788026700623544	-0.008824602289264358	0.0005448850191775974	-7.83325131867496e-05
2
270000
Ar	-0.0002535635899707234	-0.00022325663566815382	0.0031874075476459106	0.015732844244741154	-0.01805802502239958	-6.779331756175512e-05
Ar	-7.397903453172418e-05	9.888339603388741e-05	0.0027869937573017332	-0.007180291096771848	-0.005329639143518896	-0.00010939303050857013
2
270200
Ar	-4.856387760836924e-05	-0.00033585331953247025	0.0031868030792214412	0.02355559269498084	-0.003477615306541913	-5.0926132907577617e-05
Ar	-0.00012235329912772808	2.599217116758154e-05	0.002786056613065116	-0.002059275960138644	-0.008632608354997661	-6.698334233031844e-05
2
270400
Ar	0.00017943292977446764	-0.00028727222089228914	0.0031865558496179847	0.020126555150764162	0.012776353480663607	7.002822744377092e-06
Ar	-0.0001119566604444981	-5.9997988331812375e-05	0.002785951148712477	0.004055787291482699	-0.00783315542926948	2.944613261921693e-05
2
270600
Ar	0.00032161730130268723	-0.00010091828275055807	0.003186762749114835	0.007101898826252459	0.022921809724733323	5.289262439512022e-05
Ar	-4.7705252201748355e-05	-0.00011765663455435601	0.00278653425060547	0.008260166896805332	-0.00319141285037933	8.054029002349392e-05
2
270800
Ar	0.000309806346420931	0.00013400768428864016	0.0031875843077908477	-0.009339793993770528	0.02207551087871848	9.182133694119375e-05
Ar	3.961992712802822e-05	-0.00011862184668258972	0.00278734977575445	0.008477353530507041	0.002979065926744643	8.651082863473695e-05
2
271000
Ar	0.00014961453298179716	0.0003046983180433719	0.0031885518615121116	-0.021345167000502215	0.010620203618564673	8.704103045172458e-05
Ar	0.00010793897192415476	-6.272191113244255e-05	0.0027878042707302187	0.004619152354133719	0.00773747619275648	1.426640964255704e-05
2
271200
Ar	-8.246329715363225e-05	0.0003288561257530466	0.003189082268817401	-0.023120415645241418	-0.005970898052711256	3.208211307083198e-05
Ar	0.00012445365690281294	2.3486129930598644e-05	0.0027875076864507823	-0.0014324515549976615	0.008763442948088292	-6.0380877158411174e-05
2
271400
Ar	-0.00027504308352806797	0.0001950726257502513	0.0031889597673032412	-0.013788964673469612	-0.01968183089517994	-5.395881655973552e-05
Ar	8.154126557824455e-05	9.847162942279923e-05	0.002787000496110951	-0.006794137523017709	0.005608885005474863	-5.0932182709252173e-05
2
271600
Ar	-0.00033559430080749815	-3.2636397341270316e-05	0.0031880147636361347	0.00216725734866757	-0.023960734352369513	-0.00013453322137382007
Ar	-4.013046214522008e-07	0.00012635543194624673	0.0027868232968960164	-0.008896431315563051	-0.0002661733852214625	-2.480388477906769e-06
2
271800
Ar	-0.00023511469684910457	-0.00024500626565385854	0.0031865762975238645	0.017077026624093546	-0.016725606359323183	-0.0001309162054242265
Ar	-8.231710305335893e-05	9.37251761076135e-05	0.002786778817943768	-0.006782490051604115	-0.005982694156713629	-1.171655995283546e-05
2
272000
Ar	-2.1857913402248362e-05	-0.00034002739107067196	0.0031855607485852433	0.02378164520946338	-0.001491928987638682	-5.7494798501111005e-05
Ar	-0.00012496778122758913	1.6095707045643294e-05	0.0027869092065132915	-0.0013817270588544629	-0.008883385673243179	3.8270667664517035e-05
2
272200
Ar	0.00020211686757156866	-0.0002720519460035624	0.0031856155262430506	0.019136744288954437	0.014492608850894444	5.317014978670715e-05
Ar	-0.00010759604794897001	-6.91724446945602e-05	0.0027875712616421237	0.004687109680681372	-0.007455815265135555	7.810341282834964e-05
2
272400
Ar	0.00032981631346009466	-7.352466373732246e-05	0.003186648719050273	0.005315208698100645	0.023530653513052335	0.00013405166286405444
Ar	-3.8762511624873665e-05	-0.00012095423347001916	0.002787880044680734	0.008521836365862113	-0.002479963519332999	1.4300968646861421e-05
2
272600
Ar	0.0002996883845517415	0.0001603912563254792	0.00318807581762817	-0.01111052261563486	0.02126316606030691	0.00013522697991514394
Ar	4.874474147334803e-05	-0.00011474749517583892	0.002787966624838963	0.008247805569970363	0.003647124251123103	3.301839368619993e-06
2
272800
Ar	0.00012567269441231903	0.00031735479967903924	0.0031889394807720407	-0.022231191138530466	0.008795690951709565	4.7189868574562105e-05
Ar	0.00011269051807810276	-5.3715688966276726e-05	0.002788059842792115	0.0040388171673585195	0.008022013474118704	9.612044663195968e-06
2
273000
Ar	-0.00010847009437739279	0.0003219853917715382	0.003188792453089227	-0.022631018708475226	-0.007876072821528884	-6.807725602006468e-05
Ar	0.0001228526689786636	3.296430743494462e-05	0.002788254398468215	-0.002106524445043817	0.008570496474930892	2.333921898193235e-05
2
273200
Ar	-0.000290433133508001	0.00017252604344393448	0.003187754446630045	-0.01223695254945151	-0.02074637061455421	-0.00013651436230437017
Ar	7.406151021173328e-05	0.00010374820205164568	0.0027883760394301154	-0.0072357746817124655	0.005009624389942935	6.896341164844821e-06
2
273400
Ar	-0.0003333096203809012	-5.9289506184961006e-05	0.0031864115485055865	0.0040254684129589925	-0.02368096097667939	-0.0001286620941515383
Ar	-1.004681100388575e-05	0.00012474771639783337	0.0027885015213978265	-0.008886797540357165	-0.00096890213709524	1.5278615213509787e-05
2
273600
Ar	-0.0002164523081086752	-0.00026258983901658275	0.0031855973504402346	0.018330223424521192	-0.015275433370762311	-4.466544903349511e-05
Ar	-8.933353087644188e-05	8.591192448214708e-05	0.002788551168983916	-0.00631189438153896	-0.006456238780731114	-1.9848552989475514e-05
2
273800
Ar	3.918150372616042e-06	-0.00034029373253686177	0.0031856011384944947	0.02390441416294533	0.0003991811465339764	5.835543132587851e-05
Ar	-0.00012571755630812125	6.25094924059955e-06	0.002788060515648318	-0.000675648732494309	-0.008822249707708512	-8.972712251279882e-05
2
274000
Ar	0.00022263948903386772	-0.0002550863293288852	0.0031866846318219897	0.018031158276875313	0.01593338002706907	0.00015957785832389177
Ar	-0.00010183158033545354	-7.642140717109983e-05	0.002786995122314323	0.005268121567533469	-0.006995883768688298	-9.625910742618814e-05
2
274200
Ar	0.0003349583946687851	-4.73722739503677e-05	0.0031883853798266738	0.0034961887120564337	0.0238440930929272	0.00013965900668973125
Ar	-2.9138508083537365e-05	-0.00012240007819545266	0.002786178205140613	0.008644706884986503	-0.0018199310416295907	-5.231268718465704e-05
2
274400
Ar	0.00028675024268756905	0.00018267507773457034	0.0031891884176715912	-0.01272084717936974	0.02024913528389854	1.3308723135433372e-05
Ar	5.760405303343538e-05	-0.00010959148842498213	0.0027859832636070118	0.00797428392086094	0.004249337157237901	1.2852436490445159e-05
2
274600
Ar	0.00010102869481592976	0.0003248214603601025	0.0031885431603882446	-0.022851481779989812	0.007015729947474548	-0.00013747226822911524
Ar	0.00011719900822186134	-4.4075410639859634e-05	0.002786318521807464	0.0034531763128815016	0.008298479087065415	5.2341642141573014e-05
2
274800
Ar	-0.00013315985145888215	0.00031164020343056565	0.003187010684789879	-0.022041778980770203	-0.009549031965536407	-0.00014598254186834985
Ar	0.00012067285700572547	4.2778204503506024e-05	0.0027869236492719307	-0.0027873101464007755	0.008344926361199474	5.8840392115352455e-05
2
275000
Ar	-0.00030403996709590914	0.0001489860438415601	0.0031857106560648327	-0.010688454029959053	-0.021594639846970555	-7.734992345793852e-05
Ar	6.632331929681718e-05	0.00010940276739176073	0.0027875039375770223	-0.007624112357285243	0.004414591294986661	6.802425951767146e-05
2
275200
Ar	-0.00032909402141080265	-8.506802159193823e-05	0.003185428753593371	0.005888101100250105	-0.023264674088566854	2.427809494153005e-05
Ar	-1.9567333991579813e-05	0.0001241256200156142	0.0027881704546303125	-0.008832504135935405	-0.0016008198546293452	6.525010833138171e-05
2
275400
Ar	-0.00019618111393191162	-0.00027831475998522736	0.00318613420597855	0.01958203187817751	-0.01378376920293167	8.794392491622054e-05
Ar	-9.610438434519627e-05	7.980737950725001e-05	0.002788848584040135	-0.0058275226558084404	-0.0068964400316719006	7.65775286757148e-05
2
275600
Ar	3.06434533177403e-05	-0.0003384695122468094	0.0031872597394903093	0.023886022282877808	0.0022353140329347872	0.00011984066823433202
Ar	-0.00012656961073377482	-2.405250187460087e-06	0.00278918077072079	2.1428761667379516e-06	-0.008860390488606302	-8.004922660083363e-07
2
275800
Ar	0.00024283601322925552	-0.00023714622575498524	0.0031881210408557267	0.016767271603097267	0.017188137211282938	6.704466924703778e-05
Ar	-9.586348402763152e-05	-8.348733258487734e-05	0.0027888569718943204	0.005859929764875213	-0.006651641204017651	-4.3060256251811516e-05
2
276000
Ar	0.00033851142025010755	-2.2504602820349583e-05	0.0031884417096272604	0.00158924681154284	0.02395201085323781	3.1599335584274636e-06
Ar	-1.8946806073755407e-05	-0.00012465651576718033	0.0027883056033109017	0.008880762978162218	-0.0012201787293397125	-2.803926176537466e-05
2
276200
Ar	0.00027207059508917495	0.00020296085196435827	0.003188012003270184	-0.014320956617278575	0.0192586284857896	-5.9783348937148415e-05
Ar	6.718123417436232e-05	-0.00010574280414268256	0.002787916987163921	0.007606226181953661	0.004839090978248763	-5.1632397632503824e-05
2
276400
Ar	7.520417077256057e-05	0.00033126127350084134	0.003187349608376378	-0.023389294555005363	0.005309541106584381	-9.363065955802161e-05
Ar	0.00012090622508184219	-3.5713470006437485e-05	0.0027872568375086107	0.002698739127550223	0.008566389514551189	-6.0444907568724715e-05
2
276600
Ar	-0.0001578337344479199	0.0003006970830422776	0.0031867047607245535	-0.02126950772867878	-0.011174044176196135	-4.43771976665051e-05
Ar	0.00011692214832211992	5.168488605247279e-05	0.0027869112757569555	-0.0034611849655242963	0.008175099621300717	-1.015151659718201e-05
2
276800
Ar	-0.00031545434462156865	0.00012596584411873562	0.0031863963081626557	-0.008914897910239113	-0.02227995124128962	-1.9197716104810523e-05
Ar	5.708000947294929e-05	0.00011449326448460267	0.0027870127241707153	-0.00799140942618618	0.0038693508208197053	2.2466452687455265e-05
2
277000
Ar	-0.0003217780151056364	-0.00010900163278346084	0.0031865473078317775	0.007710161339834372	-0.02274900978612991	1.8631775198870246e-05
Ar	-3.007166591904109e-05	0.00012260407791616281	0.0027876409378399048	-0.00868585270280251	-0.002287779578070334	5.422404857770427e-05
2
277200
Ar	-0.00017381603088134057	-0.00029192914371527196	0.003186771064200121	0.020662130342515826	-0.012304432454378492	3.376707858420944e-05
Ar	-0.0001025885447523323	7.242251086474609e-05	0.0027880279840300855	-0.005209927903714349	-0.0073083280533078115	1.664177410365347e-05
2
277400
Ar	5.7606688022915845e-05	-0.00033514045249913755	0.0031875329067719413	0.023694412982369493	0.00404490362123746	0.00010015648843239907
Ar	-0.0001257731009947151	-1.2035817584450735e-05	0.0027882666635864494	0.0007548612671027916	-0.008871047445607594	2.133184612374939e-06
2
277600
Ar	0.00026157010663425127	-0.000217596971575682	0.003188438933029482	0.015366582840271939	0.018455111828527045	6.997886476848216e-05
Ar	-8.909504754922004e-05	-9.045921734609495e-05	0.0027881441525182227	0.00627811197142092	-0.006198117577829395	-3.4481976181388433e-05
2
277800
Ar	0.00034005870582113707	4.296009340062628e-06	0.003188567788853244	-0.0003437850065020603	0.024040205749248218	-4.0147636588569815e-05
Ar	-9.822440840516137e-06	-0.00012570661506192872	0.002787798317821124	0.008919866243553867	-0.000561523015882476	-3.237344269438357e-05
2
278000
Ar	0.0002555006239360943	0.0002239982351025703	0.0031876555151015506	-0.01584354543948763	0.01806257308015588	-0.00012163738633294263
Ar	7.459201408034676e-05	-0.00010098070338537986	0.0027877370118354794	0.007231771555621077	0.005303825120655714	1.8831474458520083e-05
2
278200
Ar	4.874159169304733e-05	0.0003362816922537215	0.003186076634926452	-0.02376478620349906	0.0034302478390427866	-0.0001380336367164091
Ar	0.0001231453359215592	-2.813763775152337e-05	0.0027880587666155106	0.002077755112641954	0.00865085544144772	2.1754806327500238e-05
2
278400
Ar	-0.00018117615741004194	0.0002873152486565446	0.0031853786380702993	-0.020282371344583952	-0.012829474678345072	-2.4183801289068607e-05
Ar	0.00011244764485788885	5.812471481374814e-05	0.002788215720058143	-0.00411191204230647	0.00786414746851335	1.5692432650337938e-05
2
278600
Ar	-0.00032401315575204874	0.00010041973559510576	0.003185512670799132	-0.007107536892100185	-0.022965361033049594	4.855832417614628e-05
Ar	4.79576433525994e-05	0.00011630802689172287	0.002788254015912562	-0.008226677655253553	0.0032841378559069546	-5.700663297234231e-06
2
278800
Ar	-0.0003117150999547189	-0.00013450751184645538	0.003186258141624454	0.00947956359725997	-0.022052766820283003	9.631318326861815e-05
Ar	-3.915414581987263e-05	0.00011839239160750142	0.0027883705846703474	-0.008440804999725007	-0.002856473047044047	4.087772816345983e-05
2
279000
Ar	-0.0001500235317231873	-0.00030503791090663455	0.0031872305233430127	0.021503858647240845	-0.01061364144283538	6.622261591470264e-05
Ar	-0.00010741848046749804	6.383656099410802e-05	0.0027884131490372587	-0.004637378278360528	-0.00760612811430375	-3.3741488420963675e-05
2
279200
Ar	8.341435874608286e-05	-0.0003295134761886795	0.0031880168606929927	0.02324459812097882	0.005919417561699475	6.869649891870201e-05
Ar	-0.00012426584859982266	-2.147337909813319e-05	0.00278808422930299	0.0014158525805546866	-0.008745266721297678	-3.9731365458461016e-05
2
279400
Ar	0.0002770849116776098	-0.00019626630286626422	0.0031881910494375044	0.01385320286371182	0.019596673187946258	-3.6816991739598197e-06
Ar	-8.136225651302486e-05	-9.680646765115692e-05	0.002787865263676429	0.006815897044092186	-0.005673583191849227	-2.266230352090863e-05
2
279600
Ar	0.0003380043029775625	3.076010679960919e-05	0.0031879601790148577	-0.0022037979212914216	0.023920202375626115	-6.261157713409491e-05
Ar	8.210517669060487e-07	-0.00012578883099128866	0.0027877123524437265	0.008915362452083016	0.00011727420391710005	5.366521487214824e-06
2
279800
Ar	0.00023679522596047091	0.00024334732398227044	0.003187168552403777	-0.01718498018776968	0.01681382548953421	-0.00010992107722949543
Ar	8.266309186289108e-05	-9.451872434402089e-05	0.0027877692956042436	0.006765554101187211	0.0058736446813974896	2.320567860370026e-06
2
280000
Ar	2.230305765651503e-05	0.0003395231797540647	0.003186150951274513	-0.023912152378871347	0.0016049068972975769	-9.886179582191606e-05
Ar	0.00012524259293653805	-1.802035654604204e-05	0.0027878795226277463	0.0013919872187655889	0.008780783359407716	-1.0387479668819957e-05
2
280200
Ar	-0.00020283194413633964	0.00027292727767738674	0.0031856177158121664	-0.01921066903504338	-0.01436910593310942	1.976655412657691e-07
Ar	0.00010789939087656529	6.713516985592406e-05	0.002787801237011648	-0.004716391544270003	0.007512060377543452	-2.7022719729517493e-05
2
280400
Ar	-0.00033070484544676774	7.533843643756922e-05	0.003186246173388002	-0.005282308436338331	-0.023474650636501677	0.0001237009623474664
Ar	3.8684211036453535e-05	0.00012029218507360174	0.0027872523402217965	-0.008539496076992038	0.0026570194863234555	-7.321335533319011e-05
2
280600
Ar	-0.0003002690198592091	-0.0001582538668580256	0.0031873988394670013	0.011103857980907416	-0.02128718954452732	9.580153438856886e-05
Ar	-4.8982877246700526e-05	0.00011587150005425898	0.002787031148318455	-0.008259851690531879	-0.0035301291454940525	1.6254522732028643e-05
2
280800
Ar	-0.00012638724243448223	-0.00031589085323086653	0.003188234547679464	0.022201152604367457	-0.008902600593704355	4.013180615126843e-05
Ar	-0.0001133263414160126	5.5681528580217374e-05	0.0027871740984843863	-0.004077057633783226	-0.00800366088257517	1.7592815132372506e-05
2
281000
Ar	0.00010790973663649132	-0.0003217864577622996	0.0031882725152991447	0.02269370977525191	0.0078045085977317815	-4.517314788453605e-05
Ar	-0.00012364023020825779	-3.1401726402880805e-05	0.0027876131792987273	0.0021208097799107276	-0.008680624165644428	7.35128451800584e-05
2
281200
Ar	0.00029095897004182867	-0.00017286056725470666	0.0031877579872709072	0.012354135388920818	0.02071475484960571	-6.140840829999962e-05
Ar	-7.437622030770542e-05	-0.00010362689883211555	0.002788091451663317	0.007315791461148609	-0.005184048850944354	9.95779737287808e-06
2
281400
Ar	0.0003347717551217574	5.894554527380664e-05	0.003187031359945244	-0.003949836722340185	0.0236806714955254	-7.490548682846245e-05
Ar	1.0886277530043367e-05	-0.00012658371454592047	0.002788089311652351	0.00902403965190753	0.0008066296427783743	-1.3151980347660134e-05
2
281600
Ar	0.00021797518381560347	0.00026230714718390193	0.003186236532067873	-0.018430740416922185	0.01529437978551904	-8.960965345737994e-05
Ar	9.108373356698424e-05	-8.890916474503874e-05	0.002788027676742563	0.006339580484783195	0.006414772288646875	-1.8310312946786027e-06
2
281800
Ar	-3.7573294368460606e-06	0.0003400145306405923	0.0031855306084217286	-0.024045704038699867	-0.0004052634446077356	-1.3842397050450253e-05
Ar	0.0001275395181631107	-8.60198549782402e-06	0.002788070326407311	0.0006570576162151101	0.008969870293528803	1.3683087828414514e-06
2
282000
Ar	-0.0002238510179565398	0.0002547638974228147	0.003185888559862984	-0.018129194484447116	-0.01591988343691501	5.702271690518712e-05
Ar	0.00010305345819026023	7.575039084311233e-05	0.002788126766573859	-0.005366920265813351	0.0071858240097376685	-1.106408644335885e-05
2
282200
Ar	-0.0003368308484211138	4.7413577411974186e-05	0.0031866466276432655	-0.00350468095207983	-0.02382456960272357	0.00010018714294839907
Ar	2.9092816716958415e-05	0.00012340502344035042	0.0027877970712853134	-0.008775950044771504	0.0019642869601370627	-4.671913747968412e-05
2
282400
Ar	-0.0002881263118212168	-0.0001827098135406937	0.0031874703226216442	0.012837729349970493	-0.020279439761879285	8.796146094284209e-05
Ar	-5.844711589792345e-05	0.00011175679858165946	0.002787417682011111	-0.008032875296405792	-0.0041748433856835495	-2.7850050062959884e-05
2
282600
Ar	-0.00010083455090654814	-0.00032534420872500254	0.0031880079765882093	0.023028585328730148	-0.007018621121920867	5.2525068357475816e-06
Ar	-0.00011810238454220993	4.6651592423150715e-05	0.0027873418297713923	-0.0033898927457227824	-0.008306505638530434	2.3540370592158454e-05
2
282800
Ar	0.00013504613615277901	-0.0003115806077889327	0.003187591177680161	0.022141476017009883	0.009643388888798062	-8.115674239412883e-05
Ar	-0.00012107564631082275	-4.122029945919504e-05	0.0027875600183301123	0.0028208869206153746	-0.008515336805136896	-4.0821285044224034e-08
2
283000
Ar	0.00030616179083456477	-0.00014810388436594223	0.003186681969298232	0.010632243211932344	0.021671093870082907	-0.00011536434976662344
Ar	-6.595518171560236e-05	-0.00010957942785856524	0.0027876541092100625	0.007739304977092961	-0.004564332439969406	3.5969473160904584e-06
2
283200
Ar	0.0003304392278890696	8.651842368999861e-05	0.0031856955397927774	-0.005974514608228351	0.02330790797750726	-8.59229279514179e-05
Ar	2.080809960544584e-05	-0.0001252167446537813	0.002787698347308443	0.008900833070281977	0.001562059617335464	1.8989074889968468e-05
2
283400
Ar	0.00019618440018422857	0.000279835051835341	0.0031851967833697033	-0.01975829991387345	0.013733990938837464	1.159890929552244e-05
Ar	9.754903568875317e-05	-8.104237313206592e-05	0.0027879268873750233	0.005793931826861855	0.006895745310428235	5.22291365245691e-06
2
283600
Ar	-3.242585161266505e-05	0.00033863941650344405	0.0031859566348434423	-0.024054435892748288	-0.002446740423907716	0.00013746303656344636
Ar	0.0001277050821460318	1.4821795032135152e-06	0.002787813643737937	-4.34778442417173e-05	0.00891523291969538	-3.380386955260688e-05
2
283800
Ar	-0.00024566656420641815	0.00023496649647454152	0.003187533625268372	-0.01678470932283223	-0.01740262822857547	0.00015196053950386257
Ar	9.65612857196155e-05	8.300864263272303e-05	0.002787267461996415	-0.005912489288685789	0.006707192506046636	-4.906626762680391e-05
2
284000
Ar	-0.0003408820111858456	1.8668703179017006e-05	0.003188589931655809	-0.0014526851540025097	-0.02403337182882995	1.4994815550586481e-05
Ar	1.8841319420424513e-05	0.00012456840654401745	0.0027870156978154073	-0.009000622412863903	0.0012682874255887109	-3.738381300958814e-05
2
284200
Ar	-0.00027229416112137483	-0.0002065017876674852	0.0031880349655780335	0.014593710245354656	-0.019124359650368888	-0.00010856553578574056
Ar	-6.849578477798531e-05	0.00010662283092835937	0.002787038001513278	-0.007736465278091736	-0.004709710350600769	4.688816713020011e-05
2
284400
Ar	-7.288118812326861e-05	-0.0003325592752986429	0.0031865373102882657	0.023615314520833718	-0.005038481004624266	-0.00016026658397596893
Ar	-0.0001232248558551534	3.778065970332484e-05	0.002787715343718058	-0.0027530840242765706	-0.00847481316627476	7.153172180369193e-05
2
284600
Ar	0.00016170192432847226	-0.0002992203327500404	0.0031853753957365918	0.021328488427416928	0.011427355882799722	-7.259647356513483e-05
Ar	-0.00011899751956623747	-4.917456958243898e-05	0.0027883748735355127	0.0035675195723738245	-0.00819055074863688	5.6341052734448564e-05
2
284800
Ar	0.00031904283608059946	-0.0001223002537794404	0.003185076027608265	0.00880928647464209	0.022430512445945395	1.2155996825285758e-05
Ar	-5.774676322185338e-05	-0.00011250421266092203	0.002788928932342982	0.008167130534065392	-0.0039288966395173595	4.389323407475759e-05
2
285000
Ar	0.0003234853737422884	0.0001130265323797755	0.0031856705296808446	-0.007967685814317966	0.022666984741596452	0.00011291796208860254
Ar	3.0875983605676595e-05	-0.00012150665250398747	0.0027892530683704623	0.008822050226247475	0.0021915388536436044	-9.935722930597454e-06
2
285200
Ar	0.00017285787611477638	0.00029441776365546834	0.003186983459962559	-0.020922763087854467	0.012089649408231446	0.00017804881572867017
Ar	0.000104320130525822	-7.226253556619332e-05	0.002788738636811578	0.0052600969983844885	0.00722510166434654	-7.571446420727903e-05
2
285400
Ar	-6.070453434478117e-05	0.00033478354754989714	0.0031887308358288153	-0.023848439618493023	-0.0043342837089892965	0.0001295785625960896
Ar	0.00012780625483799747	1.1522934267754054e-05	0.0027876884679670913	-0.0007699581736648327	0.008823497417482609	-0.00011826268010075958
2
285600
Ar	-0.000265106142644174	0.00021455047100158375	0.003189317608018757	-0.01532009548258775	-0.018704743610869698	-3.7352906765032395e-05
Ar	8.992188354094349e-05	8.98763348004781e-05	0.0027865226146689677	-0.0064762708448029265	0.0061890258688341825	-8.42431624093609e-05
2
285800
Ar	-0.0003419050259748365	-8.529049024651949e-06	0.0031880192676391568	0.0005930611866984446	-0.02404395044056804	-0.00018668355850395499
Ar	8.57775754955565e-06	0.00012499984696223978	0.002786170483911398	-0.009109089165626048	0.0005651797481954208	3.098433776760124e-05
2
286000
Ar	-0.0002544750137659489	-0.0002273688013489664	0.0031860457658384484	0.016149342283189535	-0.017897360888151526	-0.00019663951993021444
Ar	-7.733914781321104e-05	0.00010002493944044784	0.002786848875135068	-0.007337888013424064	-0.00532704593967588	0.00010770284551261917
2
286200
Ar	-4.4849123561808616e-05	-0.00033744187980869737	0.00318474733052864	0.023978924781634457	-0.003172991146925781	-5.303678279476697e-05
Ar	-0.00012620098702350717	2.7055691298299587e-05	0.0027881478833486194	-0.002028145282174174	-0.008658553963159467	0.00014544605822750637
2
286400
Ar	0.00018648054188968765	-0.0002859101668924011	0.0031847794251767788	0.02033782382977593	0.013059714035346417	6.46673504042865e-05
Ar	-0.00011450634114624822	-5.897213036779661e-05	0.0027893755266411627	0.0042728891590298156	-0.007827747273512493	0.00010823915083807756
2
286600
Ar	0.00032866532186873724	-9.735627800573139e-05	0.0031858180263098844	0.006874304395611457	0.023060318390254478	0.0001540785170281057
Ar	-4.803374257126713e-05	-0.00011674570482016665	0.0027900877544198466	0.008465257128449314	-0.0032262719902060293	4.813972597179936e-05
2
286800
Ar	0.00031310194498902224	0.00013763568410159584	0.0031873872637473576	-0.009842549347278217	0.02195946652154545	0.00015406444210208178
Ar	4.114477889768959e-05	-0.0001181914071197742	0.0027902797136201657	0.008630746147438388	0.0029351988936313924	-1.3471679358363573e-05
2
287000
Ar	0.0001476772588940881	0.00030663451907582287	0.0031883774689561726	-0.021839806087021817	0.010423186488309845	4.0668138357992805e-05
Ar	0.00011058874084489015	-6.301534639190595e-05	0.00278934348999241	0.004696636720014077	0.007664063113557315	-0.00017239153493037328
2
287200
Ar	-8.818945045860834e-05	0.0003287166942082333	0.0031882824300958484	-0.02335040290061196	-0.006211872617571645	-6.488465332332334e-05
Ar	0.00012729537462079297	2.263180216395214e-05	0.002787341901646122	-0.0014795178187061975	0.008739567127226374	-0.0001823939236535442
2
287400
Ar	-0.0002813056799837359	0.00019292118401955885	0.003187252871225104	-0.013626758363656451	-0.019827055284743628	-0.00011883154938750038
Ar	8.311536170487244e-05	9.772022533411562e-05	0.0027861341263652594	-0.006993085514451579	0.0056393788409911955	-3.602126364701496e-05
2
287600
Ar	-0.000338684385339726	-3.5394289589789825e-05	0.0031858739273624473	0.0026405429867221663	-0.0239267411740228	-0.00013928882701136352
Ar	-1.1806752289303707e-06	0.0001261125304019541	0.0027863851959365688	-0.009174354812703015	-0.0002299268455124863	6.197442056573473e-05
2
287800
Ar	-0.00023320556501106569	-0.0002466742237496118	0.0031851040145869846	0.01755301107895003	-0.016556341086806262	-6.190630614027749e-06
Ar	-8.518536412890616e-05	9.386978978066854e-05	0.0027874490945883636	-0.006922531357670044	-0.005944485350304506	0.00011909862685182928
2
288000
Ar	-1.597906984672821e-05	-0.0003397033570163715	0.0031860291939802324	0.024078241314328862	-0.0012970655907356729	0.00016768144725808914
Ar	-0.00012820756021187076	1.675308516543197e-05	0.0027884200085641323	-0.0013286223549669966	-0.008852385674954019	9.794639455687483e-05
2
288200
Ar	0.00020920404249362776	-0.00027015701664672353	0.0031875659669603064	0.01907821471793111	0.014632226353409333	0.00012033748385745726
Ar	-0.00010974803544652722	-6.867092994766796e-05	0.0027893384323658017	0.004868096119603133	-0.007523274408592904	8.460709866141069e-05
2
288400
Ar	0.0003343924976653555	-7.091924065009623e-05	0.0031880959525408385	0.004912683332180968	0.023557676046378668	8.14027299455436e-06
Ar	-3.8556510373871205e-05	-0.00012135725729939771	0.00279007235302649	0.008740995482172326	-0.0025707350098549747	4.514798804203786e-05
2
288600
Ar	0.00029919788073475944	0.00016238205601536927	0.003187771227236824	-0.011614355707898177	0.021154800048875242	-7.175511077762373e-05
Ar	5.121857392643369e-05	-0.0001159847970009877	0.002790061655978903	0.008426230048650176	0.003578577989271026	-4.230957611155454e-05
2
288800
Ar	0.00012089724655612161	0.0003182091271740997	0.003186913566870357	-0.022538626611341574	0.008649802984028645	-0.00011278136867062782
Ar	0.00011619972525183732	-5.5351147046567196e-05	0.002789244008220331	0.00401548940285689	0.008045303046454557	-0.00012350206614939534
2
289000
Ar	-0.00011519297928942194	0.00032134595621201783	0.0031858415791278212	-0.02269386919515371	-0.008060406075957783	-0.00011450650063835734
Ar	0.0001248265589400007	3.181348263313096e-05	0.0027877250383327792	-0.00233762202338554	0.008646572779638633	-0.00015998988820669626
2
289200
Ar	-0.00029601961572974314	0.00017007188777014867	0.00318507994426726	-0.011947701749106197	-0.020909108824441344	-4.497248707863956e-05
Ar	7.351321334929195e-05	0.0001033507785805446	0.0027864343780135453	-0.007508487178613874	0.0050658336811333655	-7.79109257853058e-05
2
289400
Ar	-0.00033480424026402153	-6.272463431137753e-05	0.003185199836512556	0.004534140959873302	-0.0237071202858743	8.652673329344569e-05
Ar	-1.2700296771428408e-05	0.00012524130763080386	0.002786246002101926	-0.008999325025759045	-0.0008419204345482925	4.288967261799398e-05
2
289600
Ar	-0.00021305367665698334	-0.0002657806747041778	0.0031862038577498883	0.018783723141304883	-0.01519265505919658	0.00012742819895686976
Ar	-9.243608883340093e-05	8.74675620261132e-05	0.0027871569456791893	-0.006281488167878367	-0.0064136575256764985	0.00011399334028729246
2
289800
Ar	1.0456835430529493e-05	-0.00034145776537128017	0.003187347383187205	0.024049660858734064	0.0006919464857171641	7.647210657487505e-05
Ar	-0.00012800180292396222	7.507869974794938e-06	0.002788478624771023	-0.0005324612168640993	-0.008914482920001578	0.00014244503024496105
2
290000
Ar	0.0002288873275784189	-0.0002531644860303722	0.0031879028777741397	0.0177967478327782	0.01622499533711544	3.5156898383126734e-05
Ar	-0.00010230271321639927	-7.628137470035872e-05	0.0027895547873993537	0.005466070775165638	-0.007146062828431232	8.601131959138961e-05
2
290200
Ar	0.0003373993050938696	-4.327499382933882e-05	0.0031878158034270633	0.0029938483563250948	0.023975620677893918	-5.151935293331434e-05
Ar	-2.7383108481789326e-05	-0.0001235923696215872	0.0027899236022225567	0.008867446408273479	-0.001912848463240406	-3.7838427872819836e-05
2
290400
Ar	0.0002839483446743082	0.000187806375978899	0.003187158704820912	-0.013246792205497035	0.0203017725136222	-9.357849033345307e-05
Ar	6.072852492034909e-05	-0.00011157440822531384	0.002789286321678277	0.008003900664268497	0.004224039837796627	-7.943405473156402e-05
2
290600
Ar	9.409478398664811e-05	0.0003291674125160918	0.0031863309627066434	-0.023136347453709436	0.006783494509474222	-0.00011247949313159271
Ar	0.00011949362653154643	-4.629664946621452e-05	0.002788096143590352	0.0032933648718982966	0.008308077912546135	-0.0001425741904824337
2
290800
Ar	-0.0001410371196690272	0.00031290188363434997	0.0031853553134712723	-0.021919865343797394	-0.009915446383834958	-7.602800404159335e-05
Ar	0.00012111576921949216	4.137758278168048e-05	0.00278711663834085	-0.0029873164897107197	0.00848580702666545	-4.850119672689426e-05
2
291000
Ar	-0.00030832246178631213	0.00014659087516549155	0.00318506910068463	-0.010133034126391667	-0.02195811539562134	3.113363387171035e-05
Ar	6.462373545727233e-05	0.00010960130678832572	0.0027869524590241326	-0.007857623742796426	0.004591688043049912	1.3472300701547039e-05
2
291200
Ar	-0.00032751566961220863	-9.030773489428978e-05	0.003185754739796787	0.006454914077450103	-0.02342993117887343	9.737091117065069e-05
Ar	-2.3069330681089166e-05	0.00012551546978857605	0.002787479096179636	-0.00896852254707518	-0.0015333052973693002	7.758843317111102e-05
2
291400
Ar	-0.00018970230501173937	-0.00028397988709114773	0.003186935518206532	0.01996190860375405	-0.013678535188563394	0.00012916129056401415
Ar	-9.980327875566156e-05	8.121129441232265e-05	0.0027883843048587564	-0.005755204876825268	-0.00694658261832695	9.795020365456252e-05
2
291600
Ar	3.924850794973699e-05	-0.00034148864730982194	0.003187808524074639	0.02390923009282483	0.002662340408685549	9.657465267988639e-06
Ar	-0.00012888653730379755	-2.0746595272688394e-06	0.00278959318494544	0.00018920379321040628	-0.009017334412441154	0.00013810426330822928
2
291800
Ar	0.0002496084817375968	-0.00023507721308575863	0.0031874305832790906	0.016387855178109097	0.01770800986294063	-8.943653993968824e-05
Ar	-9.627753265893035e-05	-8.452531541288672e-05	0.002790594004592177	0.006086368610976946	-0.006784913829854601	7.445935776436722e-05
2
292000
Ar	0.0003403973649380711	-1.6174436329290893e-05	0.0031863072755054845	0.0010202141431269493	0.024223581797269078	-0.00012027283995794783
Ar	-1.7281258782365585e-05	-0.00012646181942552805	0.0027907439299625215	0.009026139501054097	-0.0012363585061991387	-7.663851482557996e-05
2
292200
Ar	0.0002682780901061271	0.0002102620162494693	0.0031854852707779995	-0.014841621740271187	0.019171525850190583	-3.068713321743226e-05
Ar	6.988045797826508e-05	-0.00010748919680041742	0.002789445584692546	0.007654928017406997	0.004857629225015153	-0.00016210260829620755
2
292400
Ar	6.751969824413218e-05	0.0003357256264702083	0.0031856608687193953	-0.023620760088951892	0.004860765453015171	7.230660017633189e-05
Ar	0.0001233014586339514	-3.7411582693236575e-05	0.0027875852470961833	0.002591415664259697	0.008585062080046071	-0.00016424785231532833
2
292600
Ar	-0.00016562167288412122	0.0002997452419875018	0.0031861414011999274	-0.02102483580995971	-0.011751853516327496	2.767352811275202e-05
Ar	0.0001174459568138209	5.054752617733038e-05	0.0027862875073960836	-0.0037120722989347804	0.008258229703204827	-9.09948822183419e-05
2
292800
Ar	-0.0003186403862088118	0.00011987512346360833	0.003186316777866803	-0.008324480789324778	-0.022704309033357323	-7.842964749852587e-06
Ar	5.5057107734820934e-05	0.00011434637534259092	0.0027860925470939916	-0.00822896408500244	0.003939955027120529	4.9471724548393425e-05
2
293000
Ar	-0.0003186116498517429	-0.00011742061801013788	0.0031865487125275873	0.008352444714209291	-0.022776174835501897	6.0514532067589786e-05
Ar	-3.37538669809134e-05	0.00012319370393038017	0.002787064300233485	-0.008789380562312566	-0.002258417270517452	0.00013559797213070278
2
293200
Ar	-0.00016562126732874927	-0.00029843381677125796	0.003187012180322747	0.020960778850760635	-0.011901372668447067	4.897436223401964e-07
Ar	-0.00010659617888447014	7.29628743839764e-05	0.00278865158504894	-0.005153519695387754	-0.00736720329856327	0.0001591601622304224
2
293400
Ar	6.677743159275325e-05	-0.0003362340674777019	0.0031869867724825694	0.023568263794224744	0.004671368959254343	-2.713796729434921e-05
Ar	-0.0001284839822778918	-1.2317147968326364e-05	0.00279006873273954	0.000986041425375838	-0.008958977879508528	0.00011773115920459649
2
293600
Ar	0.00026731751350266735	-0.0002127926305807326	0.0031866566714608743	0.01483634914058051	0.018970389681960135	-5.86840538008062e-05
Ar	-8.883814441373739e-05	-9.163137995355982e-05	0.0027906841001950275	0.006627597241530694	-0.006244215510905966	7.908883554939322e-06
2
293800
Ar	0.0003397346967655648	1.2384039469380686e-05	0.003186105071709847	-0.0009725831737990138	0.02419520223174883	-3.9197936377997145e-05
Ar	-6.9679603959719725e-06	-0.00012710069175393652	0.002789902099250923	0.009066827339613991	-0.0005437021489440729	-0.00015408044553073932
2
294000
Ar	0.00024964496189342205	0.000231677447462865	0.0031860340812202956	-0.01630218176798102	0.01783932918601214	2.3628227992720086e-05
Ar	7.761874973229295e-05	-0.00010180183939724168	0.002787862449774844	0.007147056290385958	0.005400961621763449	-0.00022734107509072608
2
294200
Ar	4.0106938180170086e-05	0.0003399904264185249	0.0031863927588231156	-0.023856912445770182	0.0029022403678371027	5.515883597700908e-06
Ar	0.0001246435896416611	-2.7590685192333127e-05	0.0027858906278426803	0.0018533467138456812	0.008824233435347337	-0.00011264226494481221
2
294400
Ar	-0.00018869106932977892	0.00028458182385629135	0.003186405469968525	-0.019953464742750986	-0.013480029810253731	1.322725888225823e-05
Ar	0.00011166847487773096	6.0317062121444875e-05	0.0027855580995686793	-0.004374145270089352	0.008012786724457065	5.597736083805228e-05
2
294600
Ar	-0.000326663189156325	9.255318314081025e-05	0.003186409713767277	-0.006495585785697828	-0.023317885477820655	5.070985654192275e-06
Ar	4.4543531210076256e-05	0.00011909063842836628	0.00278674760179665	-0.008511898555106617	0.003261217720539984	0.000161724312188534
2
294800
Ar	-0.0003080558087255712	-0.00014397361163225725	0.003186636564202705	0.010076751627095216	-0.02200686273449317	4.950799566062759e-05
Ar	-4.423246857015742e-05	0.00012036131906503003	0.002788622628327045	-0.008515126369365241	-0.0030177469525237903	0.0001841583691945187
2
295000
Ar	-0.00014164558178794896	-0.00031173552864947597	0.0031870721967791264	0.021834801357096482	-0.01013357596239125	3.589394799275014e-05
Ar	-0.00011186662138996454	6.366719504511973e-05	0.0027901618122164284	-0.0044506118838816035	-0.007843586526789573	0.00011096159016180149
2
295200
Ar	9.311482661671726e-05	-0.00033021824442280406	0.003187076244685923	0.023150301370727384	0.006590254039112348	-3.582411717812671e-05
Ar	-0.00012590727723885608	-2.380764009791925e-05	0.0027905317490891173	0.0017388886567667188	-0.008902679167539933	-1.9492319323422985e-05
2
295400
Ar	0.0002835248175238186	-0.00019059208796846718	0.003186557387828005	0.013331275180447502	0.020161701005816643	-4.9029934848605456e-05
Ar	-8.001601326326282e-05	-9.996723245345099e-05	0.0027897040692103333	0.007058266983214832	-0.005672111272138965	-0.00014913342509546916
2
295600
Ar	0.00033787643104317595	4.029805692340947e-05	0.0031858799775570765	-0.002906989870158047	0.02409887142592601	-5.4450299790774266e-05
Ar	4.010458431262329e-06	-0.00012794161089862174	0.0027877428073957624	0.00904342954308021	0.00028007528504870455	-0.00021383784615245185
2
295800
Ar	0.0002303782090989879	0.0002520066500478799	0.003185814303947949	-0.017705447068020474	0.016453676780098837	1.6761039073808717e-05
Ar	8.615739410971201e-05	-9.441746253315863e-05	0.002785891624350623	0.006687378381376839	0.0061330339157913165	-0.00014766410568761997
2
296000
Ar	1.2573172491091121e-05	0.00034288206015206527	0.003186152797902985	-0.024037321748043915	0.0009079078288206507	3.301097355595753e-05
Ar	0.00012690723579461175	-1.5364945775548e-05	0.002785215207311141	0.0011075075118138428	0.00903540701728119	6.145095114892455e-06
2
296200
Ar	-0.00021122020337378702	0.0002687006563248839	0.003186463620457242	-0.018839837116167497	-0.015111237411640244	2.5096721888451463e-05
Ar	0.0001066253729852036	7.154019877755496e-05	0.0027863166232969245	-0.004992640554076841	0.0075867950393441455	0.00016020459674383135
2
296400
Ar	-0.0003334963641898473	6.54190170233172e-05	0.003186885239322831	-0.004603703936723118	-0.023817824851990438	5.228507578537093e-05
Ar	3.497814620367641e-05	0.00012407146260419945	0.002788126331124451	-0.008710738338922672	0.0024687749302631707	0.0001837905412107379
2
296600
Ar	-0.0002960550009668751	-0.00016906983802301867	0.003187168331301495	0.011794116449514107	-0.02110768404228512	2.3367642676896396e-05
Ar	-5.354318947052844e-05	0.00011709915538801166	0.0027896833355796863	-0.008260274390866044	-0.0038063379534865223	0.00011896989631964685
2
296800
Ar	-0.00011681563169312997	-0.00032231983000928873	0.003187164459915855	0.022559162218468754	-0.008262709180876298	-2.497403403628228e-05
Ar	-0.00011666757933605443	5.383594602258444e-05	0.0027904790819634198	-0.003857828629739837	-0.008288149906111441	4.806337607980154e-05
2
297000
Ar	0.00011846359453813427	-0.00032081620068420257	0.0031867231169955415	0.022512489174005734	0.008565422719911958	-5.069169321381965e-05
Ar	-0.00012417017964763127	-3.489638203994228e-05	0.0027904655003481347	0.002403855737533535	-0.008723768836608059	-7.618796215344827e-05
2
297200
Ar	0.0002969267665542235	-0.00016526563354461783	0.0031863417866564315	0.01167415772109984	0.021246527766008837	-1.662571482506453e-05
Ar	-7.253023486195498e-05	-0.00010654769676907071	0.0027892462124949093	0.007485849062287353	-0.005001014250387617	-0.00016018667077889056
2
297400
Ar	0.00033295339445119445	6.955208289274586e-05	0.0031863757307386818	-0.004754027068588681	0.023742613735158766	1.9085167583049564e-05
Ar	1.357529167307806e-05	-0.00012685140767127267	0.0027875675232591464	0.009015271958809877	0.0011084730834798682	-0.0001506909680714905
2
297600
Ar	0.00020947899671596503	0.00027064637421699	0.0031864975262764607	-0.01889989535990763	0.014787003357907851	1.3233887689651515e-06
Ar	9.342710663869879e-05	-8.62371056273829e-05	0.0027864847178926456	0.006266066016240227	0.006689343531722703	-6.224488366215882e-05
2
297800
Ar	-1.4397970700971824e-05	0.0003413929866712136	0.003186699888433699	-0.0239773135476768	-0.0012113430975124009	3.284383596116699e-05
Ar	0.00012846189599822157	-3.935225582963097e-06	0.002786327029573156	0.00045332564006499154	0.009056585019855934	2.284684807055073e-05
2
298000
Ar	-0.00023139920585865816	0.00024843630385763376	0.0031870323432779016	-0.017590940938211626	-0.01660102876508951	2.1080288327358443e-05
Ar	0.00010168350706028595	7.994236205553692e-05	0.0027870088306050675	-0.00557568766199128	0.007044214129250883	8.043874931467466e-05
2
298200
Ar	-0.00033757339844104933	3.645629860347137e-05	0.0031873577295098627	-0.002743691867568812	-0.02401316131917835	1.2663805981421842e-05
Ar	2.602526869505061e-05	0.00012605429799699097	0.0027879873858637576	-0.008904972039841173	0.001779567619626799	0.00010811587963797953
2
298400
Ar	-0.000281731580776022	-0.00019266531446760708	0.003187347157268585	0.013423354828489494	-0.019882017515324035	-3.8520834978978026e-05
Ar	-6.173854219993456e-05	0.00011226188480893039	0.0027891066639440833	-0.007943157890972384	-0.004436600228198471	0.00013256431609652049
2
298600
Ar	-9.083068534512823e-05	-0.00032942388006012256	0.0031864294559348825	0.023128965811210163	-0.006289114704695221	-0.0001404768025302859
Ar	-0.00012006589943715046	4.466643465425359e-05	0.002790350983456041	-0.0032373007338726218	-0.008505256345342342	8.65032355561974e-05
2
298800
Ar	0.00014356301740970558	-0.0003082672175724181	0.0031853182528031646	0.021789692853486045	0.01032495698956022	-5.9536227340211605e-05
Ar	-0.00012103741132002989	-4.381044205966404e-05	0.0027906409814800106	0.0030308240173200574	-0.008458192561687944	-2.4551920272116218e-05
2
299000
Ar	0.00030960118968470084	-0.00013998803082774025	0.0031854512549324867	0.01002793138712465	0.02193006919960696	9.058308167083173e-05
Ar	-6.43650709793833e-05	-0.00011093765414310546	0.0027896726261625996	0.007813978765711958	-0.0043964900756552445	-0.00016129240902204947
2
299200
Ar	0.00032741017338574704	9.509463916299096e-05	0.00318659943255575	-0.006610763447420089	0.02312285724999455	0.00011895260980779955
Ar	2.2632712073088986e-05	-0.00012468458277623557	0.002787841464080191	0.00886213679768779	0.0017607143613659246	-0.00016178883353533502
2
299400
Ar	0.0001882110440805321	0.00028480517390155826	0.0031874885465337554	-0.020067941466451498	0.013205688255951632	6.767269421049151e-05
Ar	9.868265264129457e-05	-7.850203872445226e-05	0.0027864178927123878	0.0057237864499977515	0.007090854155520853	-0.00011734286605182882
2
299600
Ar	-4.105866201615091e-05	0.000337759152707962	0.0031880591977085032	-0.02387868558078721	-0.0030672686933175125	4.295972825451295e-05
Ar	0.0001273656889946204	5.452360827625545e-06	0.0027859690445394924	-0.00023546025154799345	0.009011881409764467	-4.031398351288247e-06
2
299800
Ar	-0.00025045505074678884	0.0002284204339452592	0.003187972968136669	-0.016231624780086044	-0.017881146077775554	-6.783412904865715e-05
Ar	9.456025663676848e-05	8.72023343128471e-05	0.0027866167113780632	-0.006059886734749227	0.006611677270537062	0.00011554008248091348
