2
0
Ar	-6.680267430600421e-11	6.278693632421221e-11	0.003224804989417469	-2.6721069722401687e-06	2.5114774529684885e-06	1.1939937109147178e-06
Ar	7.795907695223444e-11	-5.981077649515876e-11	0.002742747096060451	3.118363078089378e-06	-2.3924310598063502e-06	-4.041043835573442e-07
2
200
Ar	-1.9436445397908817e-08	-1.0559770344570645e-08	0.003224896251133706	1.3928494692612979e-05	1.843923629601267e-05	-7.04992440623003e-07
Ar	1.4118470376380606e-08	1.7101310467253475e-08	0.0027426647557273506	-3.0013735722053797e-06	-1.728383459938242e-05	-1.1816731765879308e-05
2
400
Ar	1.0948748972303783e-08	2.185642884342489e-07	0.0032249289946180443	7.894223175629018e-06	3.0474808834617782e-05	-7.5996474803708915e-06
Ar	8.363944574425272e-08	-1.323249449470523e-07	0.0027425933927566434	1.6865819083718845e-05	-1.4847540828573789e-06	-7.665129551608662e-06
2
600
Ar	-9.828920721671669e-08	5.903599866807945e-07	0.0032247075276591033	-2.7898001205070995e-05	4.7609605015603214e-05	-2.802660264071858e-05
Ar	2.607033706990414e-07	-1.979625879760055e-07	0.0027425141786564028	2.450440214150529e-05	-1.3445722565258956e-05	-1.524934101740495e-05
2
800
Ar	-3.927294379202465e-07	1.035139035250101e-06	0.0032246935218374143	-3.623092992603151e-05	3.3891991077588966e-05	3.7907394057275805e-05
Ar	6.858699766986138e-07	-3.845024965024207e-07	0.0027425606998145967	3.3651738502167744e-05	-2.5919455217531544e-05	4.402471225390865e-05
2
1000
Ar	-9.421103647702966e-07	1.0876327362166369e-06	0.003224996049652022	-5.713278111272153e-05	8.052033608472972e-06	2.9950675336604706e-05
Ar	8.496972766337577e-07	-6.37075802488329e-07	0.0027430909187933675	1.2228194087396828e-06	-1.7814450958590863e-05	6.388490689929203e-05
2
1200
Ar	-1.4646900380506051e-06	1.1250215094143323e-06	0.003225062002486564	-3.9189689321430435e-05	-7.550966142638538e-06	1.4241789752454065e-05
Ar	6.866033388142116e-07	-4.320788622017681e-07	0.002743405151273295	-1.9558466974484124e-05	4.9908879018817056e-05	7.224068567253692e-06
2
1400
Ar	-1.481143387347467e-06	7.155203181757549e-07	0.003225144083606571	4.4704821353472795e-05	-6.420845937416964e-05	7.216312048805075e-06
Ar	2.673594313607593e-07	6.333264532025202e-08	0.0027432528074508035	-5.550748797520443e-05	6.018980041519891e-05	-5.357219883223974e-05
2
1600
Ar	-4.588888255548861e-07	-9.140410765069413e-08	0.0032249927173070626	0.00012905537650814252	-0.00010573695694779777	-1.3935108740578927e-05
Ar	-4.867842011382338e-07	6.277094171078466e-07	0.002742652419005542	-7.84505442802549e-05	5.9731667599622076e-05	-5.761884655234077e-05
2
1800
Ar	8.226967837501467e-07	-1.0429462123576378e-06	0.00322465077314617	0.00011702686962395199	-9.108159061197333e-05	-5.230259780445755e-05
Ar	-1.1251368000760067e-06	1.0409932712208515e-06	0.0027423440574942497	-2.9875847386112222e-05	2.6762135638764457e-05	-3.5029555039529644e-06
2
2000
Ar	1.6547743060698739e-06	-1.6029091277302952e-06	0.0032242362425318524	6.709729763390056e-05	-1.3719170568422666e-05	-3.998550457582306e-05
Ar	-1.15171947997513e-06	9.902363813253045e-07	0.002742509155060517	6.8608465799861675e-06	-4.4738443492420784e-05	-7.722844294137306e-06
2
2200
Ar	1.996831391458281e-06	-1.4314303247037375e-06	0.0032239534326195837	7.712311840877722e-06	4.4996295280147576e-05	1.5497809127492533e-06
Ar	-6.610314187199569e-07	4.349034622872875e-07	0.0027424726451555524	6.817527572776164e-05	-5.611879427370259e-05	-6.2128158091732065e-06
2
2400
Ar	1.494454132960431e-06	-9.600687365455235e-07	0.0032243383394479027	-9.819426184294236e-05	6.30615356452418e-05	5.512718090639264e-05
Ar	1.0098131685462271e-07	-4.2714677532156707e-07	0.002742417871449012	6.964357203263587e-05	-0.00011801153492574891	-1.1671691526547273e-05
2
2600
Ar	1.7018668445626076e-07	-1.4270305180650015e-07	0.0032250667600280734	-0.000140556270921361	0.00010328350865860756	7.026532552737854e-05
Ar	1.048270838407715e-06	-1.679070025498098e-06	0.0027422216508310557	7.636638496940505e-05	-0.00011669894398297371	-4.481795380784251e-05
2
2800
Ar	-9.518256904660988e-07	8.608306429884876e-07	0.003225494786170675	-8.286218272910297e-05	9.410562410522327e-05	-5.052228445520137e-06
Ar	1.3216738726338702e-06	-2.2011940173811076e-06	0.0027420225860488095	-8.775797180629818e-07	-7.5418589391575345e-06	2.6287914151515863e-06
2
3000
Ar	-1.6631618516280398e-06	1.4353190153889672e-06	0.003225120794574809	-3.4986148979142486e-05	1.475417083873956e-05	-6.694981525183509e-05
Ar	6.167536202292466e-07	-1.8115409648120599e-06	0.002742046272753431	-0.00010639625819578556	8.38689694716783e-05	2.3640071869445752e-05
2
3200
Ar	-1.4653306510108015e-06	1.3882111515775962e-06	0.003224094662632899	7.942405924589234e-05	-2.907304839257513e-05	-0.00011928023181041751
Ar	-5.842023475085439e-07	-7.106422197822242e-07	0.0027423396285987914	-0.0001083113537604167	0.00013771943505110017	2.900467693418439e-05
2
3400
Ar	-3.7141862256877045e-07	1.1093034889394043e-06	0.003223122582658986	0.00013517701241413525	-5.7939831893086544e-05	-2.6749909517129573e-05
Ar	-1.4597395124992312e-06	1.0092495731894418e-06	0.0027429755667742585	-6.49552663272507e-05	0.00017739616814647075	8.619649757586915e-05
2
3600
Ar	1.1887621837451418e-06	3.46350506488958e-07	0.003223557710401411	0.0001562999360104815	-0.00011698613860580737	0.00011997852845967786
Ar	-1.8978196414969964e-06	2.0538828650284166e-06	0.0027436084392014853	-9.28165184872488e-07	3.781721888510943e-05	5.447906746220229e-05
2
3800
Ar	2.5505234689960417e-06	-9.844374154453722e-07	0.003225350813388836	9.757445079024962e-05	-0.00013996827344226568	0.000213853752039419
Ar	-1.4824606010337722e-06	2.2380679114942988e-06	0.0027437657327541794	0.00010206994940903213	-2.17881390240844e-05	-2.420500837195144e-05
2
4000
Ar	3.040473942145323e-06	-2.014750038045398e-06	0.0032271907154621166	-1.2231847687006096e-05	-7.347395736878597e-05	0.00011702679855968078
Ar	3.2158746560346807e-08	1.2540769552856622e-06	0.0027433492540884707	0.00019046547120160715	-0.00016381417615123813	-4.1835751060667294e-05
2
4200
Ar	2.423572592573432e-06	-2.2829710189739376e-06	0.003227350385115039	-0.00010068419611205376	1.611030592166952e-05	-9.83399482577406e-05
Ar	1.791213322726987e-06	-6.91913875883813e-07	0.0027428930838066194	0.00016105234248154203	-0.0001898679017362599	-2.4330217189259188e-05
2
4400
Ar	7.745958907196487e-07	-1.4858435867113223e-06	0.0032257443420734447	-0.0002158210702218724	0.00013694098437344596	-0.00018452446835864168
Ar	2.887180147970843e-06	-2.202016661571818e-06	0.002742693204262671	4.764828631508336e-05	-0.0001008264106147135	-3.9498271930954303e-05
2
4600
Ar	-1.3546518015391633e-06	5.085548725950462e-07	0.0032237301521061477	-0.00021784089643895626	0.00021519293175702566	-0.00016298486807589293
Ar	2.7463648667487935e-06	-2.5547171033666486e-06	0.0027421609687928593	-6.407682600112267e-05	3.411068610426951e-05	-5.872214821502132e-05
2
4800
Ar	-3.141973212987569e-06	2.480911562065401e-06	0.003222790336139277	-0.00013485963633048776	0.00015937896338360827	-2.6919769530474896e-05
Ar	1.4012524584745826e-06	-1.8270497761772478e-06	0.002741688753061896	-0.00021462665611874212	0.00010237507229010996	-2.916806056427449e-05
2
5000
Ar	-3.788469784530006e-06	3.6575906555822987e-06	0.0032231886253390957	1.3718056200329036e-05	5.2490034118852065e-05	0.00010225058195973749
Ar	-1.1349040944420607e-06	-5.308212040699527e-07	0.0027416229879117632	-0.00024146740791472038	0.00014495579434940765	2.266854236861148e-05
2
5200
Ar	-2.5890110749584795e-06	3.2867857921917506e-06	0.003224630485606262	0.00019382037692696047	-0.00011699371663920196	0.0001589222238787106
Ar	-3.0040991746655726e-06	9.145876194256933e-07	0.002742076809702764	-0.00011519392250224951	0.00015772588766053072	0.00010788041323937992
2
5400
Ar	4.1316371747355764e-08	1.592906493144263e-06	0.003226186179897426	0.0003365643543010416	-0.0002349325826439689	0.0001221618071024429
Ar	-3.4499975820617922e-06	2.1277102387510265e-06	0.0027435476250154815	4.433290283840522e-05	7.297155121380751e-05	0.00014959271922090214
2
5600
Ar	3.1919911759204796e-06	-1.020459856845171e-06	0.003226766184250088	0.00026414421336960677	-0.00025317378146878333	1.050964950092832e-05
Ar	-2.2183244789567225e-06	2.266627004239448e-06	0.0027449730382549395	0.00019324016907907917	-3.76267473060666e-05	0.00011169221164755208
2
5800
Ar	4.857002027171004e-06	-3.2300714983210923e-06	0.003226512969488086	4.2935997835166865e-05	-0.00017144091037699788	-5.7094884709352096e-05
Ar	1.3949024969291757e-07	1.7132400345918466e-06	0.002745398482875188	0.0002572886337359171	-8.16619030839193e-05	-4.073864546632193e-05
2
6000
Ar	3.9520552360242e-06	-4.182950275879711e-06	0.0032257791401136206	-0.00021036175704450922	-1.5516611075999936e-05	-8.624115833689262e-05
Ar	2.6738351504772043e-06	5.249714212098012e-07	0.0027443361906260995	0.00021713998629401001	-0.00013711302291974072	-0.00017526082216147667
2
6200
Ar	9.901475477702444e-07	-2.980925111967642e-06	0.0032246404811577018	-0.00035670356151152097	0.0002346284258948114	-0.00012226167281582977
Ar	4.2686417656405524e-06	-8.784172474789716e-07	0.002741968255679065	5.2450614806276975e-05	-0.0001080796456779891	-0.0002576076101047104
2
6400
Ar	-2.721582941299273e-06	-3.0815362872369785e-07	0.0032235079677978536	-0.0003566988449139133	0.0002685196910388062	-9.994743396955476e-05
Ar	3.819821562526803e-06	-1.570347052894657e-06	0.0027399305429267407	-0.00014068996998069732	-1.1069066293317888e-05	-0.00010919257515686421
2
6600
Ar	-5.449148279832332e-06	2.131151396009935e-06	0.0032227674719198765	-0.0001674060297337735	0.00021909672092585255	-3.758937429586192e-05
Ar	1.5575925953945575e-06	-1.4514388087584976e-06	0.0027399139743883986	-0.000304334213073549	6.326722967819607e-05	9.481523136480075e-05
2
6800
Ar	-5.789475250798322e-06	3.4820526182369638e-06	0.0032227911917278	7.361266326727837e-05	4.381093734369715e-05	3.731329995220204e-05
Ar	-1.218810544522658e-06	-6.950588115193351e-07	0.0027415077064779727	-0.00023291339006050187	8.950878857619188e-05	0.0001947830625394777
2
7000
Ar	-3.554180482467543e-06	3.1803275411538052e-06	0.0032239197350744917	0.0003440439281354438	-0.00012335237233039302	0.00016965960138744086
Ar	-3.0333845082885292e-06	1.2595133315430212e-07	0.002743560227148671	-0.00010426833215446298	9.001523637298371e-05	0.00020796414221739486
2
7200
Ar	4.046097460519395e-07	1.4829967400772463e-06	0.003225799402444372	0.0004150161639267551	-0.00021456035378375016	0.0001924955505700683
Ar	-3.3933703760321327e-06	1.0403646273025402e-06	0.0027451104348140943	2.5216399985919542e-05	8.74502019225497e-05	9.461172065434222e-05
2
7400
Ar	4.076797687199385e-06	-8.717929871889892e-07	0.0032275507020353093	0.00028843925390203165	-0.0002549096677308763	0.00012976093073954826
Ar	-2.3508710484031735e-06	1.72205835431378e-06	0.002745140501467045	0.00020722101967633242	2.2953860122581484e-05	-8.248654967514006e-05
2
7600
Ar	5.988151489245978e-06	-3.0867487559118576e-06	0.0032278003701853067	8.687773352210565e-05	-0.00017150960803444815	-7.82477060500524e-05
Ar	-1.8400342254337252e-08	1.5134948015735576e-06	0.0027439706912091803	0.00025503399502458995	-5.039872296446783e-05	-0.00013374143517968238
2
7800
Ar	5.3953339292045606e-06	-4.205742921121002e-06	0.0032261725053377194	-0.00020598576625858209	-2.5056150992862404e-05	-0.0002443020146498359
Ar	2.5393727004117197e-06	7.312392767449395e-07	0.002742502109153493	0.00021917920771478432	-0.00012261468657174957	-0.0001312610777229979
2
8000
Ar	2.0437725235278284e-06	-3.312488179662595e-06	0.0032234823656372576	-0.0004335946676437903	0.00018132707789561412	-0.00024358990186942563
Ar	3.836375587570818e-06	-2.9224625751013683e-07	0.0027414118738033205	3.839781177068761e-05	-0.00010254421527092298	-9.735761878198539e-05
2
8200
Ar	-2.6511399852105004e-06	-1.252524638675303e-06	0.0032217389392924876	-0.00044700372846696824	0.0002428902430773183	-6.781293131548257e-05
Ar	3.3617845964151895e-06	-1.068736980294027e-06	0.002740759591715696	-0.00013944056572381467	-5.530535763495128e-05	-2.481433620113679e-05
2
8400
Ar	-6.30838562911581e-06	1.1360044560872652e-06	0.0032221043204657394	-0.00025421173924798554	0.00022046878136778943	0.00014780054796320589
Ar	1.262772879877318e-06	-1.5414987597319176e-06	0.002741010193070294	-0.00026653813730103125	-3.3566120169312865e-05	8.402355316547394e-05
2
8600
Ar	-7.308226243247215e-06	2.9709760897966836e-06	0.003224115477617223	8.575948051851795e-05	0.0001379392863665731	0.00024921485837766267
Ar	-1.4612844340244409e-06	-1.267468969200066e-06	0.002742290207291445	-0.0002493401746842953	8.959929671369117e-05	0.00017250002158522606
2
8800
Ar	-4.909879223374271e-06	3.838751552779091e-06	0.003226556127009044	0.00037874049810709027	1.2658975529558151e-05	0.0002001883585668468
Ar	-3.6092516943019357e-06	5.24253345791437e-09	0.002743948029386372	-0.00015710945548165305	0.00013435601276928238	0.0001589042838366661
2
9000
Ar	-4.3758222010914823e-07	2.997964525134427e-06	0.003227718684940383	0.0005208006661605432	-0.00018288000805152043	1.4931067438202265e-05
Ar	-4.062813250862237e-06	1.098885178447422e-06	0.0027448131937154135	5.863240724271926e-05	5.938672835135101e-05	4.667223586681543e-05
2
9200
Ar	4.677541208833593e-06	4.803547079659229e-07	0.0032267811688608786	0.00045884889837495286	-0.00027576578217631636	-0.0001600160805268756
Ar	-2.5315829692686204e-06	1.2578978470089502e-06	0.0027447999267175096	0.00023148623559340303	-2.8905157405250457e-05	-4.5941506495478384e-05
2
9400
Ar	7.775146213039361e-06	-2.1624652356133487e-06	0.0032247932898144776	0.00013916160141399297	-0.00023544162292235896	-0.00022480936005861765
Ar	1.3145047172470852e-07	8.943664171795981e-07	0.0027438219603921903	0.0003042150037426528	-7.082070248058697e-05	-0.00014825429928898447
2
9600
Ar	7.168472997191927e-06	-3.642553741811693e-06	0.0032230062477216683	-0.00026396881921696873	-7.088429081463166e-05	-0.00011627854660043367
Ar	3.0287555832633693e-06	-1.1031511671410541e-07	0.0027419641359436313	0.00026089725865520994	-0.00012097902285591834	-0.000196086519557008
2
9800
Ar	2.610574708280961e-06	-3.6035176381497115e-06	0.0032226859924477476	-0.000596427062769368	8.338031683528363e-05	5.6823125757048764e-05
Ar	4.732406266285971e-06	-1.2414713459351754e-06	0.002740315966325234	5.3956815552733876e-05	-0.0001025928408252237	-0.00013011807183633856
2
10000
Ar	-3.4462220756627515e-06	-1.8042912811837698e-06	0.0032238444111246907	-0.0005748805724483516	0.00026444484828353333	0.00011735968157135742
Ar	4.134555642495406e-06	-2.0623184563216415e-06	0.002739877639623025	-0.0001808677862164686	-5.610684803846739e-05	5.538211424707476e-05
2
10200
Ar	-7.908841978219101e-06	1.3555018731247403e-06	0.003224978001448203	-0.0002793607910580602	0.00033930540412037435	8.288252115391741e-05
Ar	1.3515206709528252e-06	-2.095967145544768e-06	0.0027414743715314534	-0.0003487231222942293	5.5057661125092326e-05	0.00021726244877247637
2
10400
Ar	-8.657935917103143e-06	4.323864808133175e-06	0.003225320175695124	0.00012885179446527506	0.0002346637427914111	4.233006224976202e-06
Ar	-2.126564677436243e-06	-9.494604851544936e-07	0.002743823096769394	-0.0003167927124405123	0.00016423536239343047	0.0002497729252490004
2
10600
Ar	-5.479482167419821e-06	5.325627029454415e-06	0.0032253387056371667	0.00047666372147523974	-3.0155413784100237e-05	2.704615583482767e-05
Ar	-4.542771881149093e-06	7.23671277064882e-07	0.0027457442300684856	-0.00016314663221057371	0.00018059436019422626	0.00010901597082271559
2
10800
Ar	3.8054134871632847e-07	3.7094797084549955e-06	0.0032257776541029758	0.0006620663029124792	-0.00023878081861272048	6.18595606953559e-05
Ar	-4.925304199996394e-06	2.0306147905110948e-06	0.002745854644482711	9.290174869374652e-05	8.029946146601988e-05	-0.00011753148202269801
2
11000
Ar	6.7279850922305974e-06	6.377725779447914e-07	0.0032261640941460795	0.0005356747541461421	-0.00035223771007073456	-1.9223323488163118e-05
Ar	-3.178110720437575e-06	2.3931893712555544e-06	0.002743912487063347	0.0002448132201818561	-2.7128217138439782e-05	-0.00021955607690391508
2
11200
Ar	1.0128377833158896e-05	-2.7503966184262416e-06	0.0032252824427219553	0.00010270862467722743	-0.00030866281237943116	-0.00013631763777259442
Ar	-7.188737813949037e-08	1.6297888212389849e-06	0.0027417965498352194	0.00034892964989227546	-0.00012574543288724306	-0.00017697711464865343
2
11400
Ar	8.889483385552344e-06	-5.127314532391873e-06	0.0032238675011372927	-0.0003395026555986713	-0.00012769038310420054	-0.00012415375745445853
Ar	2.9592815680640965e-06	1.2926798361284576e-07	0.002740538764147955	0.00027000187919814237	-0.0001608553771210732	-4.232941105166689e-05
2
11600
Ar	3.6102003965561906e-06	-5.172372964740692e-06	0.003223054536527215	-0.0006594267495603186	0.00015017809246893274	-2.4135840422975453e-05
Ar	4.618894853311114e-06	-1.3802572710051578e-06	0.0027406621672690476	6.437958936175698e-05	-0.0001358722633101115	7.51062854860194e-05
2
11800
Ar	-3.3292651826789754e-06	-2.4393222677436327e-06	0.0032236353842850364	-0.0006663981150541514	0.000359840285651887	0.00010473732245404023
Ar	4.4273184757871885e-06	-2.5173504290519065e-06	0.0027418589506161915	-9.790204053895832e-05	-8.307115342672238e-05	0.00015830231717995432
2
12000
Ar	-8.80391653455957e-06	1.5335442685579576e-06	0.0032246751774176923	-0.00039150074825343694	0.00041612790887515067	0.00011231872899296742
Ar	2.553655353469478e-06	-2.718688074728752e-06	0.0027437407672780555	-0.0002608104630435049	5.213385500977635e-05	0.00018811184287433104
2
12200
Ar	-1.0422940126887337e-05	4.993191239978195e-06	0.003225746121618207	8.641713877356142e-05	0.00023153393318989192	0.00011247875162584222
Ar	-2.2603660573058002e-07	-1.3864597228163206e-06	0.002744989114886592	-0.00028954316041992476	0.00020029600076253222	6.087162656616372e-05
2
12400
Ar	-7.212974680657166e-06	5.8686281954992335e-06	0.0032263000680488566	0.0005315310620498628	-4.560062505534077e-05	9.530959235401297e-06
Ar	-3.126333483883817e-06	8.303345208100893e-07	0.002744832418908359	-0.0002601299556032569	0.00023865642666900114	-8.819560004864282e-05
2
12600
Ar	-7.177668197442188e-07	3.817926261007447e-06	0.0032260787450611524	0.0007433227032492656	-0.0003208869872570574	-4.6411240822189705e-05
Ar	-4.906878277022744e-06	2.9056490954076063e-06	0.0027433535297671408	-6.559770200584988e-05	0.00015021802986140974	-0.0001679341923964915
2
12800
Ar	6.45095519816812e-06	-1.0932409177125508e-07	0.003225065763528777	0.0006004117595952125	-0.0004225180607270014	-0.00015047554877260156
Ar	-4.054655151100658e-06	3.494290941653397e-06	0.0027419758205685005	0.00022123071639708176	-2.4095873654409348e-05	-8.67269347169197e-05
2
13000
Ar	1.0513797665932044e-05	-4.181414721740615e-06	0.0032234341669614515	0.00020717180644387766	-0.0003667736672999536	-0.00014298058029867995
Ar	-9.339845276054321e-07	2.464508103488854e-06	0.0027414735186609743	0.0003711273278109039	-0.00016549028967169713	-2.9539897657572983e-07
2
13200
Ar	1.015853041054832e-05	-6.8377103054148126e-06	0.003222689759572464	-0.0002795548446195973	-0.0001280278825106082	-1.7625929628509207e-05
Ar	2.7440764023889138e-06	3.0717801948060887e-07	0.002741983681102137	0.00035026791970746207	-0.0002485539781473343	7.937056200926463e-05
2
13400
Ar	5.336876345069621e-06	-6.462562831108696e-06	0.003223092107542994	-0.0006614453396290332	0.00020634886374112175	0.00010195908860276258
Ar	5.509717966004922e-06	-2.209495526982838e-06	0.002742535717020663	0.0001717164709561917	-0.00021863295412349404	1.9511299889386934e-05
2
13600
Ar	-2.2947657566884823e-06	-2.9765370301162816e-06	0.003224522473591122	-0.0007845478185002668	0.00047004820425908164	0.00018022671199360615
Ar	5.854947714714203e-06	-3.7637392140944008e-06	0.0027426603640787924	-9.934857975478274e-05	-8.877109600625996e-05	-7.684276001538901e-06
2
13800
Ar	-8.94595857328695e-06	2.453516854225758e-06	0.0032262827523442607	-0.000496857197048835	0.0005366323969857169	0.00016068043492080088
Ar	3.3270527285272182e-06	-3.7647903188503755e-06	0.00274260060227601	-0.0003617437265908523	0.0001002340400112191	1.7715735459168242e-05
2
14000
Ar	-1.1712317447532493e-05	6.81365492977733e-06	0.00322701749409449	4.5502687378550584e-06	0.00030479732398745887	-2.8101012009328987e-05
Ar	-1.0060693985958654e-06	-1.6709616637350733e-06	0.0027429139109772954	-0.00044349099606024275	0.0002830744679801687	2.1123299644599885e-05
2
14200
Ar	-8.810813161621826e-06	8.093417245054537e-06	0.0032259185533753208	0.0005650638857184212	-5.6848687979003006e-05	-0.00017854665546479742
Ar	-4.848904659162293e-06	1.3160683415724063e-06	0.0027433870929492094	-0.0002910125045891642	0.00029983128714770294	3.9862412469070155e-05
2
14400
Ar	-1.3717142329739984e-06	5.619232587073075e-06	0.0032240653845653985	0.0008427640391684458	-0.0004244863280824665	-0.00016868949839665532
Ar	-6.396395257636734e-06	3.665367371458643e-06	0.0027437027182095866	-1.3943139650097e-05	0.00016846744714822808	9.324984019956697e-06
2
14600
Ar	7.133249194715854e-06	4.492655247955675e-07	0.003223097337722921	0.0007801541796771832	-0.0005934816306300316	-3.069038622043574e-05
Ar	-4.9102406685298536e-06	4.227353391148553e-06	0.0027431707503766454	0.0002917232861425387	-8.00184685073658e-05	-0.00010614025980920542
2
14800
Ar	1.3114719340682e-05	-5.2886946529045545e-06	0.003223398660567308	0.0003318125541478244	-0.00048442285619337437	0.00011347913111793063
Ar	-9.012523972629729e-07	2.3792910563873117e-06	0.002742033824435109	0.000475705070648226	-0.0002620355364684201	-0.00011745356528120938
2
15000
Ar	1.3229442596944232e-05	-8.820417794550072e-06	0.0032249790801865074	-0.00029187466457781245	-0.0001723221150664732	0.00015735345641581052
Ar	3.911955235527523e-06	-4.3416970509820904e-07	0.0027412756469903377	0.0004429431485191626	-0.00029854164083515706	-4.2979365269257396e-05
2
15200
Ar	7.247269663625746e-06	-8.163373549674601e-06	0.00322603801748343	-0.0008469072890571322	0.0003165827143071575	7.538083594487651e-05
Ar	6.960317365389467e-06	-3.077099378424042e-06	0.0027416995843594456	0.00015053619784279583	-0.00019446775374709133	0.00011699117894105625
2
15400
Ar	-2.3160237505696287e-06	-3.5144608542524404e-06	0.0032260240496700208	-0.0009940490123180133	0.0005845276838535259	-8.025338232876e-05
Ar	6.574923514157828e-06	-4.426758092786063e-06	0.002743222514360482	-0.00021457075426597704	-5.3826950682311305e-05	0.00017034642923518896
2
15600
Ar	-1.1138391701672145e-05	2.516673388657652e-06	0.003224897537546575	-0.0006972273476982075	0.0006115072432031598	-0.00011359257015916477
Ar	2.8397501642761594e-06	-3.849664160178977e-06	0.0027445671711970386	-0.0005105070476649551	0.00018031850680716208	9.055590742335216e-05
2
15800
Ar	-1.5082869421657544e-05	7.666460313587351e-06	0.0032240149189077653	-3.726940179914987e-05	0.00036383113897096685	-3.304544670583205e-05
Ar	-2.5848877724045892e-06	-1.3402402279734795e-06	0.0027447845833175224	-0.0005195617653334077	0.000273752389453635	-4.759670482194633e-05
2
16000
Ar	-1.1760830924478e-05	9.248257705626929e-06	0.0032241139648178357	0.000677978537985361	-4.938855610422309e-05	3.637501536823844e-05
Ar	-6.843503233263958e-06	1.7136325669686546e-06	0.002743446185977364	-0.0003005466112436535	0.0003126169502642576	-0.00022614542157884266
2
16200
Ar	-2.63040632645821e-06	6.587439140833822e-06	0.0032244991900067348	0.0010699280729602769	-0.0004489681183338508	5.010099867175886e-05
Ar	-8.151516298411127e-06	4.478894529456748e-06	0.0027413288505045283	6.296042689903355e-05	0.00021695497951541994	-0.00017384623053850342
2
16400
Ar	8.32178909116888e-06	8.437527757231341e-07	0.0032247527725190544	0.0010255057330853803	-0.0006733407795343286	2.2867577440155475e-05
Ar	-5.938600553259591e-06	5.5340001333405964e-06	0.002740362554440896	0.00038538363456181547	-2.1016914450709274e-05	-1.1158427025240146e-05
2
16600
Ar	1.6183402738851878e-05	-5.6598520423369236e-06	0.003224592831722158	0.00047281434456568057	-0.0005733188976124488	-3.839177574438229e-05
Ar	-8.120979539936704e-07	3.891492995066341e-06	0.002741080728585301	0.0006018577740021249	-0.0002968981079500263	0.00014707534088787428
2
16800
Ar	1.670085865141709e-05	-9.654712564309615e-06	0.0032242330165393306	-0.000368358605703765	-0.00020036334576486217	-2.3634104759073098e-05
Ar	4.817552914622912e-06	5.954252216086448e-08	0.0027431337936157083	0.0004922444680186437	-0.0004452574011109327	0.00023316089431442297
2
17000
Ar	9.304752946928725e-06	-9.167881601194208e-06	0.003224086121659273	-0.001054308192729553	0.0002835707944102504	1.8857175083068295e-05
Ar	8.329294850936502e-06	-4.127915315839765e-06	0.002744985745466202	0.00018646584985931888	-0.0003398328690254656	0.0001278728112945849
2
17200
Ar	-2.7928098061357014e-06	-4.375364818050004e-06	0.003224774044399402	-0.0012705265306219115	0.0006412826580912284	0.00012561483510714974
Ar	8.11101834143103e-06	-6.3478390441404205e-06	0.0027453725571343185	-0.0002426770440699529	-7.327342019799595e-05	-6.872693783834448e-05
2
17400
Ar	-1.3953223014486218e-05	2.685226570699299e-06	0.003225924474444465	-0.0008833766097850959	0.0007100711430882647	5.950403650326043e-05
Ar	3.799155357568311e-06	-5.6699315079330565e-06	0.0027438921218210645	-0.000585232319237233	0.00022356497284609222	-0.00018523458826256824
2
17600
Ar	-1.9129920532864926e-05	8.59001893159643e-06	0.003226003696823061	-0.00010427529638862633	0.00041838584900488345	-9.29140197585639e-05
Ar	-2.69865609889248e-06	-2.163375714322831e-06	0.002742193367096697	-0.0006732272310152011	0.00046494228157611977	-0.00017406286023120054
2
17800
Ar	-1.5560887131619145e-05	1.0672355934673923e-05	0.003224453992723595	0.000763918651106083	-3.145050601015399e-05	-0.0001893765468111086
Ar	-8.135675703685303e-06	2.976170581061348e-06	0.0027410697917782316	-0.00038300656110596944	0.0005053164598557248	-6.686390949242602e-05
2
18000
Ar	-4.75305288948911e-06	7.866121531488089e-06	0.003222994394321799	0.00131080390153155	-0.000506797311374889	-8.301106506925793e-05
Ar	-9.86931591106441e-06	6.835048167586138e-06	0.0027409665245803896	6.667778758982861e-05	0.00026248267723871555	6.43069485366393e-05
2
18200
Ar	8.68583007924894e-06	9.735023337177069e-07	0.003222903934565006	0.0012954754003337008	-0.0008106021990982446	6.171620897786567e-05
Ar	-6.869402013974998e-06	7.746414501069398e-06	0.0027420223690673437	0.000503475233401135	-8.42722130413508e-05	0.00010801054389501766
2
18400
Ar	1.8628458880123666e-05	-6.975131760759564e-06	0.0032240918082836073	0.0006208178917262561	-0.000701469151135177	0.00017269789808666605
Ar	-3.4718107080738046e-07	5.126554437898188e-06	0.0027434175071734683	0.0007504174681321964	-0.0004151169517260163	0.0001469472440622771
2
18600
Ar	1.9941097366605224e-05	-1.2062126842603e-05	0.003225810912784347	-0.00037850353111001017	-0.0002489538214498645	0.00015657775781599393
Ar	6.6982962047703825e-06	1.2616337600524526e-07	0.0027443996331237928	0.000599239461832863	-0.0005437160844381512	4.131884905157955e-05
2
18800
Ar	1.1866657001700273e-05	-1.1490588640401025e-05	0.003227006013275549	-0.0011917492701130543	0.00037169602713711734	9.084177382449667e-05
Ar	1.0636991216146801e-05	-5.062087989505738e-06	0.002744185585057715	0.00014090837470381276	-0.00044047138499269496	-4.6994866808368414e-05
2
19000
Ar	-2.136551781672899e-06	-5.210928043261855e-06	0.0032269422145716122	-0.0014881439727729262	0.0008617419370460304	-9.885653728088572e-05
Ar	9.646894148048096e-06	-7.634569829963529e-06	0.002743278643613973	-0.0003421272327150442	-5.95463759585541e-05	-0.00011596582342745684
2
19200
Ar	-1.5368206685310643e-05	4.493702661769401e-06	0.0032251162407996043	-0.0010606702531943877	0.0009857992082322544	-0.00024150338692676096
Ar	4.03523806464657e-06	-6.2558307995186e-06	0.0027422452968244547	-0.0007253458988377419	0.00033575935966115024	-7.387454311632931e-05
2
19400
Ar	-2.1456975021441958e-05	1.2722992019592497e-05	0.00322271567501131	-0.00013209274730290586	0.000573236005728034	-0.00018975455992374378
Ar	-3.6267076079446832e-06	-1.7910552577365753e-06	0.002741799710685361	-0.0007386561518396852	0.000526046394910619	-2.1729327409854096e-05
2
19600
Ar	-1.7526090221363198e-05	1.5168569644183502e-05	0.003222030128747941	0.0008704671403730875	-0.00010729268463266293	5.61692276477873e-05
Ar	-9.613503338895041e-06	3.4201731096501982e-06	0.002741680132945487	-0.00042833948534291486	0.00048298819329115137	8.79795287660075e-07
2
19800
Ar	-5.231259236100652e-06	1.0686702511396358e-05	0.0032235216120746896	0.001477581330640117	-0.0007614097250102715	0.00019896060665981508
Ar	-1.128004326174508e-05	6.9681102865855146e-06	0.0027419386674158333	0.0001261489069620395	0.00019454356262880383	4.923207095202301e-05
2
20000
Ar	9.779662725068382e-06	9.109954758722736e-07	0.003225568871105477	0.00139674078434166	-0.0011016067609070776	0.00018541205950032804
Ar	-7.327053551745878e-06	7.159005935494319e-06	0.002742772359311637	0.0006339527295463081	-0.00015562263162631278	0.00010808636348185316
2
20200
Ar	2.0456957123988107e-05	-9.525774963332553e-06	0.00322666512703113	0.0006592123085213609	-0.0008776982509065873	2.589850260453182e-05
Ar	3.1086518193020504e-07	3.9377331484314125e-06	0.002743732202439577	0.000819998009805612	-0.00047255202534317504	8.073572601311419e-05
2
20400
Ar	2.1708298006131886e-05	-1.5519515261237955e-05	0.003226104180115948	-0.0004189772874577274	-0.00025627095012473096	-0.00012209418123127174
Ar	7.856732095875573e-06	-1.2192599704190333e-06	0.0027443055636405906	0.0006054800326842623	-0.000532883213606451	1.4102709144462207e-05
2
20600
Ar	1.2495325349399236e-05	-1.4188504152095957e-05	0.0032247452063444114	-0.001354174572358213	0.0005053826571009955	-0.00011094590307614348
Ar	1.146454946158329e-05	-5.947174808102959e-06	0.002744159866371719	0.00010578541806523914	-0.0003614165967912511	-6.559753942346065e-05
2
20800
Ar	-3.0848839745542077e-06	-6.236324458115628e-06	0.003223902148209616	-0.001641897559656435	0.0010124238211391674	-4.8553580476852526e-05
Ar	9.70282503013594e-06	-7.749496005825666e-06	0.002743168809608388	-0.00045027860324660374	-3.3796198523940357e-06	-0.00011830349053618061
2
21000
Ar	-1.769729624329443e-05	4.69407526277089e-06	0.0032236118422920364	-0.0011670436733274203	0.0010864851018258584	6.959576739720921e-06
Ar	3.5271082758182873e-06	-5.987302243750265e-06	0.0027421952877445714	-0.0007675814800914831	0.00031502252640995543	-5.463530142061124e-05
2
21200
Ar	-2.4307801212853302e-05	1.3867591519508703e-05	0.0032239780877347957	-0.00011362613040283018	0.0006558883426960083	5.849092270258277e-05
Ar	-4.679741933647639e-06	-1.4304586361525322e-06	0.00274221999121577	-0.0007872526601520437	0.0005496159968284357	4.019925234404782e-05
2
21400
Ar	-1.9580534486966617e-05	1.6863851703270462e-05	0.00322472918229053	0.001037803700334406	-9.09829184034541e-05	9.424102629362152e-05
Ar	-1.1084973282374595e-05	3.987183981914072e-06	0.0027428335763590743	-0.0004166643434407579	0.0004926224310446013	7.699250905570872e-05
2
21600
Ar	-5.422452412676489e-06	1.2034149253408466e-05	0.0032256539063745125	0.001680669227397202	-0.0008362526382237568	6.267086784122543e-05
Ar	-1.2449605315800716e-05	7.494282040985551e-06	0.0027435682722443087	0.00016704605684024896	0.00018161571518392306	4.487907668555141e-05
2
21800
Ar	1.1666084342468571e-05	1.5376251386341617e-06	0.003226019412853162	0.0015993534979843462	-0.0011753128088081047	1.214021478562887e-05
Ar	-8.041036553707321e-06	7.658127279148985e-06	0.002743787447495396	0.0006695264403703776	-0.00017672561017903	-9.313994053206466e-06
2
22000
Ar	2.360037123507018e-05	-9.766597922826037e-06	0.0032256331860873334	0.000692773568952746	-0.0009906592680562613	-9.124603511711539e-05
Ar	1.80335498273651e-07	4.187379589631542e-06	0.0027437296252766884	0.0008934614118421081	-0.0004916183014923546	1.3696595740152075e-05
2
22200
Ar	2.4356401150342147e-05	-1.666813199801467e-05	0.0032244577671402164	-0.0005584189692726717	-0.00034489787530462705	-0.00012791445507701995
Ar	8.453692049620262e-06	-1.4350469463577705e-06	0.002743631879184773	0.0006910577837424954	-0.0005908845979821068	-3.3886080209397535e-05
2
22400
Ar	1.3110993310214099e-05	-1.578034652658617e-05	0.0032232738980704514	-0.0015856609373689154	0.0005199470709806512	-8.989190477410245e-05
Ar	1.3018866568339375e-05	-6.575079297336771e-06	0.0027430606754094344	0.00017284166585196885	-0.0003932635588605651	-7.006607373812183e-05
2
22600
Ar	-4.731874290949553e-06	-7.058843599619004e-06	0.00322311233684258	-0.0018279995710262426	0.0011704138071027249	4.185346433475612e-05
Ar	1.1734446808117265e-05	-8.80531606058713e-06	0.0027422192816074316	-0.00042994821455140977	-3.280192420469883e-05	-9.459101293559825e-05
2
22800
Ar	-2.0719820645824762e-05	5.848367000248029e-06	0.0032239656552050045	-0.0012305456883714141	0.0012973916774717848	0.00011090180536286722
Ar	4.753092613012291e-06	-7.057596341447129e-06	0.002741554947539023	-0.0009039651980452384	0.000377225141237471	-8.4287244043164e-06
2
23000
Ar	-2.7335793528874478e-05	1.6484593816697098e-05	0.0032249732104025495	-3.1820157058899445e-05	0.0007462705628443726	6.079864118644269e-05
Ar	-4.866356997811637e-06	-1.8804236872185096e-06	0.002742173182738799	-0.0009449394177198013	0.000628986600404255	0.00012676544102538034
2
23200
Ar	-2.12021408731484e-05	1.955640505954821e-05	0.003225145621084114	0.001216136676188796	-0.00018195240766229775	-1.5823959841422425e-05
Ar	-1.245859554030706e-05	4.483326112139491e-06	0.002743691278084946	-0.0005101017532984838	0.0006062620975076785	0.0001328109513698188
2
23400
Ar	-4.712738024854834e-06	1.3007612674909112e-05	0.003224929069399767	0.0019592107239562616	-0.0010752864200208139	-1.7093427699475246e-05
Ar	-1.419229769756611e-05	8.91678609611132e-06	0.0027445145112457814	0.00016627163159168125	0.00023057487895768237	8.611081341231932e-06
2
23600
Ar	1.4902435773668123e-05	-7.40256507220462e-08	0.0032249032075716833	0.0018015969560921657	-0.0014415938068297663	3.006204892926711e-06
Ar	-9.18071208080852e-06	9.032213994748104e-06	0.0027438150708747762	0.0008067631982896387	-0.0002127928216252201	-0.00011267724934886948
2
23800
Ar	2.8126586719208897e-05	-1.3777848046048475e-05	0.0032249024726234542	0.0007201373523500639	-0.0011847550899909518	-1.7421921313655068e-05
Ar	5.930701655619989e-07	4.809032693060731e-06	0.0027427627551639437	0.0010651927720920463	-0.0005941490376221988	-0.00010303401243358073
2
24000
Ar	2.8291508070452735e-05	-2.1636444353022054e-05	0.0032245940140976895	-0.0007155080681315508	-0.0003450905992313118	-6.0680911585127216e-05
Ar	1.0456353058795122e-05	-1.7232787828286134e-06	0.002741900979319603	0.0008206640441147567	-0.0006892492958331796	-6.351437008289021e-05
2
24200
Ar	1.487890060958426e-05	-1.9771591068687136e-05	0.003223888852617252	-0.0018467018920751046	0.0007013872352407764	-6.876996698181868e-05
Ar	1.544783010082093e-05	-7.787021350364627e-06	0.0027416541620468365	0.00014912966185270512	-0.00046923947943460935	2.223699432527589e-05
2
24400
Ar	-6.100779499757222e-06	-8.335753847049267e-06	0.003223390961041486	-0.002182967525045216	0.0014772415163608282	-1.8935560158914195e-05
Ar	1.3374302820430477e-05	-1.0347997779486617e-05	0.0027421708776437714	-0.0005624422050563083	-2.6056220417631524e-05	7.582087173447939e-05
2
24600
Ar	-2.519865023663376e-05	7.4188998803598465e-06	0.003223675681975681	-0.0014688977508682856	0.0015528166353386645	6.11032091260464e-05
Ar	4.884293494611181e-06	-8.215096291184751e-06	0.002743004177978359	-0.0010768354458441905	0.0004293143774707746	8.645267522137898e-05
2
24800
Ar	-3.3022308923868714e-05	2.0050959615197888e-05	0.0032246126866793045	-1.5091743107384863e-05	0.0008754337827690765	9.932184079531483e-05
Ar	-6.2992760422005004e-06	-2.032543890633285e-06	0.0027436397518960523	-0.0010768196478097565	0.0007509378859334565	2.7273574920984844e-05
2
25000
Ar	-2.5333435125970133e-05	2.3325694918365047e-05	0.003225490778357784	0.0015000532745147476	-0.0002793508950249303	5.6588386624162496e-05
Ar	-1.4753173848786294e-05	5.287424767314036e-06	0.0027437222171336926	-0.0005534452755135757	0.000652874023766794	-1.088760919083731e-05
2
25200
Ar	-5.186128970831695e-06	1.5516823495919247e-05	0.003225843700711213	0.0023701083553059857	-0.0012508775476696092	1.6668663300195487e-05
Ar	-1.63167433323834e-05	9.931342155578159e-06	0.002743461332715224	0.00024782618217014	0.00024722450238779374	-2.6351016029100663e-05
2
25400
Ar	1.8367617456455887e-05	2.8374047366177244e-07	0.00322548930708968	0.0021440298787551238	-0.0016721507850879006	-7.850970318703069e-05
Ar	-9.832863500341151e-06	9.899450784753566e-06	0.002743276446426626	0.0009703466611041645	-0.00026169643791767636	-2.4025685370858004e-06
2
25600
Ar	3.375779068398747e-05	-1.5502946045722445e-05	0.003224392022576375	0.0008408285914186896	-0.0013358191195583968	-0.00010884587551822841
Ar	1.5376306697443034e-06	4.9452863658980085e-06	0.002743272770468049	0.001194562641904095	-0.0006790536834751402	-1.4929394791325515e-05
2
25800
Ar	3.3514014477818214e-05	-2.449136381548783e-05	0.0032233558838592634	-0.0008783022725504801	-0.0003764381476107831	-8.108700860302205e-05
Ar	1.2156061624026513e-05	-2.633849804259253e-06	0.002743024810987291	0.0008588870795653308	-0.0007728428397031124	-4.4853376174275146e-05
2
26000
Ar	1.7476488493641205e-05	-2.2106289739179777e-05	0.0032232535094006524	-0.002216430658224128	0.0008445742848553426	6.021605950029792e-05
Ar	1.7225069968907423e-05	-9.328737854310643e-06	0.0027425328788806473	9.019323175508208e-05	-0.0005110483591677461	-5.2145862901634366e-05
2
26200
Ar	-7.447652600099646e-06	-9.105566885708223e-06	0.003224363141850121	-0.0025587454577556215	0.001673252517394596	0.00014829907983662018
Ar	1.4086978020339e-05	-1.1961562670285159e-05	0.0027419019095097272	-0.0006786628190593962	-2.882019836357602e-07	-4.831462949269549e-05
2
26400
Ar	-2.9374404201427663e-05	8.687188005396946e-06	0.0032254126194812935	-0.0016701899533355911	0.0017411525801870734	3.4996560385713556e-05
Ar	4.072616206538283e-06	-8.883616204161537e-06	0.0027420395371299724	-0.0012145400997356029	0.0005757147724082458	7.649750299037398e-05
2
26600
Ar	-3.7910530355070585e-05	2.308292003864529e-05	0.0032248688549518026	2.2746588894117863e-05	0.0010069640294336924	-0.00012856227862759694
Ar	-8.357799911679075e-06	-1.5154048731438884e-06	0.002743311107355982	-0.0011559670338981657	0.0008614383956335905	0.0001384650064440074
2
26800
Ar	-2.8568959030818774e-05	2.707913903712088e-05	0.003223819534669164	0.0017540288987291715	-0.0002499392152863492	-6.302891319607507e-05
Ar	-1.7083437067665587e-05	6.852914781577556e-06	0.0027444989848568343	-0.000538818264524876	0.0007555587728324145	6.591528979958462e-05
2
27000
Ar	-5.539827141162876e-06	1.848970719366507e-05	0.0032237770681873097	0.0026709638430195757	-0.0014018003138060412	5.436844148072743e-05
Ar	-1.833259820868719e-05	1.2309854021763871e-05	0.0027444963292088415	0.00033716323115454345	0.0002947347807226866	-5.772541877937261e-05
2
27200
Ar	2.0875966514554214e-05	7.286190254847934e-07	0.003224737517040933	0.0023731301580062953	-0.0019905727881152557	0.00010852886477303534
Ar	-1.0854452323012087e-05	1.2125329359345529e-05	0.0027435867879961147	0.001094524859067686	-0.0003316313706521443	-9.64320464996677e-05
2
27400
Ar	3.8278286998855076e-05	-1.7878862599939557e-05	0.0032256541949587823	0.0009184621289743874	-0.0015895152938008052	2.4962034428904873e-05
Ar	2.2368010594669816e-06	6.132993667639113e-06	0.002742563871065678	0.0013970276641765368	-0.0008066770804093104	-6.43000307020952e-05
2
27600
Ar	3.7619422462421654e-05	-2.805322714517861e-05	0.0032252832344576614	-0.0010384682455681798	-0.00037186145205208914	-9.811375825585199e-05
Ar	1.463518711836368e-05	-3.028587673258233e-06	0.0027423309596469633	0.0010135455094427875	-0.0009330563373188945	1.1352198548102827e-05
2
27800
Ar	1.889138608026571e-05	-2.4685544921839102e-05	0.0032243180723513618	-0.002570251318129362	0.0010074409644900684	-0.00010335562925790308
Ar	2.065094442813623e-05	-1.1369605465606826e-05	0.002742435366979432	0.00015392954329800847	-0.0006447462454338178	3.654812908981361e-06
2
28000
Ar	-9.764941839066473e-06	-9.674250977956373e-06	0.003223787597626605	-0.0029376422199572576	0.0018722882396533355	-2.294476886629053e-05
Ar	1.7109930765059042e-05	-1.48458849843134e-05	0.002742637584660906	-0.0008431570126475057	4.7366164464383305e-06	6.14254546097592e-06
2
28200
Ar	-3.500045709992047e-05	1.0031834673899288e-05	0.003223889132379354	-0.0018920229380781871	0.001909201595714867	4.955530084509502e-05
Ar	5.20759386585227e-06	-1.1442905396495742e-05	0.0027430102057203858	-0.0014203991474330052	0.0006526506696002952	8.117539521730773e-05
2
28400
Ar	-4.452339339976011e-05	2.55398622343501e-05	0.0032240824648039094	8.28630861611934e-05	0.0010557930736291308	3.369654180366088e-05
Ar	-9.366712663551385e-06	-2.6851410871350357e-06	0.0027439281249334725	-0.0014021267709351745	0.0010280748069373222	0.00010101742548479265
2
28600
Ar	-3.3231776776433866e-05	2.943535958694419e-05	0.003224267792423939	0.002084868255002187	-0.0003124785029248251	4.931972006158548e-05
Ar	-2.00560393549969e-05	7.5953507831707805e-06	0.00274449200220213	-0.0006440870960326164	0.0009286810635459925	5.304629607828716e-06
2
28800
Ar	-6.061461654399029e-06	1.9517798855477397e-05	0.00322502934795335	0.003142022680753328	-0.001609332750876224	0.00011066261414605461
Ar	-2.1452135638761955e-05	1.4482097726835684e-05	0.0027438718029969503	0.00038134762301803054	0.00039741263898935224	-0.00010953256576821554
2
29000
Ar	2.4677629787020204e-05	-1.6804202641453907e-07	0.0032258993497444525	0.002763796372080397	-0.002195394950324627	2.4809397525462857e-05
Ar	-1.2926923402576789e-05	1.4553872762420165e-05	0.002742880358961669	0.0012527079575058648	-0.00034731299449282003	-9.402987721560699e-05
2
29200
Ar	4.46035545001659e-05	-2.0788119920334925e-05	0.0032250634203081783	0.0010579251207871565	-0.0017329943834453127	-0.00016148632750844467
Ar	2.057524275026517e-06	7.803339682346192e-06	0.0027423013546726337	0.0016410140982157987	-0.0009684636425423164	2.1149599003014826e-06
2
29400
Ar	4.385847958599481e-05	-3.193971414341932e-05	0.003223121531839322	-0.001217296347798228	-0.00041556871040408864	-0.0002102369203616364
Ar	1.6675794986884742e-05	-3.2821710800800656e-06	0.0027429515728785835	0.0011581412983335106	-0.0011326413027113996	8.441433633870572e-05
2
29600
Ar	2.2097316973468888e-05	-2.830704476176413e-05	0.0032221218447989032	-0.0029483990173178173	0.0011270787388837778	1.066899012455426e-05
Ar	2.3585900517961447e-05	-1.3122219770418722e-05	0.0027437382229928667	0.000140929744519934	-0.0007450384413295349	4.295996096771204e-05
2
29800
Ar	-1.0834090661302411e-05	-1.0961510898944397e-05	0.0032232991879503413	-0.0033690538147345527	0.002201447730383243	0.0001838043299638975
Ar	1.957978472372905e-05	-1.6786353579296875e-05	0.0027434469377362607	-0.0009144752722608953	4.4267182315785985e-05	-8.013047046050244e-05
2
30000
Ar	-3.9705559639109767e-05	1.237185224232769e-05	0.0032252127598050586	-0.0021621256665191615	0.002263754524323384	0.00015975970649400708
Ar	6.490824229613192e-06	-1.2464424325973236e-05	0.0027424983464893944	-0.001619040610942172	0.0007865136004231558	-7.734149985236251e-05
2
30200
Ar	-5.03904143299799e-05	3.0407070777516852e-05	0.003225943895864372	0.00011894655055213117	0.0011957241051981516	-2.4080051780880005e-05
Ar	-1.0340233073531537e-05	-2.321898410352555e-06	0.00274248146049547	-0.0015918467977391936	0.0011953386879726491	6.681440028326687e-05
2
30400
Ar	-3.7280456307912234e-05	3.43723512512831e-05	0.003224992659304746	0.0024176413500667836	-0.00044081649413192496	-0.00013671946152668855
Ar	-2.269405113201122e-05	9.459693074098752e-06	0.002743515283950719	-0.0007586011952622695	0.001040256332497772	0.00011776834803966001
2
30600
Ar	-5.832413171715727e-06	2.205959210270573e-05	0.0032238267635571103	0.0036278751216014056	-0.0019170003323841422	-7.573462628038673e-05
Ar	-2.4264853065217725e-05	1.6901556580845902e-05	0.002744331539554043	0.00047030521112114543	0.000374982709996192	2.960052530395907e-05
2
30800
Ar	2.9575644328508144e-05	-1.2477616730724678e-06	0.003223575223522339	0.003156712404912827	-0.0025478209990768873	1.6758457454485744e-06
Ar	-1.3996663591235158e-05	1.6403143875526156e-05	0.002743960263560711	0.001504830100658889	-0.00048694563865016196	-7.254091746697672e-05
2
31000
Ar	5.1859424834933514e-05	-2.4869532876164193e-05	0.0032237744744534084	0.0011116034594831502	-0.001939260687045043	1.9497521052309663e-05
Ar	3.7970753181209123e-06	7.840215447843423e-06	0.0027431102266686287	0.0018891269680407037	-0.001142046192609787	-4.727578082705329e-05
2
31200
Ar	5.0047689066742464e-05	-3.7170783133590594e-05	0.0032241438882916053	-0.0014833411722463686	-0.0003847180832177228	4.198300362852416e-05
Ar	2.0399891083005705e-05	-4.552122221311146e-06	0.002742989200553107	0.0012846153746748814	-0.001226079744952858	-6.380522250639639e-06
2
31400
Ar	2.4284462787148745e-05	-3.1943267432462184e-05	0.0032248143948467685	-0.0034607626986168983	0.0013718588100670634	7.882410690145029e-05
Ar	2.7453719427602554e-05	-1.4708435662295423e-05	0.0027430527946758283	5.5161484124053884e-05	-0.0007124070389983673	9.779185388273284e-06
2
31600
Ar	-1.4124718591322294e-05	-1.1564920912238116e-05	0.0032253663105734874	-0.003908816712101975	0.0025402289828348776	1.4588898950831747e-05
Ar	2.13368202697893e-05	-1.797205366676937e-05	0.0027428196658187323	-0.0012380859281393383	0.00011298303961768196	-4.296075828082008e-05
2
31800
Ar	-4.721050594348459e-05	1.4979154972639683e-05	0.0032248026730215605	-0.002425902508306968	0.002563682107732383	-0.0001273413876362409
Ar	4.769705762875259e-06	-1.245609336490052e-05	0.0027427849062721167	-0.0019550110276495107	0.0009610515801162995	2.9301847450401028e-05
2
32000
Ar	-5.868325268001027e-05	3.5311388972569264e-05	0.0032233075601928876	0.00022954341052563738	0.001350108401166787	-0.00013860179117425816
Ar	-1.4950094130574692e-05	-5.498197770097656e-07	0.002743622597510588	-0.0018212494121133264	0.0013339760721071412	0.00011352188829686666
2
32200
Ar	-4.253022672085577e-05	3.9438692242790147e-05	0.003222359204882394	0.0029040583732881957	-0.0005659419644883806	-1.695870583021236e-05
Ar	-2.8183472152219263e-05	1.193018447863413e-05	0.0027445849740761123	-0.0007279810418438607	0.0010554619801265118	6.852819630582772e-05
2
32400
Ar	-5.136499579079313e-06	2.510469514286936e-05	0.0032234809044689315	0.004278720925730302	-0.002205749582095547	0.00023396981608293874
Ar	-2.8195205455417253e-05	1.8898164277966817e-05	0.002744298027769808	0.0007529519973340823	0.00029682587780800913	-0.00011642320987517406
2
32600
Ar	3.5881583170712754e-05	-1.4600027017558087e-06	0.0032259381929139975	0.0036027954627272864	-0.002885665270820969	0.00018322233639999093
Ar	-1.4761174198971582e-05	1.7124290551247603e-05	0.0027427528554091656	0.001826222342884376	-0.0006218269925794143	-0.00013585332524129517
2
32800
Ar	6.107440979916431e-05	-2.7812762444448825e-05	0.0032262967733669157	0.001205797770586289	-0.0021702485786151706	-0.00011274873813755387
Ar	5.8219735418865555e-06	7.235045024559191e-06	0.002742243874294113	0.0021384465884973862	-0.0013040623317543242	4.28032446200355e-05
2
33000
Ar	5.784523853043593e-05	-4.130550643263133e-05	0.0032243107585649355	-0.0018468456200626104	-0.00041348668436962615	-0.00023590959556579578
Ar	2.4432612616860038e-05	-6.65886663880611e-06	0.0027433955323761033	0.001412482980356598	-0.0013573319029495405	0.0001666501266847886
2
33200
Ar	2.672373368547471e-05	-3.5177449023823886e-05	0.0032223583303797195	-0.004155014701997025	0.0015791595635015789	-0.00011408684773089444
Ar	3.173825453419176e-05	-1.7891585894417365e-05	0.0027447151157558095	-1.9633734560567835e-05	-0.0008006605996097476	5.333852273643495e-05
2
33400
Ar	-1.834736053616527e-05	-1.2117771602776052e-05	0.003222532521657969	-0.004499461492265097	0.0028233879832495756	0.00012040341497742548
Ar	2.4109463857915314e-05	-2.0918664084879337e-05	0.002744539776714635	-0.0014605390036672898	0.00022420039656590373	-7.968428532412066e-05
2
33600
Ar	-5.631752825332102e-05	1.7220065069642784e-05	0.003224162970901709	-0.002751678324869249	0.002789031142132608	0.00016660853592064096
Ar	4.946655322395564e-06	-1.3847359141132823e-05	0.0027437005150678364	-0.0022299778189157947	0.0011232019098349516	-8.417804706289035e-05
2
33800
Ar	-6.841768557731949e-05	3.910438347464937e-05	0.0032250801512824774	0.00042626297261371435	0.001418761209896618	2.693309737162987e-05
Ar	-1.7011551627778493e-05	4.1776478636327734e-08	0.0027432528234596545	-0.0020025224560394706	0.0015357542614460734	4.0336260461506605e-06
2
34000
Ar	-4.805925047647109e-05	4.291591728848736e-05	0.003224716353375428	0.003509822392535429	-0.0006917711522056377	-7.149734269932673e-05
Ar	-3.178023983140594e-05	1.4482686049491072e-05	0.0027436581988542746	-0.0008173475119164703	0.0012155619052946502	4.409048110063617e-05
2
34200
Ar	-3.538758809171369e-06	2.6172232370469888e-05	0.0032244293727740608	0.005032787938411591	-0.002536442542144863	-1.470291954435937e-05
Ar	-3.1925016338138054e-05	2.2440243531275758e-05	0.0027438771757859457	0.0007933651796639224	0.00030460904274610045	-2.206081753718315e-05
2
34400
Ar	4.4296678923259514e-05	-3.6758418265893735e-06	0.0032244925364126203	0.004147118288585531	-0.003201275097625141	-9.345842242250348e-06
Ar	-1.6926128525232202e-05	1.9832149342738536e-05	0.0027436078891406594	0.0020835776787932227	-0.0008006363852096763	-2.473170079601263e-05
2
34600
Ar	7.220226589261561e-05	-3.261427112440364e-05	0.0032238014889522603	0.0012003658404760912	-0.002353809785983501	-0.00011405825331954012
Ar	6.625634817772859e-06	7.547193343288793e-06	0.0027438364295872234	0.002438278625911948	-0.0015781302187439206	6.754245039010237e-05
2
34800
Ar	6.635974336965495e-05	-4.666513555987744e-05	0.0032225189216970496	-0.0023486161119737935	-0.0003391559517200534	-0.00010825429996012056
Ar	2.778415452626887e-05	-9.0141355870309e-06	0.002744798101910626	0.0016189296121661932	-0.001610135228600182	8.577282497088966e-05
2
35000
Ar	2.8597005627703023e-05	-3.859631094523746e-05	0.0032227477897753868	-0.004889486006041988	0.0018976589979673312	0.00014733702815135954
Ar	3.636375570134742e-05	-2.1902357992601114e-05	0.002744857441173694	1.5497805549705663e-06	-0.0008675555692591564	-9.31484649701108e-05
2
35200
Ar	-2.407877437338997e-05	-1.161516884102602e-05	0.0032247949038674466	-0.005175776310963865	0.0032734815631889416	0.00020171622379622393
Ar	2.7710328445723117e-05	-2.479069375493114e-05	0.002743351412080895	-0.001648536858219647	0.0003117150246557623	-0.00018036761624911076
2
35400
Ar	-6.664978020282274e-05	2.1935605404635863e-05	0.003225705409397765	-0.0029651120668721274	0.0031448645324292654	-4.13456269199993e-05
Ar	5.571425667678626e-06	-1.5973345710342814e-05	0.0027420759006728766	-0.0025954750567851515	0.001385641113514498	-4.871402616958244e-06
2
35600
Ar	-7.832533895446663e-05	4.603444595909022e-05	0.003224026985922945	0.0007265218037183848	0.0014694492081878115	-0.00025450422396783756
Ar	-1.9939531184016135e-05	9.223688860160746e-07	0.0027436030295377467	-0.002308875526786206	0.0018332284010045207	0.0002681968733770507
2
35800
Ar	-5.2665222317353666e-05	4.855069393675174e-05	0.0032221023733757246	0.004205970067023428	-0.0009732779397126268	-8.12006203146709e-05
Ar	-3.686581700057877e-05	1.7394911058836903e-05	0.0027460473741160183	-0.0008992231823323125	0.0013092346556704746	0.00018086057502252002
2
36000
Ar	-7.562378649650862e-07	2.7882964797603623e-05	0.0032227931990562782	0.005766969210202366	-0.002984079971918136	0.00020093261985199484
Ar	-3.6415623732790904e-05	2.5676580821989042e-05	0.0027463954731482593	0.0009899105289073958	0.0002588264677919963	-0.00011299837120440293
2
36200
Ar	5.3229946053962933e-05	-6.9351653363794205e-06	0.003224764622472974	0.004606526501697467	-0.0036821385896544452	0.0001411310698037217
Ar	-1.8635544671187788e-05	2.220194404159929e-05	0.0027443780067668796	0.002443244490011063	-0.0009337771444353164	-0.00021769770538967605
2
36400
Ar	8.372897591936618e-05	-3.953204158779905e-05	0.0032250136091722626	0.0012189066601397166	-0.0025478972458293355	-0.0001178853627683511
Ar	8.781926294871984e-06	7.929589634049433e-06	0.00274290253483359	0.002809016612733563	-0.001802355940942292	-2.9097318956293163e-05
2
36600
Ar	7.51104670489414e-05	-5.388877320281246e-05	0.0032226803167564335	-0.0028682344654967114	-0.00018137703203729036	-0.0002785387549180309
Ar	3.299805124035178e-05	-1.0852959374565666e-05	0.0027438569637994866	0.0018210550307455828	-0.0017924107593692991	0.0001929700427838691
2
36800
Ar	3.0381899713583684e-05	-4.268082643164495e-05	0.0032211129639949433	-0.005754893646936761	0.0023450783239108127	2.9051085446042755e-05
Ar	4.2192393180205176e-05	-2.5034554321123255e-05	0.0027453414416011125	-8.849488510239521e-05	-0.0009180290824467241	7.295574855159072e-05
2
37000
Ar	-3.0487004447565503e-05	-1.0641182706499424e-05	0.0032229473325625277	-0.005925805487343423	0.003825384138804942	0.00028676047606775764
Ar	3.127800387174922e-05	-2.7825397303359207e-05	0.002745034812471764	-0.002019483754606635	0.0003759745224008988	-9.16030147193725e-05
2
37200
Ar	-7.836729180092425e-05	2.758286298581931e-05	0.0032252248587221065	-0.0032507530470973025	0.003504650503857227	0.00012341004975578054
Ar	4.796024593775119e-06	-1.7677398060583702e-05	0.002744327159377932	-0.003056366951754334	0.0015859306171704766	-3.109525681916691e-06
2
37400
Ar	-9.025028136797773e-05	5.384956940236497e-05	0.0032248708839058924	0.0010090613246083206	0.0015023408056203578	-0.0001636017312166713
Ar	-2.508345519866675e-05	1.507544848173319e-06	0.0027449664322023596	-0.0026565708309009835	0.002068230593894942	0.00010246470890576359
2
37600
Ar	-5.9199729328650926e-05	5.5174914774552695e-05	0.003223046209651402	0.004982124426576764	-0.0012681691454671526	-0.00014762996849762916
Ar	-4.406016880263286e-05	2.051194476676329e-05	0.002745766983279422	-0.0009580384652561931	0.0015546741398716401	1.1208640256164003e-05
2
37800
Ar	1.4106538564513324e-06	3.0435599254890728e-05	0.003222809045506599	0.00666048318749164	-0.003521061696707307	8.981084655971975e-05
Ar	-4.2661867256797664e-05	3.0152632955776244e-05	0.00274481614348203	0.0012693228048216102	0.0002868656748666069	-0.00016353689247451257
2
38000
Ar	6.360187504590202e-05	-9.791752072568494e-06	0.003223800257080464	0.005257369722979557	-0.0041965804331149685	5.231740875435501e-05
Ar	-2.0576827554765445e-05	2.562218434848096e-05	0.0027432705653584705	0.002977243469336332	-0.0011578516865043314	-9.252792559107345e-05
2
38200
Ar	9.739029682058915e-05	-4.657976724045734e-05	0.003223233535317946	0.0011936245337611875	-0.002825248241846375	-0.0001700724222870656
Ar	1.229466060281656e-05	8.642584543598609e-06	0.0027434583640117277	0.0033151683371983494	-0.0021015063940721976	0.00015893266705706947
2
38400
Ar	8.515468617149619e-05	-6.203267646902727e-05	0.0032212886305257164	-0.0035242632312843945	-0.0001148833128730756	-0.00016471907476448136
Ar	4.0118366720430015e-05	-1.30753351460988e-05	0.0027456741478912743	0.002024352328508886	-0.002041978696690501	0.00022069190047763621
2
38600
Ar	3.1932181999427626e-05	-4.8412476169037444e-05	0.003221418756511444	-0.00671007858243247	0.0027531809001250644	0.0001993672670504117
Ar	4.9534501555966413e-05	-2.8759038836156456e-05	0.002746500117489808	-0.00024030081044188698	-0.0009802427209072851	-7.322624044168924e-05
2
38800
Ar	-3.854575095556677e-05	-1.1276055068714668e-05	0.0032243960075905836	-0.006785188025216459	0.00439569393731699	0.00030988492107992567
Ar	3.562942512411749e-05	-3.125158073854104e-05	0.0027447908155739478	-0.002442201610736264	0.0005301041822530875	-0.00019613374543244307
2
39000
Ar	-9.267607945727993e-05	3.24694152045623e-05	0.0032260317901514806	-0.003571133936242919	0.003982295247988251	-5.428932783814066e-05
Ar	4.1793774032714e-06	-1.8798128561037465e-05	0.0027437155202880035	-0.003600099080740219	0.0018630570079135502	4.445357109369125e-05
2
39200
Ar	-0.0001036803668295088	6.173973153177766e-05	0.0032234428119741077	0.0014639642070376302	0.0016129959989281603	-0.00040324343548359945
Ar	-3.073945867797172e-05	3.3255848811578997e-06	0.0027454704590610594	-0.0030868479302290086	0.0023829717174077905	0.0002838901040150644
2
39400
Ar	-6.512285094382361e-05	6.209661801601496e-05	0.003219735467091917	0.005951416474407653	-0.0015360523220361987	-0.00021632977671796
Ar	-5.2394085861324114e-05	2.4553580485522176e-05	0.0027477392880959637	-0.001042108468075071	0.001678697239593854	8.163812283147292e-05
2
39600
Ar	6.150267546615255e-06	3.2876852036134994e-05	0.003220525630286792	0.007744649276412764	-0.004097363496025674	0.00033286156734870734
Ar	-4.965092208339425e-05	3.427688204650444e-05	0.0027466405522700047	0.0015609130382970597	0.000206313866703984	-0.00027207077370546327
2
39800
Ar	7.718052420879237e-05	-1.3324523652721743e-05	0.003224229222207322	0.005854334468340683	-0.004782850347203602	0.0002859293556418566
Ar	-2.312326964799212e-05	2.802710350265545e-05	0.0027438416913931917	0.003502049631922741	-0.0014215273229845342	-0.00019118890848379434
2
40000
Ar	0.00011337182845525383	-5.465103422451458e-05	0.003224978943570559	0.0010275992975896492	-0.003117276186675492	-0.00016469191897127092
Ar	1.5471136734060172e-05	7.955692044239759e-06	0.0027436447770340824	0.0038992513155041873	-0.002434388924093725	0.00018622239211303501
2
40200
Ar	9.569749140057067e-05	-7.030908470625767e-05	0.003222176330664198	-0.004428656092247929	0.00012435471335269047	-0.0003100862487066744
Ar	4.844898038978581e-05	-1.6739499200706512e-05	0.002746503069943664	0.002392173498461027	-0.00227133112522654	0.0002900401474021905
2
40400
Ar	3.137237957976446e-05	-5.240132209492119e-05	0.0032206061096315373	-0.007936148227756224	0.0033350158763740885	4.8465477727767865e-05
Ar	5.903394287351898e-05	-3.380306753244056e-05	0.0027476563822105473	-0.00035160238858478535	-0.0009817980902117223	-8.081789626240611e-05
2
40600
Ar	-5.070121189692627e-05	-8.42600747181435e-06	0.003222648503078132	-0.0077811882889587255	0.005084907383389436	0.00026481273104703195
Ar	4.1716357942225466e-05	-3.490704897244011e-05	0.0027455811731686578	-0.0029780323691532707	0.0007827658085899758	-0.00025993895159749777
2
40800
Ar	-0.00011127991530474879	4.11052504294203e-05	0.00322389206236072	-0.0038041917903995776	0.004396476035847447	-8.015635756600424e-05
Ar	3.906301745871811e-06	-1.92245925559179e-05	0.0027443933613547234	-0.0042688160632492434	0.0022304428220468677	5.3350471718801555e-05
2
41000
Ar	-0.00012001600541882553	7.216934994238936e-05	0.0032212835011887855	0.002117727178840045	0.0015565266595911208	-0.00035139587108109344
Ar	-3.714747857131182e-05	6.1852412372033346e-06	0.0027468267825449706	-0.003580434823680367	0.0026305304435508266	0.00033854172009325416
2
41200
Ar	-7.151441292874992e-05	6.948101265240558e-05	0.0032188025826843914	0.007193626281220674	-0.0020887358506580596	-3.157988643090841e-05
Ar	-6.144429585673175e-05	2.9271717120382328e-05	0.0027491948977014335	-0.0010716739772285875	0.0017940207063984156	3.594675753987061e-05
2
41400
Ar	1.2822129036452711e-05	3.355023153552585e-05	0.0032213682702065096	0.00901303873110428	-0.004822417918472609	0.0004614975782635881
Ar	-5.686055931441828e-05	3.881223501274085e-05	0.002747181714188298	0.0019802819995371193	6.201067989416035e-05	-0.0003729971408517003
2
41600
Ar	9.398241752577559e-05	-1.9482377001908486e-05	0.003225702663545526	0.0064912659987503615	-0.005348613371604536	0.0002500616053196688
Ar	-2.46815853816923e-05	2.9975756960950027e-05	0.0027438430723100296	0.004232012445887023	-0.0017568651518412148	-0.00018219025987507674
2
41800
Ar	0.00013155062024350697	-6.434251867287437e-05	0.003224613944550986	0.0007006650492851156	-0.00322732330975865	-0.0004494006025608931
Ar	2.0956797235481293e-05	6.3156380655798386e-06	0.0027447040995937444	0.004540731273461638	-0.0027961459953382483	0.00031913828727567277
2
42000
Ar	0.00010661272023456219	-7.875144312850795e-05	0.003218940258494267	-0.005517814554285011	0.00046516286258779224	-0.000515381568675995
Ar	5.804632501300671e-05	-2.1278353236587037e-05	0.002748361247191726	0.002563439538107093	-0.0024824260693838045	0.00029850510465976747
2
42200
Ar	2.9446325153540044e-05	-5.550547599895333e-05	0.0032168921244231825	-0.009306080754958512	0.0040154905159444036	0.00017171730826541018
Ar	6.777299950985497e-05	-3.9314973091590525e-05	0.0027488388339716014	-0.0006853953112001418	-0.0009527491142183919	-0.00022129897377118473
2
42400
Ar	-6.48855621764476e-05	-4.582747666999664e-06	0.0032211747647543417	-0.008763343351006658	0.0057696116183693375	0.000532423123863257
Ar	4.5318913346817e-05	-3.874258665888666e-05	0.0027452273271648133	-0.003646216947700676	0.0010751952067634052	-0.00036490680381358396
2
42600
Ar	-0.00013089538999737534	5.026743378683222e-05	0.003224478213943548	-0.0038610030163047336	0.004719649067835777	2.38915290016911e-05
Ar	1.6536852903986567e-07	-1.940057575129143e-05	0.0027435978412873843	-0.005019725715757361	0.0026403907013386736	9.690449064261088e-05
2
42800
Ar	-0.00013536732432740348	8.198085334021033e-05	0.0032221100188024555	0.0030045684088255936	0.0013801541402589086	-0.00040774119894270995
Ar	-4.6892392679921136e-05	9.581327322905263e-06	0.0027469350432495856	-0.003988920355822677	0.002937352280964521	0.0004718455253390995
2
43000
Ar	-7.524650118779754e-05	7.557062612468618e-05	0.0032189066566431115	0.008558290975763178	-0.002629384787357822	-0.0001104643727654694
Ar	-7.25167796710321e-05	3.450740139101287e-05	0.0027504396977779373	-0.0009276555648771771	0.001829341589092185	0.00010746792166487046
2
43200
Ar	2.266754234504921e-05	3.287473401416633e-05	0.0032209216671366912	0.010250276785228725	-0.005596819656154031	0.00043770461573297776
Ar	-6.374738563172815e-05	4.338788287535952e-05	0.0027485206954743794	0.002605552381034826	-0.00013602593469468492	-0.00040577192487357267
2
43400
Ar	0.00011310093793986335	-2.7264812346737683e-05	0.003224432787204589	0.007039725826880188	-0.005906792886154664	0.00011203781156321564
Ar	-2.4289694527423092e-05	3.198979584961051e-05	0.0027447345298467255	0.0049941670980879855	-0.002073257037381067	-0.00020518073310015603
2
43600
Ar	0.00015110529513986728	-7.551581596919617e-05	0.003221872403835355	0.00022078959935845608	-0.00333323506044845	-0.0005817473526075342
Ar	2.8327032766320397e-05	4.763862736828667e-06	0.002745791052719459	0.005093417298221761	-0.0031465172978866747	0.0003805419868639493
2
43800
Ar	0.00011711559351100443	-8.855542410751755e-05	0.0032157806432083847	-0.006749902104357729	0.0008426082730480298	-0.00043885880010905673
Ar	6.896136658595142e-05	-2.579069940239777e-05	0.0027501807634717594	0.0026719027554188163	-0.0026930844152221155	0.00033279135881967816
2
44000
Ar	2.60396229080039e-05	-5.990347040254086e-05	0.003215983517018973	-0.010765709949764786	0.004696476894170682	0.0005056838185930871
Ar	7.735382198328328e-05	-4.4645738007623096e-05	0.0027502390361568768	-0.0010501268757727078	-0.0009110037747647136	-0.0003616762188121996
2
44200
Ar	-8.120855941057128e-05	-1.6522076774523773e-06	0.0032231408518842504	-0.009754086698774558	0.006492686701036954	0.0006943408899426175
Ar	4.9504169118024e-05	-4.22571339560522e-05	0.0027451362298574838	-0.00433302472804761	0.001331500724440709	-0.0004674993573878603
2
44400
Ar	-0.00015224807999192097	5.8974738004790365e-05	0.0032263142891791334	-0.003816027975104344	0.005109670706169137	-0.00015131924605181547
Ar	-3.135893516609807e-06	-1.9767006432500138e-05	0.0027437552101405777	-0.005775340224135647	0.0030053508360822676	0.00022808949650787906
2
44600
Ar	-0.00015091221000511284	9.201120310595807e-05	0.003220802897804073	0.004062292048379402	0.0012527896080294365	-0.0007749347486438713
Ar	-5.64941144578947e-05	1.2919629171442784e-05	0.0027490556846724405	-0.00444854428156544	0.003263922034077701	0.0006997651978335038
2
44800
Ar	-7.706047351666576e-05	8.1946258659601e-05	0.003215192476533567	0.01013220114305779	-0.003232356464439727	-0.00015868158096394997
Ar	-8.429841935114635e-05	4.0121949315395205e-05	0.002753796847137003	-0.0008711814355677799	0.0019414426265788513	0.00011262040559735014
2
45000
Ar	3.666624573712249e-05	3.217586280481059e-05	0.003218247943723155	0.011673755036256403	-0.0063272969012558	0.0006687171007951348
Ar	-7.255439954574666e-05	4.841459309522615e-05	0.0027508711992023016	0.003148345742043615	-0.0003578507052712579	-0.0005711112953313179
2
45200
Ar	0.00013695260029775866	-3.4627528059605536e-05	0.003224035055129428	0.007484534973032099	-0.00646284125722551	0.0002974659986938019
Ar	-2.5742676624626105e-05	3.3818886915919946e-05	0.0027457509995193713	0.0058499708868691306	-0.0024765786997885605	-0.00029219612754913965
2
45400
Ar	0.00017336005536822824	-8.605636374346003e-05	0.0032225319968031607	-0.0005541661381716563	-0.0033709698125257213	-0.0005611482865276391
Ar	3.5392541911550175e-05	2.631727811197776e-06	0.0027464382349761726	0.0058664761180539215	-0.0034977244352195668	0.00041627929020959114
2
45600
Ar	0.00012663932945124835	-9.684170191108884e-05	0.003216098261111986	-0.008421340717212253	0.0013207635014511675	-0.0005155003322777217
Ar	8.14762131002103e-05	-3.054871197333331e-05	0.0027515177294965758	0.0029351851299791137	-0.0028373842407643556	0.00040108684924700143
2
45800
Ar	1.767188876515065e-05	-6.173378426625102e-05	0.0032155491285276337	-0.012543844708642154	0.005452121058430344	0.00041109437187416913
Ar	8.935454619270445e-05	-4.9340529754358706e-05	0.002751694384978028	-0.0014144015454652938	-0.0007882354135298195	-0.0003676061372001317
2
46000
Ar	-0.00010427569586134668	3.9482560159943965e-06	0.0032217534308282545	-0.010771738190366892	0.0071473951927677965	0.0005878549689481
Ar	5.4871282421834505e-05	-4.4918499689896597e-05	0.0027469268618215067	-0.00522503832938824	0.0016503747684809837	-0.0004100160944825468
2
46200
Ar	-0.00017907893499729933	6.921649727204342e-05	0.0032234506525926584	-0.0035270531798925553	0.005326245958641804	-0.0002841316967300237
Ar	-7.597907432052082e-06	-1.8529087707522487e-05	0.0027464848139324427	-0.00674771086493791	0.003416435514543758	0.0003833397579186465
2
46400
Ar	-0.0001687296199875057	0.00010172574922137336	0.0032173822391752586	0.005524134305041062	0.0009039097019561628	-0.0007254268058009478
Ar	-6.886022837317318e-05	1.757592971248342e-05	0.002752713514680878	-0.004945718177013816	0.0034979630399844786	0.0006849578293188922
2
46600
Ar	-7.706856000445842e-05	8.618632685168495e-05	0.0032137096517563415	0.012128830652919106	-0.003897626791300467	0.00016191914201897216
Ar	-9.799301571962705e-05	4.578618080787177e-05	0.00275594908530849	-0.0006343744770554824	0.0018923608456444957	-0.00017539875144693392
2
46800
Ar	5.543744283826301e-05	2.947285265413149e-05	0.003219804369859033	0.01325324459856499	-0.007020573812515196	0.0008345861357563595
Ar	-8.073666294581597e-05	5.2242866717170465e-05	0.0027499743031392937	0.003968916166377488	-0.0006522508701849543	-0.0008162255350906918
2
47000
Ar	0.0001652930280149851	-4.288058491324807e-05	0.003225200306960357	0.0077321879902283435	-0.0068117762933699675	4.470070638304926e-05
Ar	-2.4095734275826376e-05	3.3872455121215404e-05	0.0027442638954381596	0.006933239514061082	-0.0028855606146573503	-0.00017557087349058154
2
47200
Ar	0.00019648777900557922	-9.546525952772583e-05	0.0032201999040268017	-0.0017531466348968705	-0.003244263281272965	-0.0009239879782912835
Ar	4.699488932541203e-05	-1.4787855734235946e-06	0.0027476588272644445	0.006690243964300702	-0.0038801679376525245	0.0007586514803309453
2
47400
Ar	0.00013301824256249493	-0.00010285787204706274	0.003211425152201287	-0.010440730780887203	0.0018245532322284023	-0.0005104740540287579
Ar	9.781007328529072e-05	-3.6834757735742756e-05	0.0027553332522653844	0.0030178742115792353	-0.0028832298589348913	0.000528131092201532
2
47600
Ar	3.2171308522261317e-06	-6.15748644872689e-05	0.003213407220465634	-0.014500149704649076	0.00611299983752729	0.0008454238129461981
Ar	0.00010244560644931321	-5.4511180491877765e-05	0.0027546783848101416	-0.002094249057927568	-0.0005321015572983996	-0.0005864567610024197
2
47800
Ar	-0.00013346725483317782	1.0096857518644048e-05	0.0032227807853237706	-0.01161050416107404	0.0076386600305829175	0.0007004864163699301
Ar	5.9074893336652486e-05	-4.6521358886275655e-05	0.002748170989184033	-0.006311714861717765	0.0020771100561363504	-0.00046911106782361264
2
48000
Ar	-0.00020851860545139013	7.831672649418846e-05	0.0032236133801742885	-0.002695057088213247	0.005416827985796686	-0.0005624105692256313
Ar	-1.4844296801781103e-05	-1.5909457361228655e-05	0.0027485490456755743	-0.007848153770041666	0.00381072921224823	0.0005540098265143304
2
48200
Ar	-0.00018308514763110465	0.00010935687409489697	0.0032145732561460675	0.007541896529299459	0.0005418969190919942	-0.0009238041563824793
Ar	-8.428743775278925e-05	2.3344519337600206e-05	0.0027563900275912245	-0.005428209947006706	0.003676923515416484	0.0007698971788880793
2
48400
Ar	-6.920403726514305e-05	8.896952075616937e-05	0.0032110265224187407	0.01438475571476417	-0.004487873862077009	0.00037838614116406273
Ar	-0.00011412468699663653	5.141039632780125e-05	0.0027588997128237475	-0.00030648596595711237	0.0017191724602591003	-0.0004163786840890233
2
48600
Ar	8.262335223210482e-05	2.585105418893101e-05	0.003219557689758291	0.014688052448069632	-0.007613407606747401	0.0010002073349600442
Ar	-8.99808114663128e-05	5.521886801070876e-05	0.0027506660384914138	0.0049885790308656225	-0.0009923417805365882	-0.0009645273627435728
2
48800
Ar	0.00019906941357322055	-5.099253196073621e-05	0.0032246011451381425	0.007509768886339153	-0.007085469890434979	-0.00017212706791517937
Ar	-2.1191848262137104e-05	3.285582713848622e-05	0.0027452790509985624	0.008235630218862977	-0.0033182968160880896	2.196933642446268e-05
2
49000
Ar	0.0002197996051880426	-0.00010380421790217029	0.0032163636205651816	-0.003507072922914603	-0.003040714065186905	-0.0012502310368657326
Ar	6.137928058437249e-05	-6.2250082056248635e-06	0.0027507320438754294	0.007549633392564638	-0.004163010521433079	0.0009175857254349919
2
49200
Ar	0.00013479421092513384	-0.00010728792841085367	0.003206798578687505	-0.012837343560485775	0.0023561755186873733	-0.00028822991410220775
Ar	0.00011666465814481212	-4.3389524842028894e-05	0.002758521240600853	0.0030082984737525016	-0.0029031189136004094	0.00031659949030993586
2
49400
Ar	-1.7976997477750793e-05	-5.98438813406611e-05	0.003212773877773424	-0.016543297751492894	0.0067706391081059905	0.0012540290400928386
Ar	0.00011689479730222978	-5.981773678807827e-05	0.002755129956862792	-0.002950029850635383	-0.00027116842489887	-0.0008390353611635627
2
49600
Ar	-0.00016869355763805558	1.7902729831886223e-05	0.0032240413246751682	-0.012197975271304264	0.008082057585383955	0.000635918840430428
Ar	6.13772323206856e-05	-4.796955385325524e-05	0.002747839616751845	-0.007765154238188782	0.0025587399438374843	-0.00035566628706547846
2
49800
Ar	-0.00023985330772274347	8.761133732030278e-05	0.003222412939123627	-0.0014050925620704307	0.005281046346374561	-0.0009105602697166052
Ar	-2.6818380393554444e-05	-1.2651915098841099e-05	0.0027505392947971405	-0.009090290708054446	0.0042263614694962575	0.0008544385007801449
2
50000
Ar	-0.0001950393006832064	0.00011507924642474483	0.003210757616583717	0.00997696399222078	4.0971186783141035e-05	-0.0010353047943518895
Ar	-0.00010491442680450536	2.9599906460566888e-05	0.002760677359516643	-0.00578939568077269	0.003856615250277355	0.0008376745141382687
2
50200
Ar	-5.547755786102372e-05	8.863775023595784e-05	0.0032083607774146226	0.01690665718969463	-0.005156056243413859	0.0006611168895672034
Ar	-0.0001331171368377952	5.764744821948068e-05	0.0027615166566471302	0.00033739534947567154	0.0015540952349607396	-0.0007247488683770352
2
50400
Ar	0.00011719726338120824	1.913499712047645e-05	0.00321909340810132	0.016074440625253112	-0.008187050054336514	0.001056886648300443
Ar	-9.866875651300729e-05	5.8455189369907175e-05	0.002750765412166783	0.00633845682335215	-0.0014064123813185103	-0.0010534243554438656
2
50600
Ar	0.0002371390255194265	-6.083372069883307e-05	0.003222605401145294	0.00681554897331957	-0.007074314466702296	-0.0004676727141253261
Ar	-1.5029693188236352e-05	3.148218777312256e-05	0.0027463530483557096	0.009720370193498003	-0.0037820840314535357	0.0002878971468655396
2
50800
Ar	0.00024191380999509656	-0.0001108399839523899	0.003211771323792041	-0.005850918539940972	-0.002525363376580643	-0.0014027605304639179
Ar	7.98679261820179e-05	-1.1327877997359744e-05	0.002754669508327499	0.008399044360986674	-0.004419042250929522	0.0011484164942593706
2
51000
Ar	0.00012996695887338317	-0.00010799732513603053	0.0032030943490039725	-0.01568403101159412	0.0030670590288124112	4.4773305014318585e-05
Ar	0.00013788761264042196	-4.9065089479527864e-05	0.0027625306184915557	0.002713071517335164	-0.0028030939605733856	8.339656071504698e-05
2
51200
Ar	-4.898602696822019e-05	-5.373691777375412e-05	0.003212911364742467	-0.01867153618904109	0.007392352816890316	0.001541402560216544
Ar	0.00013039900411659957	-6.306124512593348e-05	0.002755947902622734	-0.004143232918710133	0.00011161684390246439	-0.0010826906472978695
2
51400
Ar	-0.00021097814568259472	2.7929914218240533e-05	0.003224405419925767	-0.012170554697361667	0.008209258795810281	0.00042030570881169266
Ar	6.000221458056099e-05	-4.710647197898749e-05	0.0027483321662036633	-0.009418202539570049	0.0029859628678923014	-0.00018667618582887034
2
51600
Ar	-0.0002709237594687122	9.641948315599317e-05	0.003219321737918212	0.0006933894175365788	0.0048747969040165125	-0.001292880274169178
Ar	-4.3217563342525524e-05	-7.725529080865448e-06	0.0027537388502505413	-0.01033448564965309	0.00456302470326498	0.001142100913774856
2
51800
Ar	-0.00019939891428858084	0.00011794328019259789	0.0032054950273230905	0.012988067490634133	-0.0007024677550510449	-0.0009543885563004358
Ar	-0.00012837526881283486	3.605835798468264e-05	0.002765440776159427	-0.005925221723754451	0.0037523079672254025	0.0007519820391557565
2
52000
Ar	-3.0149036160185064e-05	8.386720723309714e-05	0.0032069119185160057	0.019639313343519354	-0.005888765983655892	0.0011460771558807962
Ar	-0.00015215739256330512	6.130975285907341e-05	0.002763104439337213	0.001276535865616176	0.0011164018643243145	-0.0011156534911072895
2
52200
Ar	0.00016169021708779715	8.556599984010404e-06	0.003220232854547352	0.01691729466375264	-0.00854435867334666	0.0009924756302746411
Ar	-0.00010405034661171369	5.724985007895746e-05	0.002750553680774354	0.008044562692587338	-0.0019180229433705986	-0.0009589593845965207
2
52400
Ar	0.00027750864381504266	-7.188313912559347e-05	0.003220966346581779	0.005208035121987331	-0.006813900063016378	-0.0008849735697024863
Ar	-2.905525922940592e-06	2.5782138912062058e-05	0.0027486826352022035	0.01134797030157858	-0.004144671308356586	0.0006358556000539521
2
52600
Ar	0.000257561142305395	-0.00011670655579042513	0.0032064899934261407	-0.008953048123307845	-0.0018002474004817906	-0.0015742856571697207
Ar	0.00010363590708060872	-1.9289167349375197e-05	0.002760302033891469	0.008964562987264047	-0.00443160610271795	0.0013389513718286051
2
52800
Ar	0.00011313420175489966	-0.00010602398827089747	0.0031999693025668093	-0.018876506276112544	0.003856831519183228	0.0006176829705532921
Ar	0.00016091691531935502	-5.495019322936741e-05	0.002766721406847937	0.0020680315791314677	-0.0023839065780095407	-0.0003383444450851315
2
53000
Ar	-9.237634152137563e-05	-4.46881423210172e-05	0.003214521891127503	-0.02045078107570944	0.007936395417874779	0.001722650545594556
Ar	0.00014226247031638077	-6.35512645094066e-05	0.00275649309698273	-0.005690809211769924	0.0006900245453785822	-0.0012488850212312547
2
53200
Ar	-0.0002590174329018739	3.963311529992736e-05	0.0032244833338429964	-0.011305419606350436	0.008138541060456788	-1.8083177684882063e-05
Ar	5.393659089574781e-05	-4.218237713434824e-05	0.002749993761813068	-0.011316539760134758	0.0034160923011909805	0.00015904053976323971
2
53400
Ar	-0.00029827591189145576	0.0001045387173084714	0.003214094954045033	0.0037192682743030395	0.0042588641807271435	-0.001785489996771798
Ar	-6.532608934812644e-05	-2.9696094773977727e-07	0.002759414870257774	-0.011471403199400003	0.004608978893456926	0.0015266051382861526
2
53600
Ar	-0.0001924897154226533	0.00011878961479402978	0.0031988508555200468	0.016558890138884716	-0.0014736435666028367	-0.0006122999596908321
Ar	-0.00015479564191982393	4.200783638855131e-05	0.0027721009922407687	-0.0056158581256067356	0.003437713780363827	0.00049188838889742
2
53800
Ar	9.735350058343661e-06	7.757400707598567e-05	0.0032063010154995673	0.02233434515888278	-0.006513835588860047	0.0017346605050229202
Ar	-0.00016981443382259963	6.267792919623346e-05	0.0027650289434695743	0.0026697954816104954	0.0005990711244982896	-0.0015842516178103028
2
54000
Ar	0.0002158682975735481	-1.7006358093939263e-06	0.003221521391223034	0.01692452115617034	-0.00864551126684379	0.0008034547604841444
Ar	-0.0001043632164657873	5.343076032286009e-05	0.0027505079045926	0.010015639383386331	-0.0023652332193013137	-0.0008694439873762551
2
54200
Ar	0.0003171258272118153	-8.017819726525733e-05	0.0032180625198645605	0.0024144111074813966	-0.006339170222442299	-0.0014290552960635715
Ar	1.5758704203362707e-05	1.83686299671462e-05	0.002751474497743764	0.01296100040253283	-0.0043704789122606235	0.0010277085214286945
2
54400
Ar	0.00026194919220034644	-0.00011846459616649277	0.0031999328363802883	-0.012863831803893833	-0.0010940660965506432	-0.0016011296960136714
Ar	0.000132241536980901	-2.6408050981257314e-05	0.0027661038685967147	0.009239359751285987	-0.004175505170108458	0.001408344378788777
2
54600
Ar	7.994119970291001e-05	-0.00010128196570004958	0.00319746565251183	-0.02229606385934496	0.004405701771004671	0.0012722599551310357
Ar	0.00018506823759407095	-5.762299222320584e-05	0.0027695440780319395	0.001010545225446193	-0.0018270825517595673	-0.0008669311124986978
2
54800
Ar	-0.00014984541173672657	-3.569842214233881e-05	0.0032160455980772547	-0.02151173664402483	0.00817775721800236	0.0017490896192774608
Ar	0.0001510818342476529	-6.0784513334203323e-05	0.002756766532401288	-0.007685009541380069	0.001188808630583719	-0.0011507500497194374
2
55000
Ar	-0.0003102666270901885	4.819652906515196e-05	0.003222941238897686	-0.009083416971579593	0.007829979430963273	-0.000549083877058183
Ar	4.176220257539943e-05	-3.5303057919422985e-05	0.0027535295398486755	-0.013304658616510926	0.0037326244211328737	0.0005933400396428528
2
55200
Ar	-0.0003166677948816031	0.00010744777324321442	0.003207564142558008	0.007747928646299802	0.0035523365569961047	-0.0020753390687793588
Ar	-9.266891151624377e-05	7.933406072123287e-06	0.002766209895601987	-0.01235544383966576	0.004549669987310093	0.0016446872863439142
2
55400
Ar	-0.00016989746521102838	0.00011497430161570213	0.003194371161131671	0.020513954143890494	-0.002040499552507464	6.363077167237404e-05
Ar	-0.0001831855370925891	4.6904402937548606e-05	0.0027758024298630743	-0.004981469769296345	0.0028833905886669446	-0.00024588607977195023
2
55600
Ar	6.49687227112302e-05	6.912242362396979e-05	0.0032079593587459668	0.024505562611347807	-0.006818754589246802	0.0019748866881861356
Ar	-0.00018646963530997691	6.16101242695972e-05	0.002762189900516493	0.004405800292010576	-1.6139180346261555e-06	-0.0018710443189918517
2
55800
Ar	0.00027591305063258225	-1.0773237225565036e-05	0.0032207850036353116	0.015620366384507596	-0.008429745035751248	0.00019084228259851646
Ar	-9.96782930740207e-05	4.724205845413262e-05	0.002749486921142639	0.012314454862479953	-0.002754229719071345	-0.00035841758333150195
2
56000
Ar	0.0003493934770435078	-8.463525224366188e-05	0.003210598711453106	-0.0015138681241791353	-0.005695065428586472	-0.0020050725256833147
Ar	4.0132075249340485e-05	1.034021808292662e-05	0.0027567639895816945	0.014417712724806199	-0.004306750032648529	0.0016450802344522837
2
56200
Ar	0.00025121161841994437	-0.00011653229965825199	0.003191299656879046	-0.017189294679283557	-0.0005185879816733346	-0.0011067332472074795
Ar	0.00016296916064464066	-3.152027787221698e-05	0.002774350330602944	0.008977858051384601	-0.003644986095400265	0.001221531401740165
2
56400
Ar	2.999682738074061e-05	-9.506885159069116e-05	0.003198183504162722	-0.02552483601615113	0.004706557003844456	0.0021970405878234765
Ar	0.00020653419981968228	-5.6079090751894006e-05	0.0027720269626152105	-0.00046211331993067586	-0.0011136554305770014	-0.0014572293227049875
2
56600
Ar	-0.00021618722265807653	-2.8371524149115648e-05	0.0032198732717639116	-0.02130867716011792	0.008059566640171687	0.001471012084153601
Ar	0.00015306982530841843	-5.328334222497221e-05	0.002757436743160793	-0.009949570555956782	0.0016265614590096505	-0.0009190103288336711
2
56800
Ar	-0.0003566013379598433	5.217773890338311e-05	0.003220649598074767	-0.005503002346321543	0.007309316895620388	-0.0013254600261058023
Ar	2.2094590895146763e-05	-2.5916465036014326e-05	0.0027583244597448537	-0.015130663514284147	0.00365918512412764	0.001074491008034367
2
57000
Ar	-0.0003188636550132531	0.00010582621925948081	0.0031993258444299537	0.012537753248304254	0.0030199451978385706	-0.0022906039757015707
Ar	-0.00012379967472800381	1.4060772709565666e-05	0.0027744650156279757	-0.01267512815832159	0.003989929431622447	0.001677766816253199
2
57200
Ar	-0.0001273988732667735	0.00010961619856924911	0.0031903964580719886	0.024456448773527064	-0.0022639884409177053	0.000980691549922554
Ar	-0.00020882135068688482	4.609749651250276e-05	0.002779125096004253	-0.0037739774514859744	0.002126278079482184	-0.0011102052734003613
2
57400
Ar	0.0001345470555736055	6.276811550217958e-05	0.0032098507917712664	0.02550107323063654	-0.006798099582330271	0.002025205626002761
Ar	-0.00019496369062501303	5.4444478133808075e-05	0.0027604528720612575	0.006598443254222906	-0.0004778058265151167	-0.001907335506491351
2
57600
Ar	0.0003347606283652367	-1.5089305924291385e-05	0.0032193036605928866	0.01262798437788378	-0.008043081963367062	-0.0003521449166820978
Ar	-8.515586824247287e-05	3.7444155194543214e-05	0.002751292810243693	0.014483232066893217	-0.0027861970710619014	0.00025502805165771036
2
57800
Ar	0.00036572323235278847	-8.425656451513169e-05	0.003204042637578702	-0.006563391206526108	-0.005200620005048015	-0.0023190633979137303
Ar	7.078308643791389e-05	2.7807972697726845e-06	0.0027645408938135226	0.015310540842100975	-0.0038691690782232772	0.002079468825900424
2
58000
Ar	0.0002181202855865952	-0.00011233378046954852	0.003186917414324092	-0.021731301853864276	-0.0002802518657741713	-0.00025286671548519033
Ar	0.00019315422755996129	-3.283108643894299e-05	0.0027814576885432274	0.008068063782640095	-0.0028573490992575452	0.0005474617620143707
2
58200
Ar	-3.9841023400278724e-05	-8.969210964178993e-05	0.003202220604375092	-0.027810399574716455	0.004750193660909509	0.002526926672245577
Ar	0.0002222205043752343	-4.988354605303349e-05	0.0027717073297206705	-0.002450560221833973	-0.0005125442192004124	-0.00183225126543289
2
58400
Ar	-0.00028762747485777424	-2.3738662871669527e-05	0.003220724669546364	-0.019286328572066053	0.007849628890544282	0.0006427944613424012
Ar	0.00014489994821432028	-4.3315759831369286e-05	0.002757984628053182	-0.01246163046820406	0.0017802371812988176	-0.0005265337730374425
2
58600
Ar	-0.00039025016454671303	5.339752159650235e-05	0.003212321116551098	-0.0004120171246027451	0.006899624637774524	-0.0021538352679229393
Ar	-6.979493840631264e-06	-1.6821183242185318e-05	0.0027634499307383773	-0.016615913800258335	0.00330732947617816	0.0015381962233762037
2
58800
Ar	-0.0002990530653876715	0.00010316012410437717	0.0031876867012581938	0.017640035744176545	0.002747846233785836	-0.0018985232384842138
Ar	-0.00015819733339106498	1.7519988171819477e-05	0.0027812984259083075	-0.012184403081206704	0.0031943746456050345	0.001343441641512598
2
59000
Ar	-6.344022344256517e-05	0.00010592107406578839	0.0031897091435158106	0.02794875767872393	-0.00223322122948773	0.0021857937215471594
Ar	-0.00023120344267320295	4.051730045547097e-05	0.002777779717910048	-0.002069985229549099	0.0012514160178657451	-0.0019328076317771455
2
59200
Ar	0.00021414772970230876	5.985324842443038e-05	0.003213858481787707	0.024826566473190714	-0.006644169087944305	0.0018044512265522129
Ar	-0.0001947841064593901	4.2711597240953136e-05	0.002757710051970044	0.009222776681673317	-0.0007763822000656641	-0.0014350165546370194
2
59400
Ar	0.00038587192585142903	-1.542426174327486e-05	0.0032176413258005144	0.00795434887677435	-0.007747665005761969	-0.0011019611101761263
Ar	-6.063217197887384e-05	2.584524309352636e-05	0.0027551186420551044	0.016501539274770546	-0.002476041556828542	0.0009759612537839568
2
59600
Ar	0.00036183788869175923	-8.165263220009281e-05	0.003196512519905826	-0.012295187988250359	-0.004941573822104049	-0.0025239182268053753
Ar	0.0001071947027693227	-3.2841745240580812e-06	0.0027736768170267844	0.015515878787949555	-0.0031100426200013605	0.00228209402415632
2
59800
Ar	0.00016361116685488148	-0.0001085192770068826	0.0031844565488129417	-0.025990313606461667	-0.00033998367454428705	0.0008300832047084772
Ar	0.00022147263872814325	-2.9878776880417704e-05	0.002785584977603843	0.006484233262539514	-0.0018790193759538798	-0.000553704144122705
2
60000
Ar	-0.00012202095965441752	-8.681650620536006e-05	0.0032054921665134414	-0.02851268546947868	0.004624258846168254	0.0023496696780916796
Ar	0.00022992380084619398	-3.913015488953108e-05	0.002769286311171109	-0.004999992683600233	-5.050550895909832e-06	-0.0018593569324241036
2
60200
Ar	-0.0003527571902109485	-2.290723994519901e-05	0.00321776523320816	-0.015394525815778813	0.007554379820158192	-0.00019715141634129503
Ar	0.00012698725105026422	-3.0508533578333752e-05	0.0027592001170799146	-0.014754513526995798	0.0016579201444655532	6.931353064047712e-05
2
60400
Ar	-0.00040329448009470114	5.103894546036101e-05	0.0032022783944557058	0.005559859984230134	0.006579552555575451	-0.0025618662717853307
Ar	-4.121345952308137e-05	-8.125228355559994e-06	0.0027704622607782193	-0.017416961961964673	0.002654523215478829	0.0019273457204530835
2
60600
Ar	-0.00025635990135994513	9.895334006717737e-05	0.0031807165546436367	0.022445205980957877	0.00276431586247809	-0.0007149553438161486
Ar	-0.00018983400363975362	1.787798359153529e-05	0.002786938483202588	-0.010874775704137057	0.002195032275230292	0.0005041943009231832
2
60800
Ar	1.603776171889683e-05	0.0001033542361203311	0.0031956074335822288	0.030061350294434946	-0.0020733047373873437	0.002871872380653219
Ar	-0.0002449090109413302	3.161758654161799e-05	0.0027739612179627556	0.00019933682907943276	0.0005539421382335559	-0.002368406891010159
2
61000
Ar	0.0002900304241587556	5.9076025545042435e-05	0.0032185485176755776	0.021998083291274066	-0.006421376003111081	0.0011126369757754272
Ar	-0.00018276405699741124	2.9923383375692667e-05	0.0027555501749425703	0.011808354446370678	-0.0008932953240433575	-0.0008620612095007682
2
61200
Ar	0.0004154165653954703	-1.3770521420027608e-05	0.0032131638025363115	0.0020291995642164446	-0.007486018230597211	-0.0020699767683506503
Ar	-2.7800734998809823e-05	1.499516404061159e-05	0.002759841869673325	0.017858255335221406	-0.001979801827317618	0.0016404798288297293
2
61400
Ar	0.0003315116015143781	-7.788126707166191e-05	0.003186613359225934	-0.017754257366736515	-0.004872741797445341	-0.002383627431894959
Ar	0.00014352911040611927	-6.851445170519167e-06	0.0027816283934048768	0.014766551992523705	-0.0021597925338545268	0.0020482965374472415
2
61600
Ar	8.897694896881176e-05	-0.00010618656142674533	0.0031844239000955667	-0.029272351557141106	-0.000606773800606932	0.002076558119321582
Ar	0.00024225109931451453	-2.2679532858466953e-05	0.002784731161295248	0.004485149569809546	-0.0008946631882736871	-0.0015525655999027168
2
61800
Ar	-0.00020765969420298076	-8.654430188191713e-05	0.0032097516660087315	-0.027107164018230757	0.004440939457190456	0.0020679361218204767
Ar	0.0002264605512135865	-2.555924350918283e-05	0.002765899556809769	-0.007721729421744758	0.00025473526841189207	-0.0014809806525187936
2
62000
Ar	-0.000401613446668801	-2.4255296458220424e-05	0.00321559758241041	-0.009857289106075879	0.007414947333697874	-0.0009996378659789496
Ar	9.905079722478742e-05	-1.7760237821950748e-05	0.0027619242077594566	-0.016652205625586426	0.001226490231371446	0.0007760052864231266
2
62200
Ar	-0.0003900986089532721	4.872417466070721e-05	0.0031939452187190825	0.011777399317155957	0.006551191679180212	-0.0027321718493163315
Ar	-7.901087498667592e-05	-2.124088530724599e-06	0.0027785791119562015	-0.017377886245432034	0.001758862933171591	0.0021473827055549484
2
62400
Ar	-0.00019088892750639803	9.76543725719191e-05	0.003179087555965303	0.026559075859765538	0.003044315502930798	0.000709349561965533
Ar	-0.00021650984564852393	1.3378087966584657e-05	0.002790052825020818	-0.009006820142463578	0.0010868288515176589	-0.0006872651474774015
2
62600
Ar	0.00010639564223174298	0.00010451080479341695	0.003202450774499319	0.030256181937461806	-0.001912072326992233	0.0027949345556635458
Ar	-0.00024917668348863894	1.8804371181072052e-05	0.0027697744981747176	0.0028903136220130936	0.00011483725841408069	-0.002370333036121673
2
62800
Ar	0.00035642992852171965	6.090007851649669e-05	0.0032184731121846625	0.017293014247767437	-0.00641847197712382	5.233573365393068e-05
Ar	-0.0001605129981381949	1.655739393429236e-05	0.0027556042233930576	0.014091576863892447	-0.0005554483467252761	-0.00017593939772400286
2
63000
Ar	0.00042213557303406385	-1.2074275321213222e-05	0.0032034622125678117	-0.004588399054915093	-0.007490993322806091	-0.0027602408501415927
Ar	9.2332089533028e-06	8.029922457135175e-06	0.0027665940592099493	0.018410602161734686	-0.0010861325900624707	0.0021495831584646733
2
63200
Ar	0.00027877826685014027	-7.708398300784862e-05	0.0031773785007069783	-0.0225620591014343	-0.005079639467441955	-0.001359506794625822
Ar	0.00017526055935606589	-3.6941228413109023e-06	0.0027881841868534155	0.013149230258972962	-0.0010944380434626485	0.0012450333942109172
2
63400
Ar	1.2295430477801845e-06	-0.00010890567188775556	0.0031888544495494095	-0.03108139782408682	-0.0009291949530871071	0.0028972061117930785
Ar	0.00025373720298863423	-1.0328509822483589e-05	0.0027803808894225884	0.0021357248392668247	-0.0002843716963683477	-0.002124107104077583
2
63600
Ar	-0.00028667968186606125	-9.075916880066361e-05	0.003213756303488693	-0.023614314448419434	0.004452052317501282	0.0014019570916897358
Ar	0.00021166201838444316	-1.1040117741661274e-05	0.0027628902244847104	-0.01032272600193712	9.957500466358192e-05	-0.0008951534199350472
2
63800
Ar	-0.00042725397197607867	-2.7549579188571185e-05	0.003211264643666023	-0.003275430970155048	0.007593167214875182	-0.0018359540285107115
Ar	6.427417077836113e-05	-8.150184310442998e-06	0.002765922934289426	-0.017887097206506195	0.00046868747191304875	0.0014510559446121885
2
64000
Ar	-0.0003510867613897216	4.747482758436829e-05	0.0031851102139743054	0.01745247260307787	0.006821789190195565	-0.0025677069072244977
Ar	-0.00011611139034179742	-2.1866056285144595e-06	0.0027863485523065322	-0.01648097274002753	0.0006855644327372492	0.001992485240374546
2
64200
Ar	-0.00010905020770177183	0.0001009594536307735	0.0031811131473794907	0.029489482485150702	0.003576135922288875	0.002111728921922351
Ar	-0.00023579872468300564	2.701949983311629e-06	0.0027883973092911645	-0.0067913699670154775	0.00018016451272001092	-0.0018987672396535691
2
64400
Ar	0.0001943449169541113	0.00011070138744051837	0.0032083059524058532	0.028181471839310992	-0.0018728444323538914	0.0023183399206756173
Ar	-0.0002424762742713633	3.2671551135627936e-06	0.002764623454273816	0.005735488335098801	6.0419278869650264e-05	-0.0019919545815614945
2
64600
Ar	0.0004007783258026658	6.545287973514303e-05	0.0032162693314003667	0.01116221912789895	-0.006730615543117362	-0.0008800588809835119
Ar	-0.00012928715275128236	3.926588363488842e-06	0.002756853541172248	0.01591803706811238	7.220143836708799e-05	0.0005865276596557933
2
64800
Ar	0.00040001110200469747	-1.1590880515380981e-05	0.0031942775342052926	-0.010986368208672475	-0.007950718613195424	-0.002995258994877557
Ar	4.978388286207319e-05	4.026392770559533e-06	0.002774020992891449	0.01832534621294234	-7.389542019893946e-05	0.00250194398378065
2
65000
Ar	0.00020568628767815266	-8.159930112470513e-05	0.0031747821560295323	-0.026271469504578225	-0.00570894923562038	0.00023718052067931447
Ar	0.00020304414886436912	2.9069120394187716e-06	0.002791646131895871	0.010970968601970072	-1.8257741807247286e-05	1.5882046590884465e-05
2
65200
Ar	-9.181150131435921e-05	-0.00011797347015876688	0.003196666015226595	-0.030668468925127222	-0.0010175626975443847	0.002936029068684821
Ar	0.0002568210226019433	4.172679190370293e-06	0.0027758782481098333	-0.0007478568945519312	7.148644614017276e-05	-0.0021320521501985226
2
65400
Ar	-0.0003495145244762321	-9.767989381958306e-05	0.003215738732632785	-0.018302792311430716	0.0049159395749494034	0.00044056142516206415
Ar	0.00018669157555231526	2.4842417074519963e-06	0.0027626514823066196	-0.012688817060810677	-0.0003812193110359458	-0.00024338523442799288
2
65600
Ar	-0.00042559494134746786	-2.8805941544962594e-05	0.0032039567522593156	0.003591418303763755	0.008210313001480712	-0.0025295459990074013
Ar	2.4015393769215195e-05	-2.2881404751070346e-06	0.002771634977643751	-0.018475968991165784	-0.0005535373316554701	0.0018594856431887663
2
65800
Ar	-0.00029049136766297204	5.215298561191395e-05	0.0031778268870844523	0.021908578463653117	0.007388648985242885	-0.0016151213185975689
Ar	-0.00015068158086032872	-6.66106554359671e-06	0.0027912915559567025	-0.014728538655941642	-0.00032003339562812835	0.001207516743024378
2
66000
Ar	-1.8206412376665704e-05	0.00011105102875162595	0.003187107892167417	0.030822018475565687	0.0038955304377231376	0.0028240445531677546
Ar	-0.00024811893326812497	-1.0663439864526838e-05	0.002781903564726928	-0.00426862833105287	-0.00038813023214910987	-0.0025079374026845454
2
66200
Ar	0.00027204322642981513	0.00012021792350908032	0.0032123865513201295	0.02427321815227546	-0.002257313086815507	0.0014906971348583812
Ar	-0.0002269062235319297	-1.0733936278010944e-05	0.0027600507665966932	0.008428292524453337	0.00042632608580336423	-0.0012986488581128203
2
66400
Ar	0.00042213136267740527	6.950203784123846e-05	0.0032110009135985504	0.004413980428344753	-0.0073990112682919525	-0.0017261730014760477
Ar	-9.314354113643336e-05	-3.004287938055419e-06	0.002760795237078044	0.017165056590315267	0.0010093500151564067	0.0014019883504309265
2
66600
Ar	0.0003572004102048886	-1.452309001052593e-05	0.0031845237649879843	-0.016444812272878674	-0.00862389767782862	-0.002816282618562035
Ar	8.765470026330932e-05	7.464172557047846e-06	0.002782968762193869	0.017337030421522712	0.0009501764945184894	0.002475092794198449
2
66800
Ar	0.00012421539042164285	-9.16608375106347e-05	0.0031769128052477323	-0.02869807646188554	-0.006420328114047992	0.001926210382288803
Ar	0.00022164292580074618	1.5904618612886616e-05	0.0027917632985493177	0.008573554699570204	0.0008002157203249532	-0.0012856790456624693
2
67000
Ar	-0.0001761372311446322	-0.00013115039409689364	0.003205560666548047	-0.028436739018584522	-0.0009155666227214249	0.002641436512545784
Ar	0.0002483718266045379	2.0195702281556556e-05	0.002771332428810348	-0.0036590251845056835	-0.00012779892195434055	-0.0018984748403677925
2
67200
Ar	-0.00038965358685791085	-0.000106159231718973	0.0032170215388127687	-0.012243323322537202	0.005669053615888211	-0.0005597624316579214
Ar	0.00015286932534911717	1.272691347863865e-05	0.0027631568582597078	-0.014582344422287582	-0.0012715748026109483	0.00039276096322584216
2
67400
Ar	-0.0004011972172550835	-2.8693520061761137e-05	0.0031967884322501154	0.009754820323511352	0.009092542490269199	-0.003038952190013173
Ar	-1.9199224208123862e-05	-2.678107733280329e-06	0.002777635592358004	-0.01833452558582075	-0.0016577212033995167	0.002198698512186022
2
67600
Ar	-0.00021830332085462882	6.084692184101174e-05	0.0031739685327322365	0.02514839130831761	0.00827812223415671	-0.000269267600659225
Ar	-0.00018019866447594848	-1.7444878525206854e-05	0.002793483241864628	-0.01232054692157263	-0.0012828609649659015	-5.34179486798232e-05
2
67800
Ar	7.032319918459217e-05	0.00012645107513838683	0.003193468213578476	0.03029004334921496	0.00411593076333845	0.00294595950955872
Ar	-0.0002507559887964639	-2.7441297396654216e-05	0.002775265189323583	-0.0012221206141969096	-0.0004745393819980331	-0.002516086736884061
2
68000
Ar	0.0003302694682893505	0.00013249309917288209	0.0032135922433408257	0.019138324195965138	-0.0030353542836698685	0.0006119852781380261
Ar	-0.00019984323111318797	-2.3662138888430184e-05	0.002758360934464597	0.011001152355083624	0.0011745159723764345	-0.000508685382875102
2
68200
Ar	0.00041857179326792933	7.165162828343681e-05	0.003203598504813089	-0.0021197101195074577	-0.008531755501357449	-0.0023930657698165428
Ar	-4.9602879367536535e-05	-6.128444878032455e-06	0.0027665436051845954	0.017778599816943155	0.0021375981509108547	0.001987141702022656
2
68400
Ar	0.00029777990614240956	-2.254819567843666e-05	0.0031769977978703874	-0.020578618109179936	-0.00954423115623779	-0.001890562131719753
Ar	0.0001251898201641926	1.489016787061728e-05	0.0027897978056136345	0.015428929573102925	0.0018744570214842564	0.0018487678423738966
2
68600
Ar	3.8288782899956876e-05	-0.00010814813493279754	0.0031843793468822787	-0.029793359837365294	-0.006981808037601303	0.0029304937033733827
Ar	0.0002339386814238859	3.0798773865359874e-05	0.002786653420608685	0.005785404900190993	0.0012006969391748807	-0.002117742912954127
2
68800
Ar	-0.00024797313422586184	-0.00014704307210576252	0.0032127455189885825	-0.02455409843699262	-0.0002836941245549705	0.001884612098484228
Ar	0.00023022175869715403	3.3774589980012095e-05	0.002766212654428082	-0.006631493998471795	-0.0007198808270935437	-0.0013570450698585207
2
69000
Ar	-0.0004069445839389907	-0.00011211902765962302	0.003214422738603961	-0.005797833453497254	0.0068943410675660795	-0.001573070119746455
Ar	0.00011206495663829515	1.7697700675433916e-05	0.0027648512466742913	-0.015958424762277313	-0.00232061901448186	0.0010724825544294423
2
69200
Ar	-0.00035776079773170496	-2.2371689686807156e-05	0.0031878673144417795	0.014802901976317425	0.010197587175505623	-0.0030359653629905307
Ar	-6.261942276273907e-05	-8.484726758263345e-06	0.002783916875413239	-0.017374967089721752	-0.002640562715625912	0.002241199333944828
2
69400
Ar	-0.0001406033417923071	7.700146537437053e-05	0.003175444053763913	0.027186740627758475	0.009153535028285562	0.0013776923046895178
Ar	-0.0002028527573849451	-3.14474880319243e-05	0.0027920131913144325	-0.009651943299111091	-0.0019253444222831534	-0.001349999465012967
2
69600
Ar	0.00014915427793406162	0.00014588993188143008	0.003201613756457927	0.028023536326233365	0.003779449761937975	0.0026483940025059625
Ar	-0.00024396835273162674	-4.272797969218941e-05	0.0027693994611478786	0.0019337574573498177	-4.592895204452665e-05	-0.002168449074642381
2
69800
Ar	0.0003664561805512348	0.00014350127909686618	0.003214656505162804	0.013360305963825808	-0.004274996247001263	-0.00029634000262304195
Ar	-0.0001655296133896156	-3.106128411874583e-05	0.002758860947039887	0.013065306555151618	0.0022208539221125856	0.00024257233101475882
2
70000
Ar	0.0003942368095126307	6.873135731676509e-05	0.003197199308532627	-0.007810927541197193	-0.009917134204327924	-0.002812982544425491
Ar	-4.325090322269341e-06	-2.0781816588186468e-06	0.0027733256475895424	0.017793540913577627	0.0032813067723729927	0.0023725707018905137
2
70200
Ar	0.00023081016351615856	-3.74727052630327e-05	0.003174544760880382	-0.023266956568095833	-0.010588334322059013	-0.0004980248641901588
Ar	0.00015788203510532528	2.854324427561586e-05	0.0027936058773843837	0.0130434808997979	0.002631761692122121	0.0006428172474349192
2
70400
Ar	-4.1983061082655306e-05	-0.00013062360354108816	0.003193205683355344	-0.029260966297862623	-0.007134264158612846	0.0030865228390135795
Ar	0.00023947057822765576	4.8668472831919853e-05	0.0027800382202811673	0.002701972974231812	0.001068857982302949	-0.00237809191526397
2
70600
Ar	-0.0003005105306970349	-0.00016370562913108527	0.0032157548712996964	-0.019890176784987394	0.0009298871940877779	0.0008761735212266678
Ar	0.0002049867479211296	4.5221456625876657e-05	0.0027625972613975576	-0.009343218158637579	-0.0017083919646061806	-0.0007104514944595665
2
70800
Ar	-0.0004034020702243224	-0.00011384305771251866	0.0032070969098752333	0.00011963487204431771	0.008527402882913275	-0.002428628864714225
Ar	6.848516465622681e-05	1.77016311309244e-05	0.0027679603466242665	-0.016810695522473402	-0.003558449578384258	0.0016985763911772469
2
71000
Ar	-0.0003038681203084382	-9.747109299378164e-06	0.0031778554503938514	0.018430735056229018	0.011376592702077935	-0.0024168123881182
Ar	-0.00010209262502656018	-1.937767377960311e-05	0.0027892501039638155	-0.01563814020906738	-0.0034905306531864706	0.0018075675629235705
2
71200
Ar	-6.428510754320784e-05	9.928569118314788e-05	0.0031794432839279477	0.028138419633169702	0.0097796098144201	0.002646330740794455
Ar	-0.0002174181025422216	-4.848864799892339e-05	0.0027864008543086	-0.006814414740589546	-0.0022011551534770442	-0.002250858381430967
2
71400
Ar	0.00021400532741754004	0.00016689024570617722	0.003208395434711531	0.024721384063591787	0.0029191662027090465	0.0022217946704898273
Ar	-0.00022765853159674053	-5.659648093768726e-05	0.0027631522530432496	0.0050252167031656905	0.0007698998059146348	-0.0016564174037499513
2
71600
Ar	0.00038357366434192013	0.00015118068448889094	0.0032147219468759074	0.0076371897883614915	-0.0059087926340707945	-0.0010500382511045118
Ar	-0.00012487147149746255	-3.438124900300314e-05	0.0027595822205011187	0.014651027288496392	0.0034354161620895065	0.000992886892645773
2
71800
Ar	0.00035637211554738664	6.022039210898779e-05	0.003191895351282365	-0.01248876357736339	-0.011339711191602923	-0.002900561166342905
Ar	4.083337711814318e-05	5.980932799891495e-06	0.0027792444790207048	0.01700907400650961	0.0042658424671898395	0.002487514400564622
2
72000
Ar	0.00016075897751898494	-5.76912379297348e-05	0.003176879164178542	-0.025187434671494476	-0.011562235588400666	0.0009091868042805706
Ar	0.00018341404310679978	4.3423446159793525e-05	0.0027927059764765805	0.01031644747721337	0.0030954953972513583	-0.0006882695519283008
2
72200
Ar	-0.00011499001894283124	-0.00015426097030057272	0.003200611702865115	-0.027490166736934833	-0.006684003583768848	0.002613115871316314
Ar	0.00023530594782727543	6.30517375977111e-05	0.002773855764848181	-0.0005139867599413166	0.0004488052175720042	-0.002069060302892066
2
72400
Ar	-0.0003369929153665486	-0.0001765795596688039	0.003214111189901606	-0.014750803382603619	0.002464086430564571	-0.00020404006514183873
Ar	0.00017201651554036082	5.010724259774944e-05	0.002762649356364838	-0.011579810090101427	-0.002907596728094792	4.2370306670186494e-05
2
72600
Ar	-0.0003848420506805692	-0.0001100334270396682	0.0031974057665636177	0.0054096356487659545	0.010159662307591327	-0.002793410315634722
Ar	2.3131302855544963e-05	1.0462474609985523e-05	0.0027745030643988333	-0.016935601079576413	-0.004650598497143781	0.0021107519605219117
2
72800
Ar	-0.00024523399634130414	8.077270070474938e-06	0.0031733637178317153	0.020980743036411145	0.012515085442580606	-0.0008289250069610019
Ar	-0.000136108048303522	-3.443683771481892e-05	0.002793514230312292	-0.013299806884153215	-0.003933915058756435	0.0006891788371806571
2
73000
Ar	7.542832247122312e-06	0.00012568913838557463	0.0031909312393810806	0.027876752263124735	0.010027102302678122	0.0033102384005185242
Ar	-0.000223939497825175	-6.481949132086701e-05	0.002779280399844708	-0.0037702981841248673	-0.001797074502434047	-0.0026575899060511075
2
73200
Ar	0.000262864920560769	0.00018689710883224906	0.0032170600017102716	0.020635990160039485	0.0015331409171651794	0.0012666029237845561
Ar	-0.00020342748323635268	-6.40421475936137e-05	0.0027583959543480375	0.007786979721877356	0.0019814180125742684	-0.0010376798112703186
2
73400
Ar	0.00038235349892895196	0.000153200474285282	0.0032121002990194328	0.002253675770935323	-0.00788818879371782	-0.002182421107228013
Ar	-8.120252546133319e-05	-2.899790307060259e-05	0.002762093959182021	0.015590965061153374	0.0047014722030484435	0.0016794682665008938
2
73600
Ar	0.000308858656449048	4.473053769068505e-05	0.0031827846405956053	-0.015921014158002598	-0.012764254211433337	-0.0028088831287271265
Ar	8.224778915476271e-05	2.1609040289525462e-05	0.002785366237690793	0.015514130735979842	0.004895052154656708	0.002299754563785175
2
73800
Ar	9.222968350427571e-05	-8.427655649076986e-05	0.00317831961931006	-0.026157419464456714	-0.01232344567698912	0.0021344012290462826
Ar	0.0002008161653833152	6.215031279243443e-05	0.002789426580723245	0.007518068796129907	0.003059811542527587	-0.0016965583585711798
2
74000
Ar	-0.00017526160591236609	-0.0001801725843453717	0.0032055905183589303	-0.0247260068729546	-0.005733752825512578	0.0023068308751520487
Ar	0.00022219247484826711	7.551418863809673e-05	0.002768416803034384	-0.003586965292988869	-0.0006608275904108425	-0.0017030186739151892
2
74200
Ar	-0.0003550943054221961	-0.000186682521818856	0.003213635623638016	-0.009562530564276426	0.004472750502837107	-0.0008214470215835203
Ar	0.0001341028514518969	4.9487685565321786e-05	0.0027629267110967958	-0.013263145283366057	-0.004284469491007119	0.0006738629824271185
2
74400
Ar	-0.0003523747325783463	-9.978148598550737e-05	0.0031926733119835415	0.009778596659734391	0.011977964019923749	-0.0028426316810267814
Ar	-2.1077638216198336e-05	-2.6928694695489055e-06	0.0027793278886186963	-0.016405447026542414	-0.005681577810844818	0.0022231161613517196
2
74600
Ar	-0.0001824951507370614	3.216842913366792e-05	0.003175964717030709	0.022796030967362525	0.013572415040712103	0.0006031817126374138
Ar	-0.00016308322582708802	-5.37329500518576e-05	0.002792326374565811	-0.010720695055207868	-0.00420337616213004	-0.0005534400476235173
2
74800
Ar	7.559760250705636e-05	0.00015405140785356016	0.0031996412711877377	0.026640605457911113	0.009561473769951307	0.002885126287430247
Ar	-0.00022276189146870615	-8.136184807919098e-05	0.0027723677073271894	-0.0006699261719689106	-0.0008881649214489822	-0.002376791285567574
2
75000
Ar	0.000300204684374028	0.00020296416067711626	0.003216749180318161	0.016075246941548712	-0.00030698088356929997	0.00016214564091814683
Ar	-0.00017338212267387535	-6.78912629088325e-05	0.002758083982817267	0.010111744097453367	0.0034615534210113734	-0.00021211416157529138
2
75200
Ar	0.00036921710054511073	0.00014913265875029784	0.003202400089429683	-0.002713937366998124	-0.00987326073584736	-0.0027383297352321684
Ar	-3.719706477425121e-05	-1.8324524032092475e-05	0.0027687849910169446	0.015957630624300095	0.00599784157521934	0.0021529063450798375
2
75400
Ar	0.00025677576441910424	2.4750068592438812e-05	0.003175511734524184	-0.018446513056258548	-0.013918990176650143	-0.0015274331737882376
Ar	0.0001172075282752292	4.076248850271708e-05	0.002790924189094704	0.013317021153553814	0.005252326026944932	0.0013473611667912274
2
75600
Ar	2.6308782979511538e-05	-0.00011260800841028636	0.003186757126373467	-0.026241249011918297	-0.012564687361756671	0.003058806965002669
Ar	0.000208534737825493	8.108252333055253e-05	0.0027826074692935084	0.004524032383306887	0.0024790659717984693	-0.0023794642566746294
2
75800
Ar	-0.0002230121446422427	-0.0002015339322305187	0.0032140543516506748	-0.02113426661629421	-0.004241261221559803	0.0016757968501688505
Ar	0.00019921080988479224	8.302707886595756e-05	0.0027619925686319766	-0.0064120636314281875	-0.002167596708101596	-0.0011901415797678971
2
76000
Ar	-0.00035758651264859606	-0.0001889568015946422	0.0032136328809545104	-0.004601318825796938	0.00658449414779958	-0.0017219266279764232
Ar	9.061837276211537e-05	4.177905088576722e-05	0.0027625526427204968	-0.014353977526913461	-0.005726326634306931	0.0012794716685749232
2
76200
Ar	-0.0003108588341281974	-8.337523722962842e-05	0.0031873116818568973	0.013189263416857527	0.013455322903580534	-0.0027863236894942753
Ar	-6.40980360969087e-05	-2.167511018294156e-05	0.002782911134542832	-0.0151104649641527	-0.006299428914086081	0.0022267681544424433
2
76400
Ar	-0.00011981617056061574	5.964715028273968e-05	0.003179302266938606	0.02384998893905359	0.014362398748372732	0.0017115490617349697
Ar	-0.00018326840257124066	-7.39045498135591e-05	0.0027890681480954448	-0.007937833453407508	-0.003907747264251574	-0.0014749795628104447
2
76600
Ar	0.00013312540784806172	0.00018117686790237726	0.00320488530919317	0.024338832489066216	0.008616144946407315	0.0023207335099774905
Ar	-0.000212969239601086	-9.262336238389172e-05	0.0027678986547436733	0.0024075584879192503	0.0005437376942485501	-0.001895981885673712
2
76800
Ar	0.0003209539917694046	0.0002140732054841485	0.0032141133181507603	0.0114302118504921	-0.0023374187277809253	-0.0006780008195924051
Ar	-0.00013756973213264806	-6.344588317650438e-05	0.002760012572889645	0.012016256098974349	0.005038405521791422	0.0004965470416527397
2
77000
Ar	0.000343455494111056	0.0001399254061335042	0.0031941677598780775	-0.0068878495653409534	-0.011718710522079158	-0.0028612586310986857
Ar	7.394658966169577e-06	-8.775540481522625e-07	0.002775886609513511	0.01571431081717225	0.006919840974614232	0.0023376183153049576
2
77200
Ar	0.00020133413893858265	1.1934058718097623e-06	0.003174710989906253	-0.020206774882671127	-0.015032439967686086	0.000167343955531063
Ar	0.0001467156139840729	6.20886992392394e-05	0.0027925386114103926	0.010816314941785579	0.005188814079048607	2.9436313552007608e-06
2
77400
Ar	-3.5951199073107135e-05	-0.00014237772773304395	0.003197815027414769	-0.025423763985373413	-0.0123502838832224	0.0032246055597644156
Ar	0.0002108162298349589	9.709863536313766e-05	0.0027748762717891375	0.0014967077028508247	0.0013475433620762575	-0.002501608272762255
2
77600
Ar	-0.0002600544703505484	-0.00022030647877533297	0.0032201786315370073	-0.017197267009607418	-0.002410955258782518	0.0007181162881689329
Ar	0.00017221342234647013	8.385397737815692e-05	0.0027576345392705433	-0.008902073795029193	-0.003895707442305068	-0.0005959380016386783
2
77800
Ar	-0.00034938341441170703	-0.00018625778264221897	0.003209840534230762	2.240763503191993e-05	0.008804367681181941	-0.002536470216746794
Ar	4.7444340366863534e-05	2.6123354679729743e-05	0.002765018408336077	-0.015002506422617466	-0.007121059886091482	0.0019136283283613153
2
78000
Ar	-0.00026510674226985163	-6.242609691879286e-05	0.003181150749340834	0.01572871748721644	0.014843041465113848	-0.0021789928831141238
Ar	-0.00010197498384215013	-4.565577447556872e-05	0.0027873063775054794	-0.01336172674844386	-0.006517258190670471	0.0017044260074619746
2
78200
Ar	-5.880625465938832e-05	9.109544938382924e-05	0.003184248330252974	0.024334586654233676	0.014896469191697438	0.0024454956273452823
Ar	-0.0001969249701080862	-9.59527037383493e-05	0.0027840317240340855	-0.005157783980315828	-0.0032278118366532126	-0.002030779660700103
2
78400
Ar	0.00018225414969166016	0.0002081808209537881	0.0032087257103915194	0.02150612933005197	0.007232733241362195	0.0016603587298579794
Ar	-0.0001966557367717964	-0.00010161147988572348	0.002764350120699881	0.005345958401697246	0.002262257853164932	-0.0012901984582608039
2
78600
Ar	0.000331331757105474	0.00022139795176003536	0.0032102038850270504	0.006911016102286183	-0.0046976832853256505	-0.0013675575432529974
Ar	-9.863310527898941e-05	-5.438463278589114e-05	0.00276340146709513	0.013392890349386082	0.00673914439832217	0.0011091539506058058
2
78800
Ar	0.00031180078840237576	0.00012477089114793847	0.0031876055152865322	-0.01030534255511691	-0.013613751126614788	-0.002509680247104921
Ar	4.9052661372246266e-05	2.1199282319860745e-05	0.002782356855509068	0.014771347374038096	0.007641245046697638	0.0021635101755078227
2
79000
Ar	0.0001469642387920105	-2.893633348474789e-05	0.0031800793843145005	-0.02153965678143027	-0.01621080257063928	0.0017019549065538761
Ar	0.000168781596703655	8.529263639173524e-05	0.0027894967944282257	0.008290130035554844	0.004844543410671399	-0.0013661386813929536
2
79200
Ar	-9.09464343829995e-05	-0.00017557993866109824	0.0032080861349124815	-0.023878423949713536	-0.011589755063812003	0.0027225096826532192
Ar	0.00020499455497305675	0.00011026273009721402	0.002766928760664826	-0.0014426156541633229	-0.000274301032543995	-0.0021698771915343446
2
79400
Ar	-0.00028535445411893585	-0.00023698945954444227	0.0032206644967738853	-0.013170241843465873	-0.0001016490829159803	-0.00047003103077905393
Ar	0.00014037230913694737	7.86138426059433e-05	0.0027564271830692556	-0.010904529507102753	-0.005752110175795472	0.00025460406819521235
2
79600
Ar	-0.0003320390541805753	-0.0001784956348252447	0.003200440006556088	0.004027259837362384	0.01112740102798008	-0.0031423699413611838
Ar	4.832111415273342e-06	5.34764017181773e-06	0.0027709476816697855	-0.015021834314739847	-0.008244764485372253	0.002358191954746443
2
79800
Ar	-0.00021792760614057892	-3.5657253652968185e-05	0.0031745450700048647	0.017590981866699825	0.016282588603198946	-0.0008279581593149836
Ar	-0.00013229758134620931	-7.04749744709196e-05	0.0027909859091590967	-0.011010427084872045	-0.006294027910453982	0.0006448388341961661
2
80000
Ar	-2.118586221708853e-06	0.00012782100651950897	0.003190889457884834	0.024052768840141472	0.01505250907798053	0.0030386858772810717
Ar	-0.00020103100053457378	-0.00011371576187875452	0.002777961394212195	-0.002327069440662446	-0.0019218778109717101	-0.0023419287547542704
2
80200
Ar	0.00022014728123305257	0.00023527654444043206	0.0032145857795835573	0.01820583673106433	0.0052902230482027145	0.0011412885689667982
Ar	-0.0001730727213240482	-0.00010205729982984283	0.002760512587226455	0.007731675738881271	0.00417728186811329	-0.0007709656950736011
2
80400
Ar	0.0003288941029624647	0.00022381362684668215	0.0032097026035154963	0.002642772770363031	-0.007385990511103231	-0.001972577081706341
Ar	-5.9074052136728464e-05	-3.706498362213289e-05	0.0027655042464102405	0.014102019963216379	0.008250626793900194	0.0016611491615592675
2
80600
Ar	0.000272809126096125	0.00010326422026862434	0.0031842741650297724	-0.01300875112018488	-0.015535502175441598	-0.0021688154628287637
Ar	8.490189907299466e-05	4.770381298152224e-05	0.0027864484438710553	0.013263318148149074	0.007843848458745008	0.0018212211282568388
2
80800
Ar	9.0847184187185e-05	-6.513836938604442e-05	0.0031856271890368325	-0.022352148958620793	-0.01715436959073195	0.0023680770336079768
Ar	0.00018296228603656683	0.00010847253087323457	0.0027854276622011013	0.005779190741588601	0.003992934880171312	-0.0020059298111717193
2
81000
Ar	-0.00014025042315698828	-0.0002099186495224497	0.00321134880905367	-0.021609273042848307	-0.010263958886307	0.0018765388753906778
Ar	0.00019189932867971193	0.0001185279173779856	0.002763824782441726	-0.004184471785491091	-0.0022107429539531555	-0.0015892103227229432
2
81200
Ar	-0.0003006977273023424	-0.00025023348481822445	0.0032143274985152767	-0.009010363153061599	0.002575856673223889	-0.0013354859154130728
Ar	0.00010556274691292358	6.752472571784698e-05	0.0027601077473979594	-0.01232100771051749	-0.007533017065262885	0.0008957521734663281
2
81400
Ar	-0.00030710383755988574	-0.00016515187912161358	0.003189621056146133	0.007499330869688733	0.013502900712306339	-0.002967049626191479
Ar	-3.4198043818083094e-05	-1.874605761286347e-05	0.0027784010814238696	-0.014360241987486847	-0.008921768578671859	0.002338109836631648
2
81600
Ar	-0.0001685288284450625	-3.754516797900044e-06	0.0031752184423108707	0.01913956058063171	0.017731134059818444	0.0010726994553201354
Ar	-0.00015413214362101771	-9.47390992993239e-05	0.002790461220333489	-0.008601547410673841	-0.005787618585390089	-0.0007827232925971937
2
81800
Ar	5.2058861945380354e-05	0.00016604623381125875	0.0032019663953277286	0.023075504389420364	0.014548194975251694	0.003050597098245399
Ar	-0.00019674543577325598	-0.00012710822160768803	0.002769827296233422	0.00047864541048622475	-0.00017105715188494826	-0.0022805363667672703
2
82000
Ar	0.0002499148300593858	0.0002573078838715834	0.003219945498348748	0.01456284304823312	0.0027703455130900782	0.00019047762290028396
Ar	-0.00014339481753739225	-9.564336015373628e-05	0.0027569508219349222	0.00973169737896254	0.006193541617916478	-3.5353838018388446e-05
2
82200
Ar	0.00031836239775691376	0.00021758797657012884	0.003205369685968373	-0.0013261065847356604	-0.010194326633614447	-0.0027644148671772365
Ar	-1.8179366505654452e-05	-1.3903393330307117e-05	0.0027689823583800354	0.014233864888795023	0.009433785035916447	0.002203960467364695
2
82400
Ar	0.00023071516237550246	7.382679619428472e-05	0.0031790325575109554	-0.015149315652085745	-0.01728281933730393	-0.00134416075603056
Ar	0.0001156406629005507	7.546970861237388e-05	0.002790320083287867	0.01113026396716446	0.007582891864007852	0.001085437765205054
2
82600
Ar	3.6126179802955605e-05	-0.00010683532250782421	0.0031900848639572826	-0.022516951083714293	-0.017518979928275308	0.002740643900583588
Ar	0.0001880006326438375	0.0001286448989793441	0.0027802560945090126	0.002982890650175464	0.002649043730630455	-0.0023408084151987163
2
82800
Ar	-0.0001812657714222967	-0.0002428984342222349	0.0032132305400085397	-0.018799658356863546	-0.008271346996119703	0.0012337125514138632
Ar	0.00016970747827438722	0.00012024427730630328	0.0027609820615023123	-0.006580592911520198	-0.004350239891040869	-0.0010315263958062377
2
83000
Ar	-0.000305342589393212	-0.00025641081217483676	0.003209741817658628	-0.004929157228377808	0.005621969889387189	-0.0018510517643482987
Ar	6.725445133129607e-05	4.957126880722878e-05	0.00276354122977752	-0.013054438958074954	-0.009170343154561769	0.0014523984976134287
2
83200
Ar	-0.00027510258529143776	-0.00014339151291223136	0.0031844155386946222	0.010376571099728976	0.015801515190551244	-0.002374197075778283
Ar	-6.916765049535669e-05	-4.693353614729104e-05	0.0027839507799494205	-0.01296030123436462	-0.009188478449465135	0.001973999349395479
2
83400
Ar	-0.00011747457211249585	3.585064618607642e-05	0.0031825182572224734	0.02021691053427458	0.01900141050911597	0.0022544308595500873
Ar	-0.00016766747783326317	-0.00011939760302950228	0.0027861887513537225	-0.006124979060717035	-0.004906326981564878	-0.0017512879573153297
2
83600
Ar	0.00010034144729674117	0.00020623799587737138	0.0032104930462453214	0.021307027551571565	0.013278691939405757	0.0023151934169810665
Ar	-0.00018389995165977356	-0.00013591708503784606	0.0027646261893276972	0.0031423038939033887	0.0019582362706770788	-0.001769449646635372
2
83800
Ar	0.0002686194369183758	0.00027502899138534076	0.003218383735492992	0.010782878709244836	-0.0001925985259254146	-0.0008764105217685316
Ar	-0.00010939820333907542	-8.282590043500096e-05	0.00275880437284713	0.011129465953256777	0.008169782315547727	0.0006886200608969315
2
84000
Ar	0.0002986082087321672	0.0002047525631197801	0.003196099883440848	-0.004814160133917238	-0.013043916184696075	-0.0030523923645734623
Ar	1.9969844715535053e-05	1.3518119606641877e-05	0.002775930689392051	0.013634597229608737	0.010228150109341005	0.002371484746091852
2
84200
Ar	0.00018610184089469926	3.880422746092365e-05	0.0031763812685253186	-0.016684545135383696	-0.01899539579403447	0.00024159474590508708
Ar	0.00013761371648683584	0.00010275284341122508	0.002791541712594154	0.008788512541544636	0.006919004064733811	-0.00023064252309944793
2
84400
Ar	-1.4714182279126555e-05	-0.00015131336667392346	0.0031982490940753957	-0.02190392583374184	-0.017278901546265362	0.0029338089054940252
Ar	0.0001851724504299522	0.00014399764879755616	0.002773353728023659	0.0003782253354460078	0.0007951301631461304	-0.0023658966075174445
2
84600
Ar	-0.0002118434782335037	-0.0002721154141418797	0.0032170906197958584	-0.015603268017720056	-0.0056611886540681045	0.0004330107554647212
Ar	0.00014302208779452797	0.0001141451119701751	0.00275833590708798	-0.008454756192644184	-0.006531794202291745	-0.0003549322308671779
2
84800
Ar	-0.00029915834400840965	-0.00025480852488092727	0.003205214078137639	-0.0012027053160901739	0.008849188049539228	-0.002546714455385315
Ar	2.9806756304674214e-05	2.4830421712328884e-05	0.0027676333000459493	-0.013218731033730852	-0.010546964553948032	0.002010203696289757
2
85000
Ar	-0.0002384331413216152	-0.00011396739962013732	0.0031792811977944995	0.012508927705871021	0.01795911741448481	-0.0016156505163607967
Ar	-9.835950408981489e-05	-7.757487684753276e-05	0.0027885762354623546	-0.011097373274848615	-0.008928668423799278	0.0013320728414914036
2
85200
Ar	-6.772462747058641e-05	8.132295471525991e-05	0.0031883090415997907	0.02063901127813896	0.01980349647508087	0.002854084364928202
Ar	-0.000173870530501708	-0.00014154949724705447	0.002781287079738876	-0.0036501346095558157	-0.003482480631745482	-0.0022893449030190094
2
85400
Ar	0.00014038550879567405	0.0002455494414070797	0.0032146591533796787	0.01894784759111399	0.011303665449218783	0.0016345535763194125
Ar	-0.00016532828830309197	-0.00013811143097509636	0.002760992876155684	0.005342295296153535	0.004273414017365515	-0.00120976991357844
2
85600
Ar	0.00027639089192567384	0.0002860169305147596	0.0032142275504365406	0.007028432010823	-0.0035472006911239076	-0.0016942963396146245
Ar	-7.526513565153061e-05	-6.312080134615639e-05	0.002761594986897849	0.011904804662470141	0.010055598736158107	0.001319631768734686
2
85800
Ar	0.0002713663438114694	0.0001838461378398646	0.0031879666772027535	-0.007686510143443308	-0.015745284753080166	-0.002826179335050361
Ar	5.290148365831702e-05	4.5576610918432614e-05	0.0027823370160352983	0.012531300359183511	0.010622727082743463	0.00228445055816998
2
86000
Ar	0.00013946074248955982	-3.4705570092411305e-06	0.003179100018571174	-0.017814959608669943	-0.02062476511492776	0.0016545207291910943
Ar	0.00015149726836139233	0.000130804974321854	0.0027895386729264735	0.0064493089805593064	0.005963763957413183	-0.001385842719079362
2
86200
Ar	-6.160948652096264e-05	-0.00019795371280079553	0.003205430570116209	-0.02056319547686918	-0.016264348463966877	0.0024886907059587897
Ar	0.00017465100655517617	0.0001553262236766056	0.0027679925019760015	-0.0020605665695822505	-0.001523687444563503	-0.0020177793812042734
2
86400
Ar	-0.00023345432154333744	-0.0002966657934859936	0.0032163054413396003	-0.012173731682168079	-0.0024929734859390085	-0.0005342345937395885
Ar	0.00011252454432936158	0.00010112646846954712	0.002759017531345429	-0.009822107317934113	-0.008807589123337598	0.00035282487493025353
2
86600
Ar	-0.00028457034927666276	-0.0002450705950339276	0.0031972386322181084	0.0022350042181046043	0.012148756665235676	-0.002841942163551777
Ar	-5.755318824375437e-06	-5.623236408519172e-06	0.0027735379087461985	-0.012830842141737688	-0.011582915774634574	0.0022572383105960623
2
86800
Ar	-0.00019837053165179592	-7.744185541192e-05	0.003176808444566777	0.014088375699518223	0.020062038010474317	-0.00010291954810156412
Ar	-0.00012020593136806593	-0.00010884236420303883	0.0027909520026830515	-0.00889352055022597	-0.008157616269018553	0.0002226823245470339
2
87000
Ar	-1.9944460871237685e-05	0.00013125297135958472	0.0031969686938942378	0.02031172501797879	0.019912679201638996	0.003013725846605603
Ar	-0.0001723231551813069	-0.00015967546770640493	0.0027755294566863776	-0.0012321575341018287	-0.001463223316867282	-0.002338649590249481
2
87200
Ar	0.00017157622014492535	0.00028198002116016605	0.0032180123263225993	0.016137474305213836	0.00866354439111509	0.0007004552424174822
Ar	-0.00014134359770474826	-0.000132455675045417	0.002759324473401276	0.007193163613830005	0.006719287184472776	-0.0005406066644741632
2
87400
Ar	0.0002737210941042412	0.00028901388478620293	0.0032080678267618133	0.0034561160183610514	-0.007194752547775725	-0.002465516615728195
Ar	-4.0363458935076695e-05	-3.698362242701718e-05	0.00276640207475908	0.012147521708415215	0.011531299020903801	0.001823699551069109
2
87600
Ar	0.0002386283202625895	0.00015454205288254524	0.0031801339357982396	-0.009819156414364457	-0.01832766607619418	-0.0021119152643666464
Ar	8.067460646839591e-05	7.804678139450131e-05	0.002787929437375313	0.01084513103952256	0.010302725711520909	0.0016973689356253024
2
87800
Ar	9.374456822623405e-05	-5.2243720731339276e-05	0.003184070940506937	-0.018337687947432853	-0.021771241085414117	0.0026439781677186102
Ar	0.00015713467628109253	0.0001536044002450117	0.002784303930238173	0.004087896754121068	0.004434466146450187	-0.0021949108177479423
2
88000
Ar	-9.989691820239355e-05	-0.00024314145966444764	0.0032114900521057824	-0.018524705466060217	-0.01441296812689551	0.001973162012638773
Ar	0.00015674605032672782	0.00015679460347783666	0.0027622678795332927	-0.00421627678975609	-0.004019700568766244	-0.001538352574679104
2
88200
Ar	-0.00024256990566754754	-0.00031245467912412205	0.0032153619619396524	-0.008681589637987458	0.0011517177209058314	-0.0012622594578142687
Ar	7.912047713623548e-05	7.957692907228281e-05	0.0027596314374626098	-0.0106603124156244	-0.010717888105570988	0.0010210104122831338
2
88400
Ar	-0.00026060817300657045	-0.0002249171987018141	0.003191759082789322	0.004991695176917557	0.015351957510485197	-0.0028107110815506022
Ar	-3.864531277989199e-05	-3.931307918394545e-05	0.002778606500177801	-0.011814125041239713	-0.011949196552872172	0.0023031338662561456
2
88600
Ar	-0.0001556140266384998	-3.226083468526014e-05	0.0031792248249251733	0.015210946261497453	0.021941925432187363	0.0011218515469944147
Ar	-0.00013492575602082555	-0.00013751598492013717	0.0027892297968276202	-0.006636708577375784	-0.007027371782266874	-0.0008958819840774868
2
88800
Ar	2.454006497711205e-05	0.0001836531039344698	0.0032035472877997608	0.01927877211126645	0.0191118165559303	0.0025663932974373488
Ar	-0.00016375220393957082	-0.00017060276018792008	0.0027700128003493064	0.0011472938724947676	0.0009356441429418162	-0.0020008422777190466
2
89000
Ar	0.00019436341808053855	0.0003123633393774529	0.0032163532188621974	0.013068489510240474	0.005358012746988316	-0.0002644304864418273
Ar	-0.00011298134544851372	-0.00011841743040899497	0.0027600295451421218	0.008576028854914743	0.009044287157105176	0.00019171208997891445
2
89200
Ar	0.0002630809050699901	0.0002822327459303976	0.003199420569702472	0.0002093859065637239	-0.010929549009618867	-0.0027863978828963367
Ar	-6.183918858983013e-06	-5.14092307851896e-06	0.0027733145425234656	0.011885371821867401	0.012603995599790927	0.00220136852181283
2
89400
Ar	0.00020316027423830624	0.00011707407369860909	0.0031764469125119743	-0.011420486610704233	-0.020694732521871748	-0.0006588326591937361
Ar	0.00010297352531421023	0.00011012214472247211	0.0027920562093151306	0.008809703267608536	0.009396913802462954	0.0005598390638854756
2
89600
Ar	4.959159764175917e-05	-0.0001059795392683346	0.0031944629390616664	-0.01829124065612875	-0.02220202800876174	0.0031925812227681194
Ar	0.0001573944753410836	0.0001718091533881525	0.0027775617506386736	0.0018065159401758004	0.002424698095504916	-0.0025758023959709998
2
89800
Ar	-0.00013125746639970778	-0.00028499080521235875	0.003219284043424473	-0.016132658848036066	-0.01175482929964797	0.001138274331257658
Ar	0.00013587740804102798	0.00015049119879730516	0.002757859773292641	-0.005988604796876773	-0.006569835551205109	-0.0009218062047004832
2
90000
Ar	-0.00024394945227665602	-0.00031910589712182873	0.0032129057053809688	-0.005405756652233373	0.005167285803223549	-0.0022655112922529775
Ar	4.737963213755031e-05	5.152810765915153e-05	0.0027618363644423874	-0.010984776118998944	-0.012331200091225307	0.0016315440276533078
2
90200
Ar	-0.0002330992378432012	-0.00019476318936168275	0.003183893683845925	0.007196506439175591	0.018360068145472603	-0.0026223807646840545
Ar	-6.523171248817137e-05	-7.479988383418799e-05	0.0027837749039248917	-0.010417315406708254	-0.011696589070157946	0.002058083854182742
2
90400
Ar	-0.00011400029642451038	2.056237208628529e-05	0.00318108356978546	0.01591529739973214	0.02345555198120088	0.0021763626129157523
Ar	-0.00014177115141386867	-0.00016335429742151035	0.002785772722660194	-0.004408134667702319	-0.005544779461238111	-0.0017767268006050566
2
90600
Ar	6.249227913626057e-05	0.0002360232940374836	0.0032073996397874427	0.017730637541003607	0.017409243174683838	0.0021298563307057374
Ar	-0.00014868356209647696	-0.00017507735620424282	0.0027652174209266372	0.0031677325057143067	0.0034926706756332796	-0.0015859981284116207
2
90800
Ar	0.0002075374179845984	0.0003345470641684974	0.0032139127948139293	0.009931354443932845	0.0013913651674560563	-0.000951419092631766
Ar	-8.314777242578912e-05	-9.859438864008777e-05	0.0027609377705008413	0.009388170420789812	0.011121270516965277	0.000823958430884417
2
91000
Ar	0.00024523848323957525	0.0002641391722971199	0.003192874425077395	-0.0025362473782704377	-0.014600984786412034	-0.002724593146936894
Ar	2.3718589843651863e-05	2.8680720987086514e-05	0.0027784413970119025	0.011054537633111945	0.013178698656676676	0.0022758296336716707
2
91200
Ar	0.00016595021532760706	6.999475831899329e-05	0.0031783813167047866	-0.012610676503306073	-0.022908817609400365	0.0008360648957779982
Ar	0.00011686682974751638	0.00014065230891718123	0.00279101529093322	0.006696434504898897	0.008368590800812307	-0.0006269934812973783
2
91400
Ar	8.444896906916925e-06	-0.00016397382591987506	0.00320282138933475	-0.017643850707056364	-0.02168575812506363	0.002821522661635662
Ar	0.00015003433535356643	0.00018531867358943967	0.002771207419451986	-0.00030780351886097306	-2.2706561698667737e-05	-0.0023068252307636337
2
91600
Ar	-0.00015501211488894745	-0.0003212345936119346	0.0032186487856468503	-0.01346195899541731	-0.008172594883805704	-2.9923856813091435e-05
Ar	0.00011060044571446848	0.00013751192031442828	0.0027576915738560396	-0.007267889199734251	-0.009119338175966956	-0.0001634810216077901
2
91800
Ar	-0.0002371694639433466	-0.00031432654778884307	0.003202682056681323	-0.0023320586617758695	0.009325502116963227	-0.002844386618379662
Ar	1.6601851993302432e-05	1.8735643303261293e-05	0.0027685925488539318	-0.010739442500941769	-0.013587371985188598	0.00213186074139326
2
92000
Ar	-0.00020209802939038368	-0.0001551744250556685	0.0031758995929764616	0.008768977235230829	0.021006076666189446	-0.0013638237460679831
Ar	-8.520349360238507e-05	-0.00010956437759486347	0.0027896586669054605	-0.008544186870119286	-0.010813675074854081	0.001159731235595257
2
92200
Ar	-7.450225508055534e-05	7.874654684667379e-05	0.0031882416072636826	0.016019157681698048	0.024159656550626483	0.0030455578123529154
Ar	-0.00014055420310100364	-0.00018335031095430997	0.0027800869712900833	-0.0023043114642451934	-0.0034842075608170057	-0.0023715084555896277
2
92400
Ar	9.216044996016974e-05	0.00028326091914974435	0.0032147660510742685	0.015674409567902267	0.01462921172967696	0.0015707295765800976
Ar	-0.00012775183016455041	-0.0001697373439675066	0.002760251605356774	0.004802938064172396	0.006192836637847793	-0.0010808829498569915
2
92600
Ar	0.00021057242223340976	0.0003439272507682202	0.003213614310357016	0.006951070562437861	-0.0029871425258663144	-0.0017437360869015576
Ar	-5.2337573620886044e-05	-6.965492488104666e-05	0.002762264492708818	0.009643086839918939	0.012941966019221178	0.0014472107312915085
2
92800
Ar	0.0002213563683273068	0.00023253972322781474	0.0031877054100501543	-0.004663491090959687	-0.018024407142065015	-0.0026278897285495484
Ar	4.925928412657206e-05	6.664918532774201e-05	0.002783269866593618	0.00972036322481045	0.013023063215256208	0.0021419603536434128
2
93000
Ar	0.00012911215036008725	1.2923562092647036e-05	0.0031817769445996154	-0.01322344485589412	-0.02462132987658094	0.001838577366728207
Ar	0.00012342459021642534	0.00016823037444946385	0.00278782168799487	0.004617527038298298	0.006738272935011934	-0.0015727242310300967
2
93200
Ar	-2.623011005000795e-05	-0.00022214704905336994	0.0032070393947348343	-0.0164321886462894	-0.020019679211832366	0.0021869605600104004
Ar	0.00013639489997535945	0.00019019159302790644	0.0027669675978864187	-0.0021740888091766964	-0.0027828698383306175	-0.0017842486083168496
2
93400
Ar	-0.0001690689349953641	-0.0003480774464107852	0.0032144664637120623	-0.01077435777726226	-0.003993143960877282	-0.0008654477590447287
Ar	8.319568555861992e-05	0.00011629635446917173	0.0027601613775940356	-0.008039106622577771	-0.011314599028458258	0.0005323000295300201
2
93600
Ar	-0.00022391434225688608	-0.0002972501752808268	0.0031931318794183408	0.0001396612991920809	0.01346761047257916	-0.002863661115867074
Ar	-1.1318045919180265e-05	-1.7136743980709277e-05	0.0027760306964529614	-0.010003865757603498	-0.014159561008685286	0.002287100122697993
2
93800
Ar	-0.0001711315660842294	-0.00010573197214632039	0.00317513578362089	0.009819044699867486	0.023367940191402148	0.00038864061882969516
Ar	-9.841326301300646e-05	-0.0001407156058644549	0.0027915703524096645	-0.006516185906695517	-0.009492417922507424	-0.0001856267427865653
2
94000
Ar	-3.912255578796927e-05	0.0001408972389411011	0.0031992861728155635	0.01562930613071651	0.023807627739494595	0.0031824433056348122
Ar	-0.000133381293242957	-0.00019636749262218344	0.002773310117736097	-0.00030457379554069613	-0.001014099215423103	-0.002434560992061222
2
94200
Ar	0.00011389393550107861	0.0003241342674233608	0.003220368912528466	0.013494453088477323	0.010998893189402332	0.0005626566253172239
Ar	-0.00010356122296930617	-0.00015556993499953422	0.0027573480734200263	0.006002668570993932	0.00882811118287945	-0.0004198966332492665
2
94400
Ar	0.0002066431469712721	0.0003415566541364112	0.0032088634876589117	0.004273368452680127	-0.007517045885962825	-0.0026027763350048028
Ar	-2.25992865284777e-05	-3.477721870523966e-05	0.002766045579047278	0.00950821406488093	0.014276986992295055	0.0020036435412625754
2
94600
Ar	0.00019569225534146883	0.00019161234240022525	0.0031802469109439187	-0.00611920093982285	-0.020923300575971023	-0.002029767474062273
Ar	6.978175489641965e-05	0.00010435935279631855	0.0027882637602969764	0.008017619892796896	0.012178637915183121	0.00159171481720929
2
94800
Ar	9.485971704934341e-05	-4.875225426354218e-05	0.0031853731658161495	-0.013505427910511474	-0.025634700087939992	0.0025955379788528605
Ar	0.00012374198418779473	0.00019091842497921167	0.0027830665472858497	0.002555888593459756	0.004658982253585794	-0.002191676100202859
2
95000
Ar	-5.383413140328235e-05	-0.00027544853080502366	0.003210507590238657	-0.014802363018868961	-0.017356745528726156	0.001670267530083513
Ar	0.0001175230594384594	0.00018647594508960311	0.0027629379689085515	-0.0037760878933182983	-0.005641789034055133	-0.0012616654530223181
2
95200
Ar	-0.00017402717615467564	-0.00036317676331596387	0.0032115061710107935	-0.008153909188254566	0.0005718808533997112	-0.0014885575126927638
Ar	5.413591080001299e-05	8.754846751316216e-05	0.002762633919425492	-0.008363965956943864	-0.013276586086131267	0.0011992083920012203
2
95400
Ar	-0.00020446898344518054	-0.00026838659046671135	0.0031872877670203444	0.002110682339080766	0.017214918549841765	-0.002660307360881743
Ar	-3.6193677242116103e-05	-5.650714265150242e-05	0.0027821655595644686	-0.008855193031600523	-0.014176091070191335	0.002183650526562613
2
95600
Ar	-0.00013904430973180274	-4.8970488623532864e-05	0.003179642145069412	0.010453250302721708	0.025329756730683183	0.0017667009235433188
Ar	-0.00010532978770486602	-0.00017011986461858725	0.002789126094906045	-0.004415147982097138	-0.007847875387653991	-0.0013947978934909064
2
95800
Ar	-7.857552725471405e-06	0.00020224563000134462	0.0032075246213516084	0.014656423922670855	0.022431544891335357	0.0026388619885822384
Ar	-0.00012069766521362271	-0.00020240979242929264	0.0027671611524691417	0.0014606581266055024	0.0019273105534382896	-0.00209457501330141
2
96000
Ar	0.00012728786837642168	0.0003556141105377785	0.003219371692501763	0.011090379302810288	0.006758107839806708	-0.0005348213042921571
Ar	-7.812742199082598e-05	-0.0001330435426743042	0.00275746247250132	0.006698244404999241	0.011318903965852981	0.00032023349843052126
2
96200
Ar	0.00019492789796413018	0.0003270731467186385	0.003199266657307216	0.0019451702189370403	-0.01195435418589823	-0.003049756290908112
Ar	2.69111504000581e-06	4.801236651048666e-06	0.0027723304326848722	0.008797195388903722	0.015037585827391425	0.002340897898439617
2
96400
Ar	0.00016708866838252906	0.00014209897968315644	0.003175501345282952	-0.0070442070122720525	-0.023459244075366648	-0.0004866384737958489
Ar	8.145701687613432e-05	0.00013985079905441916	0.002791328547263184	0.006118852927355528	0.010732397851865624	0.00041868110514641893
2
96600
Ar	6.281847289334763e-05	-0.00011347119088338391	0.003194052261563881	-0.01316700129298272	-0.025613440446491997	0.0030631977636781044
Ar	0.0001162922559100316	0.00020663760702927547	0.0027765612147788166	0.0007514348087861464	0.00204358229344778	-0.002418717783746976
2
96800
Ar	-7.384106755530991e-05	-0.0003211696194062496	0.003216493333119143	-0.012832540419144325	-0.013824584372767082	0.0009008668072700685
Ar	9.536528943204695e-05	0.0001731842405585924	0.0027591759373499273	-0.004785589253240124	-0.008490211960135953	-0.0006971282730581086
2
97000
Ar	-0.00017085635355906025	-0.00036466259858318007	0.003208892246377347	-0.005737796680075534	0.005398714826362977	-0.002242849743013691
Ar	2.8411394315617206e-05	5.11726405462919e-05	0.0027649546070934216	-0.008073820416238664	-0.014837113281464615	0.00173315443929265
2
97200
Ar	-0.00018105674492577677	-0.0002277456407683318	0.003182314517997092	0.003542562343376092	0.02051666834405943	-0.002116710910527029
Ar	-5.244364889906685e-05	-9.763559529330598e-05	0.0027861563469267635	-0.0072942323028929645	-0.013446367920485494	0.0017391315882988585
2
97400
Ar	-0.00010807288447558162	1.543324260109557e-05	0.003185072076746238	0.010683141906698505	0.026670565868475698	0.002466098458178613
Ar	-0.00010374439435288813	-0.00019633146754637225	0.0027838559190563545	-0.0027188821542311337	-0.0057602985240130375	-0.0020275519512721603
2
97600
Ar	1.776136957256695e-05	0.00026101708833667375	0.003210721167834457	0.013318929900884258	0.01992197199679378	0.0018014627237097746
Ar	-0.00010399348373084055	-0.00020175969225470614	0.0027633860639307227	0.0026895884197072027	0.00492387662116244	-0.0014249768588612808
2
97800
Ar	0.00013369627051410413	0.0003753300207551285	0.0032129060115643877	0.008786370849633872	0.001954030438875716	-0.001384316702574198
Ar	-5.4110772188235915e-05	-0.00010532549633020496	0.0027616973158137957	0.006862529342681728	0.013497599316442845	0.0011253357677688156
2
98000
Ar	0.0001794416573839242	0.00030012144889484435	0.0031888403473824055	0.00012393039086109662	-0.016016063913815548	-0.0028200590920585515
Ar	2.211035431313917e-05	4.506740199974826e-05	0.0027814830059129767	0.007714084176719273	0.015178420715471702	0.0023838648998762485
2
98200
Ar	0.00014001156785167505	8.512635580477837e-05	0.00317697831001356	-0.00760821430113459	-0.025572418153448746	0.001375352499749046
Ar	8.507984500569731e-05	0.00017044292860679433	0.00279230197994662	0.004262763646195273	0.00902615355754314	-0.001048279559127741
2
98400
Ar	3.59644719210271e-05	-0.00017749822799415107	0.003205073965812959	-0.012403259643157414	-0.02447528325524497	0.002995601318438552
Ar	0.00010348706708201828	0.00021418674134265293	0.002770049207004081	-0.0006942854345306587	-0.0009141726611608975	-0.0023759335765362066
2
98600
Ar	-8.614281357439144e-05	-0.0003561591210103933	0.00322139318957323	-0.010869511182632003	-0.00952276838680294	-7.459800163531751e-05
Ar	7.209632297286789e-05	0.00015122494639464282	0.0027566801398240656	-0.005309726181636592	-0.01111465644440243	-6.836758077583304e-05
2
98800
Ar	-0.00016221604631604247	-0.0003524263263117672	0.003204615126889672	-0.0037294226707336154	0.010012580614917428	-0.002956596883808917
Ar	5.632735063983787e-06	1.0576173896942656e-05	0.0027686310258135103	-0.007405052823920359	-0.015773370117251207	0.0021916564873555927
2
99000
Ar	-0.00015798056823311337	-0.00017844092680742793	0.003177893407517349	0.004320220768993847	0.02319446305502919	-0.0011964813716263422
Ar	-6.351068792597551e-05	-0.00013533878784554993	0.0027891826688430346	-0.005643927811585019	-0.011994286659332045	0.000911623288537608
2
99200
Ar	-8.218456343758546e-05	8.200942384976976e-05	0.003190101189977444	0.010441511611365232	0.02696845955109876	0.002739276665635231
Ar	-9.800817165810882e-05	-0.00021355640725671191	0.0027787962978280778	-0.001104596909874852	-0.003106497616479706	-0.00219323414025479
2
99400
Ar	3.4768297554946757e-05	0.0003112347800907562	0.0032122085934488116	0.011816746128999021	0.016517149868627692	0.0010662834890746683
Ar	-8.497388142982698e-05	-0.00018868541388229924	0.0027620166849119405	0.0036448958191515014	0.007911748430819448	-0.0007377908617632471
2
99600
Ar	0.00013245113495813276	0.0003818846794311273	0.0032075042472244487	0.006847317614383611	-0.0029359630131105953	-0.0019007263010693827
Ar	-3.113486533528524e-05	-6.85624747671235e-05	0.002766997866306751	0.006706940901037977	0.015073379343242394	0.0016422234857052407
2
99800
Ar	0.00016190127344555818	0.00026231853382574895	0.0031828244204980313	-0.0010190057687575822	-0.01960265380593329	-0.0021642425960506943
Ar	3.797992790892484e-05	8.676738179851418e-05	0.002788218477115538	0.0064558272986787015	0.014439336572562116	0.0019218379659525166
2
100000
Ar	0.00011700179657630714	2.1401606717348952e-05	0.003184317205627261	-0.007735317679933079	-0.02720402271447681	0.0025479808397329906
Ar	8.513937793487727e-05	0.00019619603953227604	0.00278791461094926	0.0026738891300240163	0.006869709831877708	-0.0020810811848438267
2
100200
Ar	1.6316982995916803e-05	-0.00023904945604140594	0.003213364662347755	-0.011513904402522377	-0.022231874871789785	0.0022587986452823985
Ar	8.939186136675583e-05	0.0002122867374090101	0.0027640888362153804	-0.0018423926973674223	-0.004004608660357047	-0.0019137101864136043
2
100400
Ar	-9.204054624155385e-05	-0.00038031300827632273	0.00321930889862869	-0.009170786143843914	-0.004727501147678446	-0.0011965717491726217
Ar	5.0720204010148885e-05	0.00012142820729945945	0.0027572622100498104	-0.005558226748406274	-0.013339646082731442	0.0006373677785150713
2
100600
Ar	-0.00015140103885947603	-0.0003281360295081421	0.003193985296423741	-0.002293533442156225	0.014404533888588268	-0.0032747334179418033
Ar	-1.2859538873117891e-05	-3.202284433987474e-05	0.0027743274148822623	-0.006623848663225019	-0.015945887963697974	0.0023828630264426274
2
100800
Ar	-0.00013787388576636366	-0.00012110833244607106	0.0031739841837943854	0.004746847029020462	0.025495137571074175	0.00034868248084559637
Ar	-6.883262190840354e-05	-0.0001677017300907468	0.002789269530054633	-0.003969578282378196	-0.010072571414213008	-0.0003257574488629718
2
101000
Ar	-6.155335637558384e-05	0.00014943675631568922	0.0031964176616489873	0.010032666732287298	0.026211522455037	0.0028995786365809927
Ar	-8.772084251676758e-05	-0.00022191998984868924	0.0027717162502894467	0.00021700911673280845	-0.000143697990837716	-0.0021266559817684056
2
101200
Ar	4.589743677360141e-05	0.000352160795427805	0.0032151022735960808	0.010431046533180765	0.012326361258666034	0.00044761656637097287
Ar	-6.494117099498728e-05	-0.00016720907655472543	0.002759727549772269	0.00416279392065239	0.010606289212589793	-3.340245534092808e-05
2
101400
Ar	0.000128235357477472	0.00037480354693328625	0.00320417958514324	0.005303818408353793	-0.007829946890525318	-0.002354061995375531
Ar	-1.1157654946215522e-05	-2.7783781735591565e-05	0.002770954535065471	0.006175275423951948	0.016082366894133986	0.0020988498020735645
2
101600
Ar	0.0001454542421773639	0.0002147245265586615	0.0031806200366785893	-0.0017934401548848889	-0.022548064766085132	-0.00126320014261258
Ar	4.803762996768899e-05	0.0001257195242321299	0.002791546316284965	0.005025033962386934	0.013128614098192623	0.0011302529687106317
2
101800
Ar	9.656905948404469e-05	-4.657451476259241e-05	0.003192197031204606	-0.007808381656880168	-0.027974602412504792	0.0028483527140152364
Ar	8.000256115757798e-05	0.00021563563947717024	0.0027815585367727746	0.0012665198276974766	0.004352714814621243	-0.0024692193277853257
2
102000
Ar	5.495605212846725e-07	-0.0002946614638000197	0.0032161257457325844	-0.010490221268294445	-0.01911892535003242	0.0012660762765236654
Ar	7.28963704926293e-05	0.00020206608802475002	0.0027604658653358795	-0.0026221682946607236	-0.007074950713012473	-0.001228235681136813
2
102200
Ar	-9.441637378639814e-05	-0.00039289540706174774	0.003211909432532442	-0.007623310657830552	0.00029302157712251425	-0.0020464211679765707
Ar	3.1521806762917666e-05	8.599494930021065e-05	0.0027611100560277855	-0.00531750937541802	-0.015128377252807917	0.0013465814205621761
2
102400
Ar	-0.00013971138605049912	-0.00029383638778553644	0.0031833774995563254	-0.0011856980800729077	0.018297942032844194	-0.0028241763574956133
Ar	-2.4758035408481535e-05	-7.457500036349932e-05	0.0027822042185968194	-0.005431447767462579	-0.01544212855653066	0.0022533877089444786
2
102600
Ar	-0.00011990734013020996	-5.845034882544891e-05	0.0031770973173339064	0.0049758188057218225	0.027422234225427024	0.002057868947245545
Ar	-6.600429462949987e-05	-0.00019535227685281163	0.002787882982507678	-0.0024576742608074355	-0.00799805138022454	-0.0015537241537929712
2
102800
Ar	-4.4919062012912974e-05	0.00021398560712141166	0.0032064789301231825	0.009426303735516787	0.024356697752241363	0.002698424581189005
Ar	-7.276885675449351e-05	-0.00022307683973898208	0.0027664185658995734	0.0011312724316859418	0.0029197172864444333	-0.0018733048857574996
2
103000
Ar	5.2116529228304355e-05	0.0003815341577693727	0.0032184161825985973	0.009047522321298244	0.0075534200611558616	-0.0005260733966746167
Ar	-4.5190934671684924e-05	-0.00013966799533190802	0.0027593111658726337	0.004151921540086963	0.01303239688919599	0.0005831010731084128
2
103200
Ar	0.00012067892367917073	0.0003542017624376481	0.00319866975539749	0.004127490389493725	-0.012509495093157377	-0.0029358657053099664
Ar	4.060992163375589e-06	1.556238800524479e-05	0.0027758011842977225	0.00527260450031851	0.016642595550925794	0.002359403856512047
2
103400
Ar	0.0001303448018061041	0.00015802866910981456	0.003177562204817671	-0.0020748184373164864	-0.025137966502405032	-0.00013711700520573956
Ar	5.06259688071236e-05	0.0001622441286841546	0.00279255075435332	0.003477517832729284	0.011357222819413393	-1.2766157397199454e-05
2
103600
Ar	8.146265794148288e-05	-0.00011747908186728787	0.0031966723483586295	-0.0074784051055987585	-0.027645450983106605	0.002794613574206676
Ar	6.876592065425473e-05	0.00022916391409222268	0.002775188597711404	0.00016562627887567767	0.0013828930688728055	-0.002424271086431144
2
103800
Ar	-7.519905405085658e-06	-0.00034194757508658436	0.003215277699011698	-0.009476644129938842	-0.015023723858533462	0.0004817310569901811
Ar	5.427389059313762e-05	0.00018421399025967747	0.002758940563383364	-0.0029313689911605574	-0.01001197275444959	-0.0005127171474134983
2
104000
Ar	-9.12422297268864e-05	-0.0003911222880282054	0.0032043777901291487	-0.006469776453207464	0.005465583717903018	-0.0024481887448969506
Ar	1.4125281900301736e-05	4.59530535741757e-05	0.002766653250406689	-0.004741956664277113	-0.0164673896263701	0.001901277087049827
2
104200
Ar	-0.00012761321149184986	-0.0002479823854814376	0.0031782282563329474	-0.0006658926293294031	0.021594820061778482	-0.0017427845618876376
Ar	-3.2354251337054314e-05	-0.00011566978392248626	0.0027881497692418917	-0.004063388155411978	-0.014270813824266669	0.0015589864452313282
2
104400
Ar	-0.00010604895769363688	1.0558451821540642e-05	0.0031864197368734397	0.004916895819544085	0.028521122393746077	0.0029203775226788473
Ar	-5.89706107683464e-05	-0.000217211712016868	0.002782921100591409	-0.0011598949298688235	-0.005517378667261624	-0.0022351727808717805
2
104600
Ar	-3.4598732498968954e-05	0.00027335714096105837	0.0032143848769456526	0.008755044303059891	0.021382685409499898	0.0018497919170329458
Ar	-5.603874974525146e-05	-0.00021455720084970317	0.0027619142517122802	0.0017097522313988692	0.006175499201230848	-0.0013511265322135274
2
104800
Ar	5.3486423520257346e-05	0.00039771739683327773	0.003215965317351909	0.008031635450268682	0.0023995708586581526	-0.0015374985705315135
Ar	-2.7187183845227828e-05	-0.00010362316735007422	0.0027609568921122597	0.0038339633421484143	0.01503747704265063	0.0011740224096077644
2
105000
Ar	0.00011262127429180896	0.00032106658375544676	0.003189869992492712	0.0033464957094200207	-0.016726750454646527	-0.002963070585746525
Ar	1.4510581735367289e-05	6.0873992793857274e-05	0.002781009766294823	0.0041548843938901455	0.016337828830167607	0.0023103214544136714
2
105200
Ar	0.00011842117466185855	9.407884454245769e-05	0.003178091532784654	-0.0021257434589839826	-0.02723619071668405	0.001368042193779441
Ar	4.72189793615323e-05	0.00019276947861615083	0.002789717923089272	0.0020456958735939387	0.009155107352741982	-0.001228486811098261
2
105400
Ar	7.085030618495055e-05	-0.00018590879130962078	0.0032035603743069217	-0.007104244079694307	-0.026039261679299208	0.0025445343732340034
Ar	5.425252905586354e-05	0.0002321075145675628	0.0027687326048253377	-0.0006030056291178626	-0.0018837084462447564	-0.0020360154273082963
2
105600
Ar	-1.1553972737563902e-05	-0.0003762987185475146	0.0032157880197218255	-0.008616876983001618	-0.010210583836449332	-0.0003534645426179809
Ar	3.6260574648683505e-05	0.00015625929344028833	0.0027590333978274807	-0.0028698496871030254	-0.012631884117818837	0.00027179728490493217
2
105800
Ar	-8.622072244733608e-05	-0.0003737897741471446	0.003198157201180798	-0.005678427453134221	0.010428389960831168	-0.0027814806344570275
Ar	1.037106115377826e-06	1.304555365685806e-06	0.0027731855430981837	-0.003866409225832437	-0.017041599393526074	0.0022785042431502094
2
106000
Ar	-0.00011756755014433007	-0.00019155852544172424	0.003176300381572848	-0.0005502798307369878	0.02436395186299173	-0.00041264290780875364
Ar	-3.4063290876869604e-05	-0.00015329837442702292	0.002791898881596168	-0.0027150745560037305	-0.012401876102780115	0.00045986445790669
2
106200
Ar	-9.68925710240267e-05	8.331698460600625e-05	0.003195168285088468	0.004702732660373516	0.02849758392622198	0.0030775176183070745
Ar	-4.8495835023498354e-05	-0.00023134793653548387	0.0027772489349801805	-0.00021793318735108158	-0.0025969982950925954	-0.0024092061406440013
2
106400
Ar	-2.972853390639958e-05	0.0003249361524049988	0.003217565536306607	0.008100031129644195	0.017392941102672217	0.0008481591690248027
Ar	-3.9498295087835454e-05	-0.00019712013044797424	0.0027597042916128935	0.001961267890795706	0.009194303483631193	-0.0007159183739608076
2
106600
Ar	5.060731163156345e-05	0.00039970603673224637	0.0032090951034129574	0.007233348216446186	-0.002984863718599722	-0.0023722846890151814
Ar	-1.2290412574210877e-05	-6.320588062302504e-05	0.002765293308466803	0.0032888621882592025	0.016442307118391827	0.0017241172400166663
2
106800
Ar	0.00010337654217410075	0.0002760046750107787	0.0031808275557558595	0.0030016797215917297	-0.020326482427960094	-0.0023125532355269857
Ar	2.0891461131640597e-05	0.00010297188510416338	0.0027866703133317353	0.0030070924445474174	0.015161597264608183	0.001829768462330234
2
107000
Ar	0.00010902754448930287	2.4062854354057584e-05	0.003182452397031279	-0.0019319355015984456	-0.028599724403881293	0.002534808793984992
Ar	4.078343956243082e-05	0.00021477284610386322	0.002784862335456195	0.0008636614395998472	0.0066079395140072154	-0.002110602830619965
2
107200
Ar	6.458527378415448e-05	-0.00024930869357624256	0.003209956532512274	-0.006625479073780268	-0.023309123863773665	0.0020628035019702156
Ar	3.9340160502410434e-05	0.00022365315036151312	0.002762940550501194	-0.0010832161970489645	-0.00512857810654599	-0.0015630495677126982
2
107400
Ar	-1.1491574373174799e-05	-0.0003974582708463984	0.003214874288586439	-0.007901343344097603	-0.0049911678637851765	-0.0011556883997826293
Ar	2.054952828491631e-05	0.00012019379289698882	0.002759766175896191	-0.00252952989509586	-0.01465293195060307	0.0009645164834253703
2
107600
Ar	-7.917040217351642e-05	-0.0003435154032288411	0.0031919194350941336	-0.00508348975137209	0.01495621392993721	-0.0028549947933391106
Ar	-7.555799780619745e-06	-4.476229913977515e-05	0.0027787728506182196	-0.0028921823004110178	-0.016839745376312245	0.002380909976492946
2
107800
Ar	-0.00010784642151318584	-0.00012841477034938122	0.0031777721080358395	-0.0005823938408480144	0.026593532869327842	0.0009741527288473463
Ar	-3.080253875416114e-05	-0.00018512870808673547	0.0027908093538095147	-0.0014601236115650846	-0.010140952106928775	-0.0008004738360187821
2
108000
Ar	-8.887008079097999e-05	0.00015381006640939162	0.0032023138125129667	0.0043818723574266995	0.027255543956585228	0.0027419050136752326
Ar	-3.592061124961375e-05	-0.0002352895487468686	0.0027707870047498106	0.0003526585497366918	0.0007453042377499328	-0.0021820619504887766
2
108200
Ar	-2.6888318963288874e-05	0.00036406392841776175	0.003217294601220614	0.00746737301995154	0.012769506903715162	-8.094446847925397e-05
Ar	-2.502248085906029e-05	-0.00016915034981895195	0.0027589334239160115	0.0017458616466905345	0.011898377037011581	1.9238921326725382e-05
2
108400
Ar	4.665397239235445e-05	0.00038750187330366376	0.003201243349760976	0.006585368775991392	-0.00806616589942782	-0.002774394187264571
Ar	-2.8802888517798138e-06	-1.7115185137480807e-05	0.0027708812069579813	0.002524149643211414	0.017187262957831535	0.002143861161423716
2
108600
Ar	9.539431388369981e-05	0.00022279741732244025	0.0031765539912595587	0.0029080797963213847	-0.023210517315081503	-0.0010076987011434007
Ar	2.080492841966982e-05	0.00014331695463290264	0.0027905152235208246	0.0018920787401590163	0.013306540878258527	0.0008464273964790205
2
108800
Ar	0.00010187091960119031	-4.699797261020638e-05	0.003191576546129129	-0.001788375351357982	-0.028872025433636487	0.003079184061453576
Ar	3.0839635647505105e-05	0.00023095344561984508	0.002778321882010841	0.00014996176453331176	0.003649945480036615	-0.0025056110004530174
2
109000
Ar	6.0176286160079046e-05	-0.0003023894988686952	0.003216577571780948	-0.006209757599913841	-0.01961734663509885	0.0012827255476173716
Ar	2.5861863829197465e-05	0.0002072030383637816	0.0027585586992324167	-0.0010963531709420134	-0.008312104287078596	-0.000986638197387833
2
109200
Ar	-1.1028151358574427e-05	-0.00040293553800740126	0.0032122531628888096	-0.007370293914159058	0.00032010607798698277	-0.0020351720186092158
Ar	9.98533136922116e-06	7.869334735243539e-05	0.002761927921279841	-0.0019356972823618818	-0.016285343736114132	0.0015877179564676516
2
109400
Ar	-7.469288163710122e-05	-0.0003015876382790229	0.0031847292504757164	-0.0048864337552652955	0.018714032606551873	-0.002628418962717804
Ar	-1.0148223538762364e-05	-9.04632745061963e-05	0.0027839162323026376	-0.001910699212193687	-0.015903065240831564	0.002174709451489061
2
109600
Ar	-0.00010392560277240497	-6.014264321318057e-05	0.0031810742030227326	-0.0007714235338432563	0.028185306994885907	0.002123003859917502
Ar	-2.3275130710800117e-05	-0.00021162697975796358	0.0027874951428449	-0.0005545645380154099	-0.007644891697382979	-0.0016798934692504816
2
109800
Ar	-8.65795845946883e-05	0.00021911941027124966	0.0032079254908149173	0.00420750310403714	0.02487479507302556	0.002240504862217008
Ar	-2.2758948367848684e-05	-0.0002313852945183439	0.002766606673652756	0.0005802580610050145	0.0040552986561293814	-0.0017160444583383249
2
110000
Ar	-2.6519164938737484e-05	0.0003901675604666843	0.0032152751873436303	0.007240932121123944	0.007698786803577546	-0.000898777141773678
Ar	-1.2763316245104932e-05	-0.00013593490469929745	0.0027609606049886657	0.0013440610570512113	0.014183142255605857	0.0006728875288747003
2
110200
Ar	4.536466662877966e-05	0.0003622760693070456	0.0031936411091607305	0.006510197062926652	-0.012719046004715519	-0.0029231523045062657
Ar	2.3390793321386866e-06	2.8656589309698897e-05	0.002777649330927937	0.0015842850031969563	0.017250537575552262	0.0022836381397708812
2
110400
Ar	9.44612728187481e-05	0.0001628465481061185	0.0031763950343684086	0.0031128067070867395	-0.02562952111994372	0.0005567777962423103
Ar	1.568393941361104e-05	0.00017661485412406516	0.0027913634596510805	0.0008539392387072614	0.01109473126498836	-0.0004867621088710968
2
110600
Ar	0.00010273681274754381	-0.0001181864467304252	0.0032002208893089274	-0.0017063057519399233	-0.02815448693882252	0.0029829447012455716
Ar	1.7981962694464256e-05	0.00023767308985663484	0.002771662226373064	-0.00023862509538438888	0.0004948580495825242	-0.0023891650456672946
2
110800
Ar	6.167406799815965e-05	-0.0003464658746824773	0.0032184007265944545	-0.00615304311907841	-0.015276978806147118	0.0002833601645691492
Ar	1.2593439629106595e-05	0.00018258565543300084	0.002757017150128915	-0.0008210075839933553	-0.011053217122824366	-0.00022613383178871364
2
111000
Ar	-9.400110608330832e-06	-0.00039680667745061403	0.003204719621853264	-0.007384880240997507	0.00549769882904974	-0.0027364358273174808
Ar	2.5147663850504734e-06	3.483096179897508e-05	0.0027673560340391637	-0.0011242309180012093	-0.01722332786935424	0.002110862626316715
2
111200
Ar	-7.358963632913449e-05	-0.00025219286232816296	0.0031772172751413836	-0.005026246936359101	0.0218632239457138	-0.0016450064259821405
Ar	-7.946713526584563e-06	-0.00013109965485594315	0.002789286914300133	-0.0008376865247698926	-0.014281449831074686	0.0013876483055434456
2
111400
Ar	-0.00010568203012695883	1.0536054007612783e-05	0.003187248901531567	-0.0010668922778980104	0.029038301399985228	0.0029547312590786383
Ar	-1.1272245601906717e-05	-0.0002296139821706561	0.002781853301479778	0.00016302714358138191	-0.004890272915358696	-0.0023057115205316276
2
111600
Ar	-8.982072747963573e-05	0.0002775003602451219	0.0032139054157242796	0.004196980825141031	0.021654631132088157	0.0016251927135678638
Ar	-8.246332221674926e-06	-0.00021805231508771522	0.00276194718175219	0.00041702587099523585	0.0072375083273404405	-0.0011500369997798925
2
111800
Ar	-2.8983174210228e-05	0.00040331150079851496	0.003213426641374468	0.0073670412700115664	0.002419962696438509	-0.0016836392927396322
Ar	-3.504500547943268e-06	-9.705426116821929e-05	0.0027630645450769657	0.0005174510805210962	0.01592354287786414	0.001336206660729525
2
112000
Ar	4.426805358923926e-05	0.00032566306938108553	0.0031876618902648667	0.006666824959936696	-0.01689367521813676	-0.0027119514658274675
Ar	2.056998592162501e-06	7.370569873485658e-05	0.0027836735776438997	0.0005581701737205172	0.01659152394478552	0.0022036139370067397
2
112200
Ar	9.630518264341671e-05	9.629993629401019e-05	0.003180368582507354	0.003494446475620147	-0.02759570934001264	0.0017951396784370546
Ar	5.134466686077998e-06	0.00020413376417298314	0.0027892983469394376	-6.638370161111417e-05	0.008690486057920346	-0.0015367688471798363
2
112400
Ar	0.00010678001193726257	-0.00018672217715105693	0.003206947857766471	-0.0016583387726551988	-0.02626022131645926	0.0024107386464881633
Ar	3.0493544232669826e-06	0.00023577452568509483	0.0027672166943170885	-0.0002090545850157983	-0.002858154332342766	-0.0019824535787477345
2
112600
Ar	6.488095039884623e-05	-0.00037860729865224415	0.0032163431897017348	-0.00632279221354386	-0.010289615562581133	-0.0007181643174754365
Ar	2.0046578459594155e-06	0.00015033580797637765	0.0027584977027250023	-3.6743658631802726e-05	-0.013471191542334596	0.0004139036914568207
2
112800
Ar	-7.952344173524883e-06	-0.00037644614960905286	0.003195588007224992	-0.007561535352305082	0.010431038460657132	-0.00295139525571359
Ar	1.8949867687515096e-06	-1.1346772025724314e-05	0.0027735923515357	-3.6824973073033065e-05	-0.017453029536998052	0.0022896773266535453
2
113000
Ar	-7.489877003363495e-05	-0.00019417430463865835	0.0031748461333286244	-0.005494770641806924	0.024418631164827467	-2.7163983143049096e-05
Ar	1.4546042485589564e-06	-0.00016625377057730362	0.0027905609472271865	5.124464164261348e-05	-0.01206445722053378	0.00010745072277364548
2
113200
Ar	-0.00011078127909541981	8.205043608840675e-05	0.0031962379276312468	-0.001214334339633471	0.028627116685300203	0.003139852587301161
Ar	3.8107890221861183e-06	-0.00023805645228378182	0.0027744207180380506	0.0002191758551435281	-0.0016658720537697325	-0.002309990949507664
2
113400
Ar	-9.434134105114572e-05	0.00032458375193041017	0.0032181801863301277	0.004370387412676266	0.01748346327461022	0.000764160723401608
Ar	3.7553745609521405e-06	-0.0001936540971062393	0.002759024921609342	-0.0002254944467312517	0.010173023670445275	-0.0004186228399686984
2
113600
Ar	-3.126144794583444e-05	0.000400240255243369	0.00320889478826554	0.0076295268924155	-0.0028984254217396628	-0.0024424233754975614
Ar	-4.926638230275261e-08	-5.144590181200417e-05	0.0027676073886833885	-0.0004979727620367002	0.017061513113461782	0.001989960899594539
2
113800
Ar	4.5176403669575606e-05	0.0002774281025703036	0.003181160284615442	0.007079777859228887	-0.020212607627867207	-0.00206667627055446
Ar	-4.606139139527788e-06	0.00011736700013800856	0.002790039513174533	-0.00038512461466491227	0.015013915921393313	0.0016918023092104002
2
114000
Ar	0.00010258351773164769	2.567207729702231e-05	0.0031857654592993023	0.00397118106637663	-0.028639244853839767	0.002623319782900596
Ar	-9.147218522276379e-06	0.00022443413643230984	0.002785500342161148	-0.0004839539891698778	0.005874321154455327	-0.002271049197419597
2
114200
Ar	0.00011499585010313606	-0.00024752896586349786	0.0032118112549355316	-0.0017285561626680438	-0.02322610846298502	0.0017578367166968568
Ar	-1.0727604257312561e-05	0.000223813155923289	0.0027631579230633714	0.00024724991798593423	-0.006157008152780476	-0.001548544654665526
2
114400
Ar	7.071317874925959e-05	-0.00039525877375581013	0.003213402133129801	-0.006715640750474856	-0.004991054403484992	-0.0014721255088455275
Ar	-4.7590820767034715e-06	0.00011109148851265567	0.0027600309655100895	0.0008665434084244168	-0.015415353963232849	0.0009507236036723888
2
114600
Ar	-7.344188267945316e-06	-0.0003421381892628463	0.003188629188283504	-0.0081923938820655	0.014772059432483732	-0.002804418333133252
Ar	4.567568252643803e-06	-5.8485028121249293e-05	0.0027786211806550168	0.0009080349194243951	-0.0169306928803289	0.002275837344766349
2
114800
Ar	-8.138349520146855e-05	-0.0001286506330171199	0.0031779468176730483	-0.006239714044521484	0.026515353004101957	0.0014535899012749162
Ar	1.2668162186427418e-05	-0.00019589584540805196	0.0027881511937839537	0.0007691684297325739	-0.009555180068124534	-0.0010545099184379725
2
115000
Ar	-0.0001218427536944946	0.00015253781999168174	0.0032043735798982617	-0.0013075682348220534	0.027071920212440335	0.002677586917859854
Ar	1.7632783992113393e-05	-0.0002378623994105472	0.0027687179837390546	2.224566366827891e-05	0.0016963009015741846	-0.0018793840510210689
2
115200
Ar	-0.00010307331028942376	0.00036109646503116764	0.0032173610501601974	0.004903625058641652	0.012623244820953037	-0.00034414569438259257
Ar	1.2205596423076567e-05	-0.0001625484615971907	0.0027603931506051498	-0.0010252519171554037	0.0127155809578897	0.000363905460637531
2
115400
Ar	-3.323584514249364e-05	0.0003841154777710023	0.003199210893921327	0.008372931882951967	-0.007974881786121765	-0.002913581769827154
Ar	-9.395641680286532e-07	-4.804541820017022e-06	0.002775132837766348	-0.0014649077977883242	0.017447477838466195	0.0023002906111524632
2
115600
Ar	5.0577814846891405e-05	0.00022192203352369973	0.003175693973687223	0.007849805219950377	-0.022903190152442396	-0.0005848561488075311
Ar	-1.421938676057246e-05	0.00015400599701409395	0.002793994663225376	-0.0011371313168810375	0.012778648498021706	0.00043587647264599225
2
115800
Ar	0.00011447872774650639	-4.529348799766961e-05	0.003194106514319528	0.004273889354829547	-0.028588055489435445	0.0031700845935833397
Ar	-2.3646400618559577e-05	0.00023435029758426352	0.00277798036246457	-0.000542170164571708	0.002747620818237576	-0.0026590098066472372
2
116000
Ar	0.0001256267078118606	-0.00029763744146198455	0.0032180374987909703	-0.0022367033835570217	-0.019317809899718385	0.0010489761723456463
Ar	-2.1587638373688602e-05	0.00020116149203907606	0.0027576030058308046	0.0009208832837415939	-0.009172809781617785	-0.00100096442247214
2
116200
Ar	7.380684739311328e-05	-0.00039647198446709445	0.0032110941499316546	-0.007606718349432458	0.000334081028282461	-0.0022594789081156062
Ar	-6.848911597808059e-06	6.626151699393878e-05	0.00276098780664395	0.0018820713901909216	-0.01663677360744508	0.0015840845583352113
2
116400
Ar	-1.269020294486547e-05	-0.0002968191383523855	0.0031825155124452125	-0.00893255145018157	0.01835526752840187	-0.002501515711661573
Ar	1.232929813538845e-05	-0.00010291251896550335	0.0027824183652036534	0.0017461586540347019	-0.015539530589606687	0.0020048232361134038
2
116600
Ar	-9.363824768530333e-05	-5.916907464270717e-05	0.0031814138178027896	-0.006780855235989089	0.027795181057414426	0.0022524642353011393
Ar	2.7200113009900124e-05	-0.0002177635454331444	0.0027837925165673898	0.0011521730112739198	-0.0067913946725569226	-0.0017016768095922915
2
116800
Ar	-0.0001347901419984694	0.00021522960529381092	0.003207221897909649	-0.0009059362219775952	0.02436588501950643	0.0020143863549038064
Ar	3.077568452644727e-05	-0.00022767230862907398	0.0027654920693253033	-0.0005752699716188781	0.005052309752096949	-0.0012786943571566753
2
117000
Ar	-0.00010901187261383147	0.0003819708456545505	0.003212575661321366	0.005813617360602965	0.007455249248909941	-0.0010184890430649078
Ar	1.6614768539104597e-05	-0.00012432509432832897	0.002764303085426104	-0.002121727847596491	0.01471246023103714	0.0010804148982407036
2
117200
Ar	-2.9716100300796993e-05	0.0003542450937576048	0.003191408218343245	0.009297204306910624	-0.01243989082153768	-0.002643306387188569
Ar	-7.51300598565423e-06	4.18682711077934e-05	0.0027831803182559044	-0.002435362946840272	0.01700809312815971	0.0022700911739354434
2
117400
Ar	6.269338899920538e-05	0.0001596688482460049	0.0031794264117241504	0.008671639108858443	-0.025044553735224045	0.0011894250577931015
Ar	-2.8261597274873063e-05	0.0001839271179173542	0.0027931911413568446	-0.0017016363682415838	0.010255323156339903	-0.0010785465402444378
2
117600
Ar	0.0001307026791855419	-0.00011464123993842437	0.0032057273668391574	0.004125490036094924	-0.02738929825967226	0.002844542195874429
Ar	-3.8489155014587304e-05	0.00023505461584544173	0.0027700770808383626	-7.494292514028524e-05	-0.0006044209601702367	-0.002492988572712269
2
117800
Ar	0.00013578189277009369	-0.000336190550901023	0.003220601023431898	-0.0031897733447886793	-0.014764928874210995	-0.0001853623254126143
Ar	-2.8278289209709864e-05	0.0001704594328384434	0.0027553944740224866	0.0020152497444209105	-0.011764136566492856	-0.00020297730909778905
2
118000
Ar	7.296193170647759e-05	-0.0003843610008546372	0.00320268780687415	-0.008747364425526476	0.005373615929816063	-0.003045614046025262
Ar	-1.876158557264324e-06	1.985367837764082e-05	0.0027662016816376446	0.0030099650112419903	-0.017093381712870868	0.0021473202471269538
2
118200
Ar	-2.3582217425177064e-05	-0.0002445781774758611	0.003174873603063325	-0.009834132231557519	0.021089024563124326	-0.0013634850723659713
Ar	2.6300431029293565e-05	-0.00014078219230166214	0.002787626178942114	0.00239955242793486	-0.013383677442396534	0.001159226033055866
2
118400
Ar	-0.00011247492600960943	1.0019984222079594e-05	0.0031873607368737246	-0.0071850305487853195	0.028108188426144723	0.003003066698180008
Ar	4.432864855189877e-05	-0.00022892448671953556	0.0027791551594209185	0.0009814907933471265	-0.003736895672309441	-0.0021090559720949023
2
118600
Ar	-0.00015130088177434028	0.000267267881218478	0.0032130143331177492	-0.00011880349550197794	0.020783226159632625	0.0014640310480561844
Ar	4.14869288184635e-05	-0.00020696461984496994	0.0027626164745532433	-0.001556436209904278	0.008024452926491872	-0.0007668488754633853
2
118800
Ar	-0.00011399443864182633	0.00038775449755552085	0.0032113241984490443	0.007172177682193013	0.0022714204620477617	-0.001738373364361334
Ar	1.6316849814057894e-05	-8.172903258279988e-05	0.0027669290039213017	-0.0032708806583884534	0.015934209893091814	0.0015553144569554161
2
119000
Ar	-2.1617741289094226e-05	0.0003133833309356076	0.0031863433788699527	0.010428204468878589	-0.016126711274535136	-0.0024344134694949454
Ar	-1.7922170656528184e-05	8.49407496918195e-05	0.002787456894175696	-0.003233008657101913	0.01575440895315287	0.001891762578822157
2
119200
Ar	8.071963435417154e-05	9.39218654368284e-05	0.0031834396635245905	0.00943650490300775	-0.026498189470600102	0.002095352637100753
Ar	-4.4305993391395276e-05	0.00020532096799038115	0.0027878250451675445	-0.001975772148708635	0.007604503759937738	-0.0019954173977799064
2
119400
Ar	0.00015022822340591218	-0.00017737410417237702	0.003209579438410218	0.0036633541973409268	-0.0250811895326868	0.00214225647878528
Ar	-5.184118979271286e-05	0.0002260955253726404	0.002764063686635346	0.0006833030915747514	-0.0038032902873676227	-0.0019440417645316779
2
119600
Ar	0.0001455104254741132	-0.0003603805966436188	0.0032155599589062077	-0.004539943031683571	-0.009817104087141976	-0.0010596994104007142
Ar	-3.114480129351564e-05	0.00013441053989065202	0.0027570104643872754	0.0032475384418661755	-0.01374654852461626	0.0006250976235322341
2
119800
Ar	6.849021019375426e-05	-0.00035877371480172936	0.003192423641508191	-0.010101405651428487	0.009833225643391745	-0.003037911731975498
Ar	7.0414465937928635e-06	-2.543087262520016e-05	0.0027741515485760165	0.003997345588489218	-0.01682314589798237	0.0024499310773466784
2
120000
Ar	-3.9957323673530094e-05	-0.00018640094773815199	0.003174209894538839	-0.010894134144899292	0.023208501019150216	0.0004804623101915235
Ar	4.18882299767938e-05	-0.00017034193862771688	0.002790621435010351	0.0028121038667341474	-0.010873187839474758	-0.00013892718568879518
2
120200
Ar	-0.0001352461459243552	7.679322263416606e-05	0.003198551958464859	-0.007169392411904627	0.027232959898583004	0.003131445307590155
Ar	5.996021866518552e-05	-0.00022994568775050263	0.0027740133836048736	0.0004102291664851106	-0.0005239839366699331	-0.0021500303577870975
2
120400
Ar	-0.00016710341224689443	0.00030710768851663833	0.0032190616989046204	0.0011685615489524888	0.016588989658595184	0.0005294070535172561
Ar	4.7445759158786924e-05	-0.00017736613833859067	0.002760758083923039	-0.002802818652677409	0.01057200124850679	-0.00021413650440735434
2
120600
Ar	-0.0001144057888138304	0.00037909873588060604	0.003207514802863195	0.008807999868911247	-0.002681551314434611	-0.0025843022547902142
Ar	9.254008351344826e-06	-3.574427106012123e-05	0.0027705754871153792	-0.0045091675973444045	0.016547184785419625	0.002016592356351809
2
120800
Ar	-7.500908852110879e-06	0.0002642394916072678	0.003180368929675748	0.011687685547251617	-0.01894700353201266	-0.0017737661875935166
Ar	-3.4231745199349905e-05	0.00012399319781400194	0.002791075164926728	-0.0037690430560409437	0.013783255949772396	0.001206545493033668
2
121000
Ar	0.00010508825956687274	2.6971636058861827e-05	0.0031875757345469556	0.01002336895811201	-0.02704273572084283	0.0026165256648350427
Ar	-6.248988673689239e-05	0.0002186165547593881	0.002781813293614164	-0.0016750055019549026	0.004630160272028464	-0.00247429014944516
2
121200
Ar	0.00017279355455347825	-0.00023073879338956463	0.0032115303785945595	0.002724156788537537	-0.02192268303760411	0.00145647223920208
Ar	-6.19050788680709e-05	0.00020744481262657678	0.002760204036013583	0.001860749762444851	-0.00685860815097601	-0.0012867544561668495
2
121400
Ar	0.0001537555227532639	-0.0003704927713320034	0.0032103616701158267	-0.006339789669032527	-0.004828208874441536	-0.0016511531343293645
Ar	-2.8330505477825417e-05	9.268822870672316e-05	0.0027604021839528017	0.004520233538414956	-0.015094242015369233	0.0013395811857144849
2
121600
Ar	5.901477351653481e-05	-0.0003228413110412394	0.003185573938911364	-0.011698527815648155	0.013591689953747363	-0.0025749833317635
Ar	2.031274385858978e-05	-6.918535583702607e-05	0.0027815456672745944	0.004712981484355341	-0.015752000746723307	0.0023148203030032865
2
121800
Ar	-6.288538026549083e-05	-0.00012487642977862358	0.003179814114957244	-0.011996610366682635	0.024776212934011534	0.0019407560109579156
Ar	5.8872041620511035e-05	-0.0001929555018741773	0.0027889897040685708	0.00286364412893917	-0.008160790098619848	-0.001359912293266505
2
122000
Ar	-0.0001615940594448188	0.0001383059981734314	0.0032079108061807606	-0.006644662590409213	0.025369933113455756	0.002579977019501024
Ar	7.178923183378454e-05	-0.00022237393234968066	0.0027682414223002437	-0.0006089186324550279	0.0026944155532457395	-0.0019219499410210933
2
122200
Ar	-0.00018116081773256334	0.0003343235378415903	0.003219076876301387	0.0029378526340529125	0.011980558420366171	-0.0005699664494857287
Ar	4.7120418287625446e-05	-0.00014212542531396924	0.002759866541514266	-0.00409111954814761	0.012669765694111153	0.00039139378437696857
2
122400
Ar	-0.00010948611696165892	0.0003583503078021415	0.003199012602582557	0.01063515232558701	-0.007160766814743467	-0.0029784569128177307
Ar	-2.7781594677092926e-06	1.0167279473314866e-05	0.002774673318384824	-0.005430187618893013	0.016468465317673053	0.0022349761097136293
2
122600
Ar	1.287314878507877e-05	0.00020974741807384283	0.0031769572454908544	0.01297700319197617	-0.021190778593123606	-0.0002747776663430899
Ar	-5.137546596511679e-05	0.0001566107029048124	0.002791128558563812	-0.0039254419474780925	0.01139985014855479	7.643635983506283e-05
2
122800
Ar	0.00013394046713697606	-3.9311471433888e-05	0.0031955929301763623	0.010113670465566344	-0.026657470650466183	0.0028716921737120117
Ar	-7.751655796987844e-05	0.00022385223780608813	0.002774623337667104	-0.0009245739819519887	0.0015200267154856693	-0.0023724702168905895
2
123000
Ar	0.00019354216452190752	-0.0002746686513015453	0.0032154804309082498	0.0011860293552237108	-0.018101794977211875	0.0005930848410551199
Ar	-6.54528800361824e-05	0.00018234026129451843	0.0027584792744276285	0.0032015828514063093	-0.009511247522114298	-0.0005171927714049317
2
123200
Ar	0.0001551679854461755	-0.0003685237401180895	0.0032055843624835476	-0.008415464872766825	4.896537132789613e-05	-0.0023860588080448037
Ar	-1.897188192486951e-05	4.946801006153223e-05	0.002766193085463323	0.005691226928144646	-0.015932474986113894	0.0019023652616394777
2
123400
Ar	4.209465295167596e-05	-0.00027929231123729396	0.0031794162974228698	-0.013183452101167531	0.016635520334560745	-0.0018213473795515684
Ar	3.777061710539102e-05	-0.00010836614478397735	0.002788294630612778	0.00510550460531543	-0.014065919758514213	0.0016959925947480788
2
123600
Ar	-9.185385323434891e-05	-6.115540023354176e-05	0.0031865443876980246	-0.012739992128102881	0.025735546887112357	0.002878576050455424
Ar	7.676390613070694e-05	-0.00020836737967452104	0.0027844029269034278	0.0024965187375948915	-0.005430320939654651	-0.002172892904982596
2
123800
Ar	-0.00018867594924253903	0.0001936799445351766	0.003214341769119238	-0.0055038554243302985	0.022694202444617655	0.0018468765529097025
Ar	8.0377007539322e-05	-0.00020785514287694338	0.002763223900721295	-0.0019154195948894825	0.0056728410162142666	-0.0014114140143931138
2
124000
Ar	-0.00019089579750579307	0.00035026796223143643	0.0032160415691225323	0.005054060164269704	0.007204622045442084	-0.001509759115169447
Ar	4.1630495777225534e-05	-0.00010391291383476507	0.002761496762888606	-0.005458020806852412	0.014221861538454452	0.0010780401406978372
2
124200
Ar	-9.844845786855857e-05	0.00032859420752508363	0.0031901322781072196	0.01248132812228397	-0.01105862697813132	-0.0030022138623550304
Ar	-1.920349382575804e-05	5.2978583955069135e-05	0.002780469204921809	-0.006128694953468553	0.015726302516316723	0.0022116930954218044
2
124400
Ar	3.880491691974696e-05	0.00015273391935628132	0.0031768929871876816	0.014168961951052413	-0.022925833161454214	0.0011950950241141735
Ar	-7.053952075318509e-05	0.00018070252323285413	0.0027889902581760976	-0.0038668915947362497	0.008837359282348451	-0.001206307107544573
2
124600
Ar	0.0001644048549576055	-0.0001000960078645125	0.0032019593024129765	0.009597282472396926	-0.025348612664114003	0.0026449057353158043
Ar	-9.042064616838474e-05	0.00021924361438558647	0.002767369275027022	0.00029397479362716243	-0.0015743074903161037	-0.002136618719622606
2
124800
Ar	0.00021067490967392085	-0.0003058710263233632	0.003215795883274991	-0.000829000097864493	-0.013841234154496057	-0.00015727327736846265
Ar	-6.366934180810353e-05	0.0001502457307286809	0.0027571514170140602	0.004806145442477093	-0.011649095866143275	0.0002737859600477908
2
125000
Ar	0.00015059167162329162	-0.00035382504122999505	0.003199762658121748	-0.010530943526761863	0.004468760635218777	-0.002661028499686184
Ar	-2.903512518408986e-06	5.554691560476844e-06	0.0027718564189430465	0.006782610268451754	-0.016039157414618144	0.002365618208815097
2
125200
Ar	1.9467294663494402e-05	-0.00022995324108574338	0.0031777015708026146	-0.014658148255506617	0.019003906125387982	-0.0006182811589235537
Ar	5.916346214958739e-05	-0.00014127071904231626	0.002792122542458049	0.005105077019632115	-0.011820915887984363	0.0006798762448757773
2
125400
Ar	-0.00012477570673794086	1.951461489529798e-06	0.003194874906666294	-0.012953002704183939	0.025745608869550216	0.003007003338534299
Ar	9.404034909296665e-05	-0.0002150480863078315	0.0027792828373314152	0.001497010623163367	-0.0024731209865502765	-0.002373099576561799
2
125600
Ar	-0.00021332210710154403	0.0002387962688493193	0.0032173257930846475	-0.0037967639776753767	0.019259208874876366	0.0009187902236280634
Ar	8.331651029468715e-05	-0.0001847709431214216	0.002760999790479291	-0.003588138322309589	0.008320655262967906	-0.0008454577633429034
2
125800
Ar	-0.00019395414420374574	0.00035239495326149374	0.0032098505015537033	0.007432188089432815	0.0025241527420289517	-0.0022673561891749946
Ar	2.8636366701204793e-05	-6.257379837035051e-05	0.0027651446512713305	-0.006833417961166326	0.015074603417204986	0.001579498171279286
2
126000
Ar	-7.995339497807268e-05	0.0002894822284069786	0.0031817147676851012	0.01426407232634441	-0.014204299559366607	-0.0024304574697661166
Ar	-4.158316025155893e-05	9.141472031053377e-05	0.0027857195814122585	-0.006494934675539395	0.01417048446801949	0.001828768610982198
2
126200
Ar	7.147611187135848e-05	9.247094558513215e-05	0.0031815725286182916	0.015139588970000638	-0.02407281925879708	0.0024223623514318072
Ar	-9.167940059033563e-05	0.00019596322326655147	0.002784623278293364	-0.003294013722476213	0.006158700504889738	-0.0020423343207584812
2
126400
Ar	0.0001960132095432426	-0.0001549386945513602	0.0032092096379850595	0.008422866225530762	-0.022989646054085752	0.0021428966580606832
Ar	-9.967564529233878e-05	0.00020516417745548732	0.0027624348126691753	0.0019201884572696039	-0.0045258194613918435	-0.0016563516635536022
2
126600
Ar	0.00022296913868316212	-0.0003243702031578548	0.003215045272765124	-0.0032534842300659776	-0.00933549695693885	-0.0010610320070027573
Ar	-5.5861827384643125e-05	0.0001125148801510493	0.00275846648823496	0.006448127522966118	-0.013228228066879056	0.0009199957477806764
2
126800
Ar	0.0001384487676022281	-0.00032769966350599833	0.003192717325092409	-0.012749223649506494	0.008384977889525505	-0.0028296132243823637
Ar	1.784102725156972e-05	-3.740942078918043e-05	0.0027776131536400824	0.007608978032600772	-0.01541747877276686	0.0024448130624328285
2
127000
Ar	-1.008713028484955e-05	-0.0001759098048634931	0.0031777382419690206	-0.01600678062418308	0.02080325056902944	0.0008195534870539811
Ar	8.23452565786446e-05	-0.00016623989303662267	0.0027912708582597356	0.004900213187829601	-0.009269235201009102	-0.0005828391164004429
2
127200
Ar	-0.00016046592706681805	6.226846252506409e-05	0.003201873070981032	-0.012544439074396944	0.024763614906846764	0.0027884823727157746
Ar	0.00010934505766260806	-0.00021233076737706038	0.002772482019901045	8.957020721389662e-05	0.0005036351628690588	-0.002152071392116477
2
127400
Ar	-0.0002351249276325462	0.00027292374137851837	0.0032176299748082047	-0.0016435068966545847	0.015354212676595955	2.221997964675031e-06
Ar	8.118977660154532e-05	-0.00015492060961726364	0.0027602620476357385	-0.00544488139401753	0.010500492088787158	-5.815482788617241e-05
2
127600
Ar	-0.00019088535888893836	0.0003425035963537683	0.0032020727490726145	0.009965652623126084	-0.0019211770229650197	-0.0027695700330966563
Ar	1.012306538322056e-05	-1.974916317549835e-05	0.002771205350115438	-0.008103543230910741	0.015396972524112549	0.0020362030531454246
2
127800
Ar	-5.550693067109552e-05	0.00024405213338990652	0.003176517776425154	0.01596554801334256	-0.016628336021762027	-0.0012073242453579489
Ar	-6.60496591175512e-05	0.00012493198587441628	0.0027905696582717697	-0.00641114200694271	0.012072556804927978	0.0008828619237040926
2
128000
Ar	0.00010859282725873526	3.220445135904926e-05	0.003189957922440854	0.01562145457919152	-0.024391716542354742	0.003003233653540053
Ar	-0.00011121835489219028	0.00020399604507579617	0.002778825196048606	-0.002249735119883034	0.003331291414973628	-0.002491455278013534
2
128200
Ar	0.00022657019677848402	-0.0002012349948125415	0.0032149634360837454	0.006708899594907499	-0.019988902976829873	0.0013383534143559818
Ar	-0.00010333593968866183	0.00018496075700403085	0.0027587809955939013	0.0038192404627527994	-0.0070753806703271315	-0.0010098053483188997
2
128400
Ar	0.00023011241894838128	-0.0003307644179654452	0.003211585536872904	-0.005975571864824126	-0.004812506528018537	-0.0019353111624340793
Ar	-4.1213398460052774e-05	7.413265236634798e-05	0.0027621693771550586	0.008040958434648634	-0.014145617217249624	0.001586574780422434
2
128600
Ar	0.00011995869686888442	-0.00029291532302229753	0.0031845928422153825	-0.014907038733143268	0.011714587837348703	-0.002633668964228211
Ar	4.314275198326915e-05	-7.427516883641034e-05	0.002784254178076646	0.007988083392193666	-0.01411165052248979	0.0022026256654732895
2
128800
Ar	-4.580034341040275e-05	-0.0001187860980206226	0.0031803984896001973	-0.01730758987839405	0.02207510302099615	0.002098665338023068
Ar	0.00010595021944117683	-0.00018216384690293363	0.0027883413417806526	0.004276472038213397	-0.006794228330743848	-0.001659500301496827
2
129000
Ar	-0.00019787253694836116	0.00011718937157651177	0.00320776284240775	-0.01146796927563909	0.022870434668055276	0.0023350092394105533
Ar	0.00012046568804192638	-0.00020128704497916064	0.0027670187160538603	-0.0017261000301848452	0.0032796824142497854	-0.0017851654044343513
2
129200
Ar	-0.00025244489709298757	0.00029530794679174036	0.0032161513866067934	0.0010708389919759675	0.011069446692148982	-0.0008191271147157562
Ar	7.327149519449696e-05	-0.00012118216357047678	0.002760744804830518	-0.007261715298933749	0.012044705089216937	0.0006282716489546873
2
129400
Ar	-0.00017998982437678686	0.0003210807092856209	0.0031949526956690814	0.012587407840442431	-0.005871402646663083	-0.002918079600148118
Ar	-1.2192455954098351e-05	1.9856516920609325e-05	0.002777184571801703	-0.009045361553240594	0.014910176797357596	0.002302830706141085
2
129600
Ar	-2.3583850419155287e-05	0.00019385045866915026	0.003176344314015668	0.01760208725514723	-0.018449406398636906	0.0003149046374565219
Ar	-9.103489310993096e-05	0.00014903305526415888	0.0027920552544594543	-0.006148764571813226	0.009680632522152557	-0.0003236914156617783
2
129800
Ar	0.00014972372965835125	-2.5527857088865797e-05	0.0031987564570660856	0.015415426779389113	-0.02368976673373851	0.002946275810736505
Ar	-0.00012767134190292773	0.00020194902003942394	0.002773022462929814	-0.0006834505663517459	0.0005121351363367859	-0.002448073513735194
2
130000
Ar	0.000253858409766813	-0.0002362479910337169	0.0032175522440937424	0.004345440585874192	-0.016393663410143075	0.0003921614482083435
Ar	-0.00010077869724804927	0.00015669164091765283	0.002757497033129704	0.005837934942102005	-0.00917675728856838	-0.00036581163953934554
2
130200
Ar	0.00022904201687457495	-0.0003244763775434507	0.0032050636149523553	-0.008980030849866196	-0.0005856526488368265	-0.0026337367269284417
Ar	-2.1374420229697925e-05	3.3372665575335675e-05	0.002766512226936293	0.009345446954722303	-0.01445623155606088	0.001992075064113136
2
130400
Ar	9.32231680337622e-05	-0.00025213286734141615	0.003177860781695282	-0.016927552807345144	0.014085728245035662	-0.0017252455518987498
Ar	6.914689049767777e-05	-0.00010687333359466645	0.002788376462952264	0.007881843112687022	-0.012149002378692214	0.0014714026571526057
2
130600
Ar	-8.779561420548095e-05	-6.331011335875399e-05	0.0031867201703502067	-0.01808992010870567	0.022569572826428748	0.00291561030545573
Ar	0.00012606377444520544	-0.00018981140635979468	0.0027822426553365375	0.0031646416610183106	-0.0040373385006376725	-0.0021991365191252857
2
130800
Ar	-0.00023480014136751065	0.00016170942478183157	0.003213956614223221	-0.009712789400654058	0.020219012674356142	0.0017563100522388882
Ar	0.00012357832775258403	-0.0001807692506751247	0.0027624663648240545	-0.0037572963858437465	0.005861768631332414	-0.0012015097099529488
2
131000
Ar	-0.00026352744842252085	0.0003035506676703255	0.0032147450539837656	0.0042139549801329095	0.006897594599452385	-0.0015756008615562878
Ar	5.7241377968296516e-05	-8.198325424072489e-05	0.0027629480583346014	-0.008907531910943624	0.013039342653583419	0.0012652979058883286
2
131200
Ar	-0.00016080882939713934	0.0002909523089632294	0.003189102692681291	0.015236275590181293	-0.009025988561873975	-0.0028359767874628758
Ar	-3.910368576095833e-05	5.830044254987188e-05	0.0027827855753114676	-0.009450025089114475	0.013721246376725109	0.0021646276941967974
2
131400
Ar	1.6470036364343435e-05	0.00014222470375765516	0.0031793618914964855	0.01918113183765424	-0.019760309563234917	0.0015026352057637608
Ar	-0.00011544649866045777	0.0001664382950321302	0.0027888992144796195	-0.00539897784378198	0.007107265683021296	-0.0014902417189078317
2
131600
Ar	0.0001940540343213027	-7.79011982177158e-05	0.0032043650471565896	0.014493294065089429	-0.022224980077047547	0.002391651981193007
Ar	-0.00013848307907910902	0.00019243299082845317	0.0027667468123253433	0.00122941081652156	-0.0022154874787624363	-0.0020045100091903587
2
131800
Ar	0.0002772819532769021	-0.00026052665332021836	0.003214666293916251	0.0013711751164623503	-0.012579486836666194	-0.0005254775478929637
Ar	-9.167772142746555e-05	0.0001244983495912035	0.002758252986960707	0.0077152590307746054	-0.010803483232956827	0.0004324932339652682
2
132000
Ar	0.0002202390285190848	-0.0003083878088187962	0.0031960631171437564	-0.012079997972658876	0.0032316811818915844	-0.0027799884606114033
Ar	2.6828491312377113e-06	-5.750901430210142e-06	0.002773763992519377	0.01031683823609714	-0.01410720705226916	0.0023611758378123916
2
132200
Ar	5.9091395248529896e-05	-0.00020707643531925725	0.003175992036787693	-0.018883889938307048	0.015970844853120364	-5.864064655078764e-05
Ar	9.517448219873707e-05	-0.0001314748173669606	0.002792005120434735	0.007414729283325744	-0.009807653396105296	0.0002608471857087024
2
132400
Ar	-0.00013410787066863586	-8.563229981431921e-06	0.0031974736387697794	-0.01808229897908848	0.022283762730546247	0.0031729856661720417
Ar	0.00014242102977948633	-0.00018926158239775313	0.00277616494364191	0.0015338132862174495	-0.0013663669349871673	-0.0024414069436962046
2
132600
Ar	-0.00026717300725127645	0.0001984216375334705	0.0032196379437716472	-0.0071525525239452435	0.017081720421876844	0.0007394895906309807
Ar	0.00011956284480859434	-0.0001551366195173788	0.002758889439671192	-0.005914536513789144	0.007920619424538342	-0.0006346265869235086
2
132800
Ar	-0.0002641927935175375	0.0003021484995325533	0.003209668227963973	0.007616043836059259	0.0028273739172056116	-0.002514999735093165
Ar	3.435029865472947e-05	-4.377116649432062e-05	0.002765430025186821	-0.010361522978754228	0.013403273477404913	0.0018081290014993884
2
133000
Ar	-0.00013184098844076745	0.00025467862805553514	0.003180887046771128	0.017528076266031384	-0.011582030597830991	-0.0022512769684105
Ar	-6.924095871817894e-05	8.971834380655973e-05	0.002786981883754676	-0.009304687902900387	0.011975545191924473	0.0017191482030034589
2
133200
Ar	6.225767375458147e-05	8.948746708752943e-05	0.0031835910188247607	0.020092971743734707	-0.02053087339292488	0.002527554587139962
Ar	-0.00013800200581302148	0.00017471855016513145	0.0027835823707655707	-0.004096090228564883	0.004585958501294885	-0.0021225620762989547
2
133400
Ar	0.00023477619190422002	-0.0001235774263204361	0.0032100060155641694	0.012583118625731185	-0.020027130417007856	0.0018889660381681951
Ar	-0.00014173176995783575	0.00017496985976641965	0.0027625703954289238	0.0035277277658349437	-0.004633118579223039	-0.001443895444829453
2
133600
Ar	0.0002896956995819769	-0.00027358788494273573	0.0032133248889298087	-0.0020950399928050833	-0.008622494941961803	-0.0012870449653514656
Ar	-7.300403863364437e-05	8.932983253523579e-05	0.0027609381350542903	0.0095994102787934	-0.01179060561584057	0.0011140979928478858
2
133800
Ar	0.00019914812677150558	-0.000283151649482414	0.0031901545800402916	-0.014964695108980273	0.006534386302464358	-0.002710740852599186
Ar	3.370409246362978e-05	-4.1053096762768745e-05	0.0027807306733560358	0.010747703712466344	-0.013111743686489053	0.0023626076320181735
2
134000
Ar	1.6358345054881154e-05	-0.0001591177524341484	0.0031795460226668433	-0.020480147003783866	0.01736532376814176	0.0014070041586936076
Ar	0.0001222207620351653	-0.00014781896999227276	0.0027913090342367754	0.0064195502665423025	-0.00736952419732163	-0.001012301377040492
2
134200
Ar	-0.00018155927929690695	4.23103294596044e-05	0.003206250570236845	-0.017121679203431824	0.021163492283251827	0.0027430895335006046
Ar	0.00015354988316373068	-0.00018036321793588733	0.002770258094229905	-0.0006767417143430817	0.0011816698686905407	-0.002215364075026421
2
134400
Ar	-0.00029233403640181944	0.00022457804757258093	0.0032196065150756183	-0.003936680573108776	0.013564999680282758	-0.00035387032390836795
Ar	0.0001079958079250718	-0.00012487468848010417	0.0027582769872597276	-0.008047333016619885	0.009443094282979148	1.6419967454930332e-05
2
134600
Ar	-0.00025461353414581666	0.0002900510142801773	0.003200482739207007	0.010987036283952003	-0.0009082737602219772	-0.0030580009976855327
Ar	6.28241335754385e-06	-7.283846458434632e-06	0.0027703916782630335	-0.011385389507159425	0.013070460048309975	0.0021361716273939914
2
134800
Ar	-9.489993158679418e-05	0.0002136025588515458	0.003174275858803432	0.019584330460093353	-0.01349692038254225	-0.0009735520261061357
Ar	-9.87709650723624e-05	0.00011290351810019752	0.0027893753425301208	-0.008647067856089775	0.009727705728562965	0.0006906600925254684
2
135000
Ar	0.00011303269406757393	3.8180732198943725e-05	0.0031897334965991756	0.020394854343220022	-0.020451891989869353	0.0030757015653811105
Ar	-0.00015599017708660303	0.00017350116190958484	0.002776687144577001	-0.002328729033785379	0.002086913161340042	-0.0023535136034991003
2
135200
Ar	0.00027331960349327375	-0.00015987537482615245	0.003214729512343196	0.010004000113345244	-0.017209340362074922	0.0012975289134164749
Ar	-0.00013796275097392095	0.00015047088502052072	0.0027590447046103397	0.005856892290288306	-0.006534003512293992	-0.0007495780292655029
2
135400
Ar	0.00029449938903159425	-0.00027485836505635407	0.003211196284836365	-0.005884333532917514	-0.004770633742587685	-0.0019058407262706686
Ar	-4.891871339005303e-05	5.315081966553739e-05	0.002764410966388791	0.011196826409730454	-0.012095938589444515	0.001719995179609799
2
135600
Ar	0.0001699973153865417	-0.00025090915027502263	0.0031857199581698456	-0.017716485203903568	0.009055390519984406	-0.0023177127689791447
Ar	6.631194708388217e-05	-7.096228798610895e-05	0.0027865488203315096	0.01069487324484463	-0.01152596137142585	0.0020214619807619734
2
135800
Ar	-3.369975751145611e-05	-0.00011065449454883078	0.003184763005860185	-0.021814388730317286	0.018198817335317724	0.0022140155053810566
Ar	0.0001476749434049703	-0.0001560493605082114	0.002787711152337007	0.005157409142038326	-0.004981577679426796	-0.0018657980274168456
2
136000
Ar	-0.0002304248833844266	8.629024560276328e-05	0.0032101645192425116	-0.01544433041815406	0.01934694749150451	0.0019124807697658782
Ar	0.0001592817367258347	-0.00016476690815598336	0.0027661814520314487	-0.0031391073625088185	0.0034160298691339676	-0.001707425023614647
2
136200
Ar	-0.00031233727517735143	0.00023988354733301697	0.0032139627541892227	-0.00019423419851326512	0.009935069596971227	-0.0012230220684081017
Ar	8.957782761978725e-05	-9.304535017552581e-05	0.002760808861705902	-0.01017654476818488	0.010326621652469751	0.0007314981236318579
2
136400
Ar	-0.00023636328128276085	0.00026976730048676754	0.0031898800551382832	0.014472985779489838	-0.003982918078345217	-0.002989115810231097
Ar	-2.650306584436173e-05	2.4917067979394485e-05	0.002777743210102674	-0.011987088227125619	0.012234112884079966	0.002253887944748576
2
136600
Ar	-4.9801046425253405e-05	0.00017202623048997033	0.003174244294363015	0.0215765046787555	-0.014705286472445976	0.0009086017844925632
Ar	-0.0001279063341478716	0.0001281660385778219	0.002790139918036259	-0.007581986321770624	0.007445713113100487	-0.0006682188121880854
2
136800
Ar	0.00016707158216249982	-6.832746063923158e-06	0.003200741509543714	0.01975103782623424	-0.019611201419238427	0.0031400812616972874
Ar	-0.00016876762203948918	0.0001659629512868822	0.002770345565023741	-1.814472026649668e-05	-0.0001895069281215482	-0.002248010238576326
2
137000
Ar	0.00030600357588220613	-0.00018455141281917506	0.0032201841072973794	0.006635171518561585	-0.014179437614541074	0.00034440178054886484
Ar	-0.00012583970967831285	0.00012345499743676055	0.0027576622901370534	0.008250395888657603	-0.00795107583164152	-6.630145757296007e-05
2
137200
Ar	0.00028869271789724453	-0.00026579728045218997	0.0032071021108878387	-0.009776932130899725	-0.0014209339397414475	-0.002688578585108145
Ar	-1.777503127817912e-05	1.9939799981908408e-05	0.0027694583860209676	0.012417336490313033	-0.011890576521047124	0.0022078883768904033
2
137400
Ar	0.0001314830426859123	-0.00021550270429513795	0.0031803017412195445	-0.020198181279364333	0.01075659801678556	-0.0015389912114555763
Ar	9.979371502871084e-05	-9.346832420119248e-05	0.0027909968019477157	0.009960960776724818	-0.00960655459183057	0.0011783483491007458
2
137600
Ar	-8.95384265823759e-05	-6.623159836069267e-05	0.0031896429737356706	-0.022466433141017057	0.018213532755862023	0.002651334513420234
Ar	0.00016836304486327544	-0.00015669657333226258	0.0027818261830707637	0.0032821651898489023	-0.002757596945104346	-0.0023313046348704012
2
137800
Ar	-0.0002760562323334484	0.00011861572834854875	0.003212381678010962	-0.012889850412346304	0.016963310916358318	0.0012098937371457581
Ar	0.00015640739081195052	-0.00014402165444931967	0.002762103238632818	-0.005670695800829	0.0052154871725738185	-0.0011106369576501505
2
138000
Ar	-0.0003228686550297131	0.00024190017616257565	0.003208796233333093	0.003841995413133793	0.006592488722923146	-0.0018741537411198705
Ar	6.451908488850959e-05	-6.071791167507457e-05	0.002763853120851677	-0.011883975755299255	0.010735405269508348	0.0014020130486115958
2
138200
Ar	-0.00020919531211515156	0.000241717943156893	0.0031832494397567327	0.017627329805313483	-0.006332305986956449	-0.0024598743468226205
Ar	-6.0793248422129864e-05	5.283188500575322e-05	0.002784313021847295	-0.01194536420129434	0.010916990480463346	0.002067461634811096
2
138400
Ar	1.3693689114293737e-06	0.00012918247291627476	0.0031804448202882077	0.023294763963057075	-0.015496022405016232	0.0022724109411612027
Ar	-0.0001539894935763534	0.0001362609205965539	0.002787584477387934	-0.006236730225918033	0.005230788983134141	-0.0017597102558833007
2
138600
Ar	0.0002203299877033851	-4.705008997331216e-05	0.0032098458984071002	0.018256347651095593	-0.018161848121789198	0.002532377960776379
Ar	-0.00017505121860272863	0.0001518792347950363	0.002764915179938786	0.0024393394761974716	-0.0022696700332565543	-0.0019145940212005044
2
138800
Ar	0.00033081135163063897	-0.00020011746047136572	0.003219564662786551	0.002797000274895306	-0.011035898412212284	-0.0007792038496062621
Ar	-0.00010757805859962008	9.36784213686844e-05	0.0027577248802150927	0.010433734056458775	-0.008872124683553806	0.0006042646251546095
2
139000
Ar	0.0002733145330452043	-0.0002493440292130509	0.003197539726585464	-0.013543533546896252	0.0014424282875466457	-0.003143739990563195
Ar	1.604086310541547e-05	-1.1205898436171324e-05	0.0027747434808289163	0.01314330945984168	-0.01118385208693529	0.0024469916560199644
2
139200
Ar	8.699304330427813e-05	-0.0001785181842493595	0.003175355165972032	-0.02233149901043232	0.011947374942039096	-0.00011770638253081359
Ar	0.00013080969864982044	-0.0001090521640407777	0.002791974004664621	0.00884669307533241	-0.007393209547534784	-1.0601440263004089e-05
2
139400
Ar	-0.00014587514285944564	-2.487901463464945e-05	0.003195047281626639	-0.02216652258000909	0.017651120157332504	0.0028823833108590903
Ar	0.0001831270013091122	-0.00015015731194763146	0.0027751071279819876	0.0010142050203419478	-0.0005640025135172719	-0.0023353974812736606
2
139600
Ar	-0.00031307332049326564	0.0001431170740848242	0.0032143666781988467	-0.009567642743816072	0.01433591789440925	0.0005555539535556693
Ar	0.0001457466224860683	-0.00011865613236959469	0.0027597471964745926	-0.008160045192989376	0.00661156438599782	-0.0003997955967457548
2
139800
Ar	-0.0003204987032158391	0.00023615067710748986	0.003204378918116045	0.008000284149509016	0.003505371244429912	-0.002294568674508263
Ar	3.361026248096609e-05	-2.905981429429909e-05	0.002767787533447901	-0.013281710387710392	0.01056857184237695	0.0018765220088423932
2
140000
Ar	-0.0001712233415760472	0.00021115738352594626	0.0031798991143975643	0.020351140750768815	-0.00800650754042229	-0.0015592773773001206
Ar	-9.597479178887333e-05	7.438269249248978e-05	0.0027883197259661236	-0.011360560159731727	0.00906248512202703	0.001424887081377643
2
140200
Ar	5.875769354753172e-05	8.951070110104605e-05	0.0031887345622155154	0.024183713473428507	-0.015681070219406273	0.0028293422065744332
Ar	-0.00017724213074589605	0.0001366153927604618	0.0027821698214735443	-0.004435127567700549	0.00309575637917012	-0.0022272871518339826
2
140400
Ar	0.0002691663905687452	-7.804297002173799e-05	0.003214664358866199	0.015720872910299756	-0.01622044984082762	0.0016160351711496195
Ar	-0.00017392589072329177	0.00013202086836103054	0.002761780605902221	0.005178688296491292	-0.004021639796678092	-0.0012650288897995486
2
140600
Ar	0.0003436246064699619	-0.00020508810182829937	0.003214107696767894	-0.0014428974598516425	-0.008031973362166447	-0.0016793793013453332
Ar	-8.192443299866535e-05	6.23437129755302e-05	0.002761527728865961	0.012408743657579817	-0.009306831043482176	0.001205729224418341
2
140800
Ar	0.00024617026958090435	-0.00022664907426574383	0.003187581222680674	-0.016897959465311155	0.0036838109892260978	-0.002868887675384591
Ar	5.271535498200768e-05	-3.8785075017792714e-05	0.0027816384000090423	0.013245456988694438	-0.00997805586792349	0.0022845673644637187
2
141000
Ar	3.459322801513748e-05	-0.00014207882236531098	0.0031776296062233007	-0.02413714433789736	0.012609387342188817	0.001590959040392957
Ar	0.0001592815693220559	-0.00011766434223881391	0.002789425771802754	0.007416483903982494	-0.005152502344110393	-0.0013085229033610063
2
141200
Ar	-0.00020203363075764388	1.018816735258403e-05	0.0032046796842965385	-0.020834003429971513	0.01653753397022348	0.0026627544090854936
Ar	0.00019059069452239375	-0.0001367709819348595	0.0027678527884474535	-0.0016863014914405017	0.0015040747503489963	-0.0020601148001166644
2
141400
Ar	-0.00034134453214649407	0.00015827619731025112	0.0032176467871030214	-0.005687019898382872	0.011677407862310476	-0.0003146996213808281
Ar	0.00012661832617573006	-8.94236806077178e-05	0.0027581266779439636	-0.010544807489563268	0.007570155346169254	0.00028090604693096143
2
141600
Ar	-0.0003068353937250719	0.00022343832300429924	0.00319988591694539	0.01206229379445225	0.000904390406663303	-0.002841343326606542
Ar	-2.383584550399364e-06	2.351188232619552e-06	0.0027725341384108146	-0.014111150296591407	0.010000692785543705	0.0023284388587896986
2
141800
Ar	-0.0001256861023166329	0.0001794330361510314	0.0031772106076429596	0.02263172851238423	-0.00911108677643898	-0.0004999071233550821
Ar	-0.00012981324518595853	9.209280477781742e-05	0.002791324965736705	-0.010192740104493687	0.00699524144581947	0.0004158878388862104
2
142000
Ar	0.00011809018087600665	5.2699027902896334e-05	0.0031949237929404213	0.024171043918694797	-0.015383854381694255	0.0029241950767624095
Ar	-0.0001940465923715163	0.00013269282926980396	0.002776951283775108	-0.002076892195530882	0.0009581378823608069	-0.0023304809210439805
2
142200
Ar	0.0003114241257780983	-0.0001018381837912626	0.0032163821533384043	0.012527190107071649	-0.014035499829541963	0.0008101515011533425
Ar	-0.00016412340635800957	0.00010943481689867404	0.002760407049830657	0.007857177303504055	-0.005429451416109786	-0.0006164086959516297
2
142400
Ar	0.00034594711769131566	-0.00020244824072516233	0.0032078821103738854	-0.0058102867999115125	-0.005200670504224592	-0.0023379915049371283
Ar	-5.008879187779192e-05	3.2609346902503867e-05	0.002766844049224833	0.013959493727162188	-0.009297859480255955	0.0017422589146904078
2
142600
Ar	0.00020993079111551413	-0.00020024105196137776	0.003180582241667674	-0.019902650820654493	0.005344973208771893	-0.0021483668648894275
Ar	9.015884614556082e-05	-6.058437001507096e-05	0.002787705248580481	0.012682497358638625	-0.008409374614830807	0.001668272741835653
2
142800
Ar	-2.328106800743958e-05	-0.00010626233064457448	0.003183867035443957	-0.025376175337141385	0.01295193679562764	0.002623820996906077
Ar	0.00018362250047632495	-0.00011977011337545421	0.002783979952808715	0.005512861364365965	-0.003132761980794092	-0.0022483479702083745
2
143000
Ar	-0.0002547352220440474	4.048045972989797e-05	0.0032117010019679184	-0.018530868459191104	0.015005337885972537	0.002018118155793561
Ar	0.00018982720520392088	-0.00012007495257967859	0.0027609360095702477	-0.004551177023726718	0.003126926262826875	-0.0016497381185313418
2
143200
Ar	-0.00035812764567488245	0.00016609902612724762	0.003215683343596637	-0.0012138198832106024	0.008954506710259852	-0.001304769829020614
Ar	9.967197786718054e-05	-6.202977229483197e-05	0.002757283873566854	-0.012694419550289932	0.008002580259651787	0.000980799380051076
2
143400
Ar	-0.0002802217701314531	0.00020535080381539	0.0031915020510592433	0.01584058610348387	-0.0012692375977673821	-0.0029348741778251336
Ar	-4.22824279384803e-05	2.6818157645416743e-05	0.002776672307475876	-0.014390570529809039	0.008982198837360825	0.002457523559658982
2
143600
Ar	-7.0958530365326e-05	0.00014724234261973584	0.00317746901613977	0.02463007554285516	-0.009837107014434613	0.0010205853448847946
Ar	-0.00016165340691445872	0.00010038994877909177	0.0027896700381271817	-0.008622098522030398	0.005038397937692182	-0.0006646259808663521
2
143800
Ar	0.00017943165440426024	1.976974459947344e-05	0.0032018639172448223	0.023069250608319162	-0.014606613604060825	0.002689475390933216
Ar	-0.00020389896618859622	0.0001222514171015397	0.0027716406235211133	0.0007689487206302881	-0.0008141358724484122	-0.001963381575124892
2
144000
Ar	0.0003455020295413569	-0.00011848551083875595	0.003216498881054617	0.008487558338270628	-0.011747330985621376	-7.799149356213019e-05
Ar	-0.00014502925507610487	8.511243598023505e-05	0.0027614628062985116	0.010499583950626166	-0.0062788759546047335	0.00013040295654052247
2
144200
Ar	0.00033526442072618815	-0.00019454989266393623	0.003200725396476301	-0.010243328881560128	-0.002864108385401479	-0.0027074955620570457
Ar	-1.1835715777878738e-05	6.569763061588791e-06	0.0027738275136475732	0.01497256286113041	-0.008759435048782183	0.0020832350039565206
2
144400
Ar	0.00016352175925549503	-0.00017482851354728497	0.0031770939085618987	-0.022534475730358196	0.0063970845117439475	-0.0008530621079145801
Ar	0.0001269004557528627	-7.440517169351877e-05	0.002791818082583133	0.011437478753367447	-0.006562695258471059	0.0005689957215862071
2
144600
Ar	-8.725923655657439e-05	-7.545934667700038e-05	0.0031929599077174025	-0.025785669855322622	0.012932347732372361	0.0030538762579009793
Ar	0.00020222900385206735	-0.00011456638386303594	0.002777275295928949	0.003075021317442893	-0.0013443329323279457	-0.002621353784632557
2
144800
Ar	-0.0003039751357953597	6.222014943129881e-05	0.0032169883652177407	-0.015341133706145546	0.013287778744944162	0.0011217493594299446
Ar	0.00017952495165981342	-9.961694436993198e-05	0.002756836932479025	-0.007506203452032154	0.004242578415487692	-0.0010204213382519628
2
145000
Ar	-0.0003655523016263836	0.00016621698244775665	0.00321123671085266	0.003472766759267498	0.006586539816191936	-0.002144621281997592
Ar	6.522013331304404e-05	-3.598883104591486e-05	0.002760275225116601	-0.014365509443543468	0.007938343430711722	0.001636103991156146
2
145200
Ar	-0.0002451524922927712	0.000184768317065829	0.003183444143122031	0.01924245055808849	-0.0028170566238246452	-0.0025169131808630953
Ar	-8.302457789548193e-05	4.5982098982702935e-05	0.0027827430464291932	-0.013841761043116393	0.007645942187459911	0.0021664768055340636
2
145400
Ar	-1.0663938301491546e-05	0.00011750442001520326	0.0031811642689672784	0.026309568479671742	-0.010262946800812049	0.0022372407284289124
Ar	-0.00018829369341953546	0.00010178924647552895	0.002786316078247102	-0.006666038492231491	0.003180015047586793	-0.0016231948259347877
2
145600
Ar	0.0002389636898264448	-6.759538375681502e-06	0.0032082173852723043	0.021075718686353086	-0.013476377508228816	0.002208228511329748
Ar	-0.00020444868617311708	0.00010669427288446564	0.002766752450578005	0.003792748486388509	-0.00223964370392989	-0.0015294319838784786
2
145800
Ar	0.0003701996287097329	-0.00012735188261127974	0.0032151526124513546	0.003941325054472914	-0.009513164257734132	-0.0009356304280809537
Ar	-0.00011781916706626893	6.015561759689168e-05	0.0027627164467706328	0.012758973536969049	-0.00667376231958815	0.0008092495762761964
2
146000
Ar	0.0003135205977106823	-0.00018113395595352447	0.0031932958859013792	-0.014488619689453199	-0.0009025955618591442	-0.002881808658720239
Ar	2.8910972520557774e-05	-1.624992131880394e-05	0.0027800058661590953	0.015285942517090647	-0.007930261972957386	0.0022430703605649575
2
146200
Ar	0.00010935104916879503	-0.0001480687458989842	0.003177029166796329	-0.024895943008009163	0.007111696513980538	0.0006874224428701538
Ar	0.0001592082170368776	-8.308617791854361e-05	0.0027919645560840456	0.009750614249996525	-0.0047276975311095724	-0.0007643815474600109
2
146400
Ar	-0.00015256168324261134	-4.689790299779563e-05	0.003201600274624369	-0.025133911491042143	0.012417663451687131	0.0029595191422260338
Ar	0.00021246159455399165	-0.00010570434495517187	0.002770083283362612	0.0002721806218755078	0.0002959542747320656	-0.002568797127590132
2
146600
Ar	-0.0003443501987652377	7.850171845434571e-05	0.0032192031524486656	-0.01130609942849784	0.011462840636142333	0.00016750925229575787
Ar	0.00016067525640107487	-7.759479002271344e-05	0.0027542977604338753	-0.010163032053458749	0.005131433450162455	-0.0003150507606755762
2
146800
Ar	-0.00035939999187012335	0.0001619375938954652	0.003204574590993791	0.008256062348850577	0.004514330706677361	-0.002799772341207455
Ar	2.6352066392921127e-05	-1.1414415607853882e-05	0.002764475360920561	-0.015535289190514634	0.007550753601650879	0.0021461769079644815
2
147000
Ar	-0.00019919494536084126	0.00016398020747688117	0.0031769315180778654	0.02219764841643398	-0.003873370822398395	-0.00160125230307187
Ar	-0.00012174583928704779	6.010789313287664e-05	0.0027870309519086134	-0.01260932467211	0.006006226993370353	0.0014538051488900525
2
147200
Ar	5.5519552417177304e-05	9.094514684975191e-05	0.0031868332356821388	0.027058081768698526	-0.010367505046317836	0.0028916983510659374
Ar	-0.00020833149516261438	9.808367587831275e-05	0.0027811310705903296	-0.004181657390460153	0.0014618433181797193	-0.0020670210121443208
2
147400
Ar	0.00029319417097452017	-2.7587052952290954e-05	0.0032129416679542075	0.01801653459598691	-0.012215904553364432	0.0016073818331237392
Ar	-0.00019510635466799523	8.821301006087704e-05	0.0027635673328503417	0.006806087491339094	-0.0033791142988501897	-0.0009457484489572779
2
147600
Ar	0.0003820690193093964	-0.0001308406826808788	0.0032125527127085385	-0.000981473501557783	-0.007477740389340352	-0.0016615659638702404
Ar	-8.344216021320852e-05	3.589543066505154e-05	0.002766241956724643	0.01455792279797283	-0.006623188956033321	0.0014082620200474212
2
147800
Ar	0.0002794541379377478	-0.00016598794061053432	0.00318755514018554	-0.018296259346010087	0.0005892578461174385	-0.0025905092844027014
Ar	7.136686257888504e-05	-3.354587869656488e-05	0.0027861464061826264	0.014915822792572425	-0.006616665766358459	0.0019957575571362273
2
148000
Ar	4.712091683336178e-05	-0.00012383963110686514	0.003181684189876138	-0.026804587825599906	0.007548929988521571	0.0018820438870538632
Ar	0.00018803354697735392	-8.326262544551651e-05	0.0027885078699216087	0.0077393225261560925	-0.002964363620472897	-0.0018797995254189253
2
148200
Ar	-0.0002167639782214025	-2.390573614977141e-05	0.003207997903308789	-0.023333548194158088	0.011605020218322678	0.0023163381624504054
Ar	0.00021472629238566116	-9.058727009657322e-05	0.0027638505046435513	-0.0028912403209671307	0.0015268893171970655	-0.002164327147140785
2
148400
Ar	-0.0003739436040568593	8.766987360128531e-05	0.003216565091797491	-0.006653576387227284	0.009653323972345453	-0.0007793197705717072
Ar	0.00013346875269389726	-5.486884343743259e-05	0.002754508338531452	-0.012644865451475949	0.005334438429033299	0.0004145525725206817
2
148600
Ar	-0.00034009749160789136	0.0001524387736702386	0.0031953935352656117	0.012849457133711628	0.002834414974872218	-0.0029847797973137882
Ar	-1.682510731571939e-05	7.67198502008902e-06	0.0027705843749521804	-0.016052938906314554	0.006625998399729236	0.002454744761650959
2
148800
Ar	-0.00014436768346932569	0.0001426497165066315	0.003175026130102023	0.024727440500118242	-0.004508354480559821	3.3186963140792954e-05
Ar	-0.0001578127470147357	6.5266726090631e-05	0.0027893037697776526	-0.010894939705392284	0.004269417265689873	0.0002964778538822582
2
149000
Ar	0.00012416706422451544	6.793175389506706e-05	0.003196325721547872	0.02671764651758565	-0.01001659668989233	0.003014237072094318
Ar	-0.00022176581604445896	8.729825209413851e-05	0.002775849275863366	-0.0012627734807425304	9.047350353281099e-05	-0.0019997565576504663
2
149200
Ar	0.00033855298482045765	-4.0773754526019624e-05	0.0032165368072718057	0.013990851976587233	-0.01070421703883614	0.0005786778677199987
Ar	-0.00017758227615451153	6.748966446459037e-05	0.0027630250589948317	0.00974978335016041	-0.0039045186723522143	-0.0002626215397409195
2
149400
Ar	0.00037939732444731804	-0.00012697322973285566	0.003206092410610838	-0.006038144757449672	-0.005775711221306483	-0.0024355916655959555
Ar	-4.3451138045024414e-05	1.5278160006093924e-05	0.002771437538149465	0.015931345451816892	-0.00609782989418682	0.001794010552392726
2
149600
Ar	0.00023402920915682054	-0.00014848297896622188	0.0031797978089348976	-0.021493275938873815	0.0014420925682662612	-0.0017975327715506835
Ar	0.00011272786882005199	-4.393832741007987e-05	0.0027905128741496647	0.013755811799522047	-0.005148344582612267	0.001201652607556859
2
149800
Ar	-2.032445525345922e-05	-0.00010255702808625468	0.0031874475077064476	-0.027826806360353718	0.007560073421391972	0.0028343432799935414
Ar	0.00021062806572059748	-7.777023640302806e-05	0.0027815194867818046	0.005306267545406931	-0.0014908005694478962	-0.0025898452544986365
2
150000
Ar	-0.00027446662107374664	-7.488133295264805e-06	0.00321433620594975	-0.02038363487761464	0.01060893863515857	0.001735570940769594
Ar	0.00020743433563968886	-7.29759105522532e-05	0.0027576618030232592	-0.006067494318534336	0.0024182849283752492	-0.0015393873598310616
2
150200
Ar	-0.00038975879001673446	9.020996980520294e-05	0.0032146893263848013	-0.0016594672025930543	0.00802491920215099	-0.0016565704622414211
Ar	9.895401476466757e-05	-3.3285207771646246e-05	0.0027561792736396995	-0.014678457088192813	0.0051922227430615114	0.0012571995511083032
2
150400
Ar	-0.00030821876312802325	0.00014001266944775744	0.003188085236470477	0.016901128743934703	0.0016279236985874514	-0.0029461926761580166
Ar	-6.096460260414354e-05	2.266701427812519e-05	0.0027781526810453337	-0.015807923782210256	0.0054981017273018845	0.0025989429122656943
2
150600
Ar	-8.2691923495563e-05	0.00012374010021586908	0.0031766891382449835	0.02679455608155581	-0.004685366239974234	0.001451241780730146
Ar	-0.00018822183346546795	6.551025718043433e-05	0.0027900291462975937	-0.008799960577460133	0.002647611931288236	-0.0009299269419385034
2
150800
Ar	0.00019097559470773073	5.07869046608795e-05	0.0032036507363392996	0.025294867065563605	-0.009385747159856165	0.002726967915942775
Ar	-0.00022543169372490524	7.363303107810862e-05	0.0027711130783835197	0.0019104640171137967	-0.000997466295768896	-0.0018922805368697087
2
151000
Ar	0.00037367302340838893	-4.722125772917004e-05	0.0032173268895466945	0.009469830175439002	-0.009302447692218607	-0.00025087151205742126
Ar	-0.00015101439665557477	4.715138053924758e-05	0.0027620534354536614	0.012315331275102414	-0.004080091728315472	0.0002448429341219141
2
151200
Ar	0.0003651542889324427	-0.00011912130975828189	0.0032000182513373726	-0.010841873270967955	-0.0044805818593731	-0.002791933674531949
Ar	2.3281598279287067e-07	-1.830605527374862e-06	0.0027750577893285466	0.01661741433464197	-0.005314894346618711	0.0020863809646867494
2
151400
Ar	0.00018133918595943977	-0.0001317632893107982	0.003177644201055887	-0.024306950807464135	0.0018400475455970504	-0.0005268392981412347
Ar	0.0001509740943197829	-4.932184468340255e-05	0.002791622518382962	0.012050277262861807	-0.0036482194179641293	0.00021940839795470742
2
151600
Ar	-9.048777055739013e-05	-8.497218769616633e-05	0.003194813200719852	-0.027966740015226352	0.0073193035458191495	0.0029005702140838894
Ar	0.00022638924175443466	-6.883912447099755e-05	0.002774924231873681	0.002415613420323887	-0.0002698305172523866	-0.0025954132596758875
2
151800
Ar	-0.00032567276148617484	3.240569865726357e-06	0.0032159961154600604	-0.01668272271724934	0.00948866768550221	0.0007816947829440776
Ar	0.00019131539534383567	-5.520900037394972e-05	0.002756080563767252	-0.009160630750402615	0.002875664922864225	-0.0007415875506068812
2
152000
Ar	-0.00039403479387984844	8.782474951880246e-05	0.003207348241858606	0.003501755871289373	0.006674618915263285	-0.002342424178122217
Ar	5.898796132554884e-05	-1.563059475087201e-05	0.0027624524497381455	-0.016173971244682676	0.004714875792630574	0.0018813119047332671
2
152200
Ar	-0.0002667445323781239	0.00012642261767491052	0.003179913578333597	0.020500060320772038	0.0008923446493421682	-0.0022075761645651702
Ar	-0.00010385867870875019	3.144691700108775e-05	0.0027858827414653634	-0.014777863253503288	0.004219925696839716	0.0020316565713159192
2
152400
Ar	-1.5121607168544547e-05	0.00010713377140692162	0.0031832099600874347	0.028361171953292463	-0.004654640046988824	0.002737246535133933
Ar	-0.0002123117031264601	5.9892772183057034e-05	0.00278594309274987	-0.006365053387511804	0.0013151979729482326	-0.0019338558515371255
2
152600
Ar	0.0002541837419923882	3.8050188701565424e-05	0.0032125390709863665	0.02274707799497928	-0.00858462135149987	0.002186800458034581
Ar	-0.0002196456327759417	5.781071966117121e-05	0.002765535611660675	0.005174871183924727	-0.00168704110572062	-0.001480237532440799
2
152800
Ar	0.0003960455375220067	-4.923490867759966e-05	0.003217891445000676	0.004326254277776913	-0.008061549155786583	-0.0012185971215105007
Ar	-0.00011690315713136586	2.875082580563613e-05	0.002762599931117302	0.014477824467805525	-0.00389593041874195	0.0009263288166002379
2
153000
Ar	0.00033652742605800136	-0.00010930895018424576	0.0031930869763089047	-0.015358009225693307	-0.003506564230006594	-0.0030895893806065864
Ar	4.568489072660345e-05	-1.4108721399642665e-05	0.002780499856370578	0.0165468860239552	-0.004302412116677295	0.0022253882475631887
2
153200
Ar	0.00011905583981855418	-0.00011671518514759175	0.0031769260255960392	-0.026675480081942274	0.0019340174406156387	0.0008297832041560003
Ar	0.00018322782029135969	-4.868884770395536e-05	0.002790471399554087	0.009921139567456445	-0.0022312126330709275	-0.0010449729922854915
2
153400
Ar	-0.00016203326360241077	-7.173993362920118e-05	0.00320036087209696	-0.026943410975172548	0.006821288742396671	0.002656664824538743
Ar	0.0002323927338047364	-5.6846644321012123e-05	0.002768239998599356	-0.0007435700923826019	0.0005504616030863494	-0.0023403202089172337
2
153600
Ar	-0.00036740153473360993	8.45267362839244e-06	0.0032150880133241587	-0.012115875871050006	0.008465273657196983	-3.596757328988137e-05
Ar	0.0001670282218774829	-3.8727515747289043e-05	0.002755770416259599	-0.011764307446061897	0.002940102984242806	6.15060368781725e-05
2
153800
Ar	-0.00038392963771674836	8.234215069496957e-05	0.0031997964699109916	0.008735954463043736	0.005680146251601906	-0.002683571135532999
Ar	1.68538909099616e-05	-2.614060553613636e-06	0.002769208527468311	-0.016952292001559958	0.003999634810694841	0.0023506605273793304
2
154000
Ar	-0.00021400746780924558	0.00011422569928013029	0.003176151306919537	0.02356825135514471	0.0006145213062630115	-0.0008714873343713625
Ar	-0.00014133317291650509	3.395335032854234e-05	0.002791546029731917	-0.013104394685704198	0.0029073770975472494	0.0011048092552256722
2
154200
Ar	5.7264186682253626e-05	9.521761389294294e-05	0.003192901836108044	0.028789369091913774	-0.004429212695906312	0.0032234948833133326
Ar	-0.00022777882081626659	5.0001552087186166e-05	0.002781257956768369	-0.0036177260508399715	0.00033924176926700795	-0.002351780971066045
2
154400
Ar	0.00030902007251229713	3.077698504537401e-05	0.0032186148721541183	0.019029810461437886	-0.00788329007413298	0.0012465427632550024
Ar	-0.00020426683519092246	4.1763465597611165e-05	0.002762114858143218	0.00819625901099828	-0.0019211475101014168	-0.0010067062327607033
2
154600
Ar	0.00040260078810493404	-4.7845978492039246e-05	0.003213330127720939	-0.001075542535471256	-0.007150827767695748	-0.0021991556835163095
Ar	-7.746758101072584e-05	1.474035623262879e-05	0.002764929463056985	0.016058675302610955	-0.003288585136327066	0.0014775708938417759
2
154800
Ar	0.0002943822465345095	-0.0001004784741580194	0.0031842150664162417	-0.019206829006426267	-0.003016609797009354	-0.0027620556987177644
Ar	8.931085157661875e-05	-1.8842497298245027e-05	0.0027853042452951554	0.015672673577329314	-0.003118027441898356	0.00194167954112835
2
155000
Ar	4.9849000730925794e-05	-0.00010675043951919681	0.0031795158556543004	-0.02831128685147174	0.0017868022646075237	0.0020558482295161794
Ar	0.00020853436758953693	-4.050583079401574e-05	0.0027860303595175252	0.007542989109877728	-0.0010131898061601816	-0.00196779614061026
2
155200
Ar	-0.00022797493898740225	-6.471121331415117e-05	0.003206112802440917	-0.02447649909807006	0.00634672891361928	0.002285905665836243
Ar	0.00022833151229591155	-4.0063495578957394e-05	0.0027631310512053467	-0.004022012974280948	0.0010409413025113516	-0.0017993707205640839
2
155400
Ar	-0.00039272496012791825	9.354450484537435e-06	0.003214387797450897	-0.006939465289418863	0.007768389370428312	-0.0007808754439550335
Ar	0.0001338121522181015	-2.1264690554191244e-05	0.0027576839807839505	-0.014050294583761409	0.002560184212330641	0.0008046999464512753
2
155600
Ar	-0.00035720962296510977	7.688716228604553e-05	0.003194172137501939	0.013429079357248276	0.005165177182071007	-0.002744973145466576
Ar	-2.920835000323208e-05	7.271963688753683e-06	0.002776316606666119	-0.01708461412028972	0.0029034776395926443	0.0025294379317552496
2
155800
Ar	-0.00015270267174832784	0.00010636881550281852	0.003178048346771854	0.025930129297467134	0.0006786431166336732	0.0006159315706610096
Ar	-0.00017584982307559488	3.111526452341581e-05	0.002792613150860598	-0.011009292789553581	0.0015369781819962374	-0.00022331124286041555
2
156000
Ar	0.0001288757698882001	8.913694159827312e-05	0.003201835285591444	0.02793626844390283	-0.004147064631949399	0.0028971369515154353
Ar	-0.00023638207432271916	3.6090048805598724e-05	0.0027749437945492187	-0.0004495559031154661	-0.0004179817980180877	-0.0022761402774940567
2
156200
Ar	0.0003524959809978099	2.9254861414198776e-05	0.0032191577612119726	0.01457528079951323	-0.007303380758252113	0.00015302136481087778
Ar	-0.00018098667245574707	2.4156273840811172e-05	0.0027605714171301463	0.011075561780774774	-0.001876880545544906	-0.0003096266016959466
2
156400
Ar	0.0003947790629309119	-4.3801582704035044e-05	0.00320450914616003	-0.006316132220327219	-0.006651672788684548	-0.002789517055598087
Ar	-3.387521112942929e-05	1.6104440278589107e-06	0.0027695809735938234	0.01707511714449669	-0.0024671516660819894	0.0019371125011752631
2
156600
Ar	0.00024337863449767257	-9.314174521690333e-05	0.0031768415941084674	-0.022359400724592318	-0.0029506489200098276	-0.0016143739232974998
Ar	0.00013003786052079191	-2.132059554561055e-05	0.0027893452530125375	0.014064104290247847	-0.0018190969960265341	0.0011202760797819854
2
156800
Ar	-2.2080808193403337e-05	-0.00010066715036142134	0.003186931578716081	-0.029011743599012322	0.0015899359075771191	0.0029481144675567363
Ar	0.000226778060611296	-3.040684259937462e-05	0.0027794988571342547	0.004764915392688282	-2.448646428881743e-05	-0.002495449831825963
2
157000
Ar	-0.0002859412950202374	-6.13444695062273e-05	0.003213703217141873	-0.021070275514988742	0.005952777482701373	0.0016617516395217918
Ar	0.00021482077119801182	-2.42364226123649e-05	0.002758107809512115	-0.0072160231574301	0.0012160788611705825	-0.001202019906797674
2
157200
Ar	-0.00040411116244034033	7.859224928301566e-06	0.003213583251654576	-0.0015792043973315913	0.007246387418436222	-0.0016558377622749598
Ar	9.453041678633039e-05	-7.79687962373446e-06	0.0027596093196822703	-0.01578906841001292	0.0019722618685287163	0.0014768019968718173
2
157400
Ar	-0.00031865274104928465	7.104614151840384e-05	0.0031876284816092495	0.017539803870383064	0.004878078706024646	-0.0027537490474090725
Ar	-7.431777284967742e-05	1.2176695067437773e-05	0.0027821787763969027	-0.016365649571665346	0.0018529014294542602	0.0024293786935782884
2
157600
Ar	-8.4768670286142e-05	0.00010029105760447358	0.0031802265127679743	0.027830251200722453	0.0008610438393249229	0.0018398890177421495
Ar	-0.0002030476722025258	2.4417446069140427e-05	0.002789909600784008	-0.008564300931141362	0.00042714975053843374	-0.0013887305412185465
2
157800
Ar	0.00019795202751765918	8.506392393944484e-05	0.003207384943343583	0.02595578619538631	-0.0039051332721417352	0.0024504253604026214
Ar	-0.00023376250249059686	2.2000052092058477e-05	0.0027690318413007495	0.0028806535986786617	-0.0007931159701420598	-0.0018984027436983457
2
158000
Ar	0.0003841707482460625	2.8077146885754464e-05	0.0032172553738659387	0.009499142461172462	-0.006945909511710279	-0.0006800485500606764
Ar	-0.00014865850580181617	1.0458040799543464e-05	0.0027609210523898307	0.013382762721579249	-0.001458866029358839	0.00041254492903135997
2
158200
Ar	0.0003734916605226552	-4.1183293378848825e-05	0.003196637577304894	-0.011241319356438007	-0.006298125647009475	-0.0029650766116212234
Ar	1.1546848459188703e-05	-5.259637591425068e-06	0.002775506248754328	0.017257645907478098	-0.0015786382380521744	0.0021691724145017407
2
158400
Ar	0.00018480167357482567	-8.873914248309065e-05	0.0031754929716918366	-0.024904949737208595	-0.003002884945125346	-7.433857479774998e-05
Ar	0.00016445070622168352	-1.794845869274421e-05	0.0027907344830520914	0.01190658864675798	-0.0007499250506703122	-0.00011957826540692262
2
158600
Ar	-9.407960555059684e-05	-9.750210511042467e-05	0.003196364396428786	-0.0286231253301074	0.0014610223094036064	0.003053788163122042
Ar	0.00023536092519023722	-1.8968989599204687e-05	0.0027724958712022304	0.0016562265282448428	0.0004123252950923565	-0.0024861012243136845
2
158800
Ar	-0.0003335605048449136	-5.998125257521132e-05	0.003217602131296162	-0.01689472921614796	0.005735730353166023	0.0006962147594111178
Ar	0.00019147762622242592	-1.1975604020155903e-05	0.0027558347605934506	-0.010089393363998425	0.0009505549697358661	-0.0005045451805060825
2
159000
Ar	-0.00040175618992815124	6.683920841089776e-06	0.0032076766109189647	0.0037577602321017156	0.006962611464323642	-0.0024484024297574394
Ar	5.060255772061859e-05	-1.303703479875329e-06	0.0027643327210631237	-0.0168787878118899	0.0011227325911008766	0.0020581693190815688
2
159200
Ar	-0.0002708872868299401	6.773904506903432e-05	0.003180542863363818	0.020908749722578814	0.004819069756872805	-0.00198231503621442
Ar	-0.00011649179568263521	9.383403217879446e-06	0.0027880214705733072	-0.01484536465441413	0.000907442274111853	0.001853141378328594
2
159400
Ar	-1.4129031617801648e-05	9.855028393394838e-05	0.0031860094710993267	0.028938190884515498	0.0011165213933263494	0.0027157457891883695
Ar	-0.00022251576790936802	1.2944147455971024e-05	0.0027853623552609053	-0.00581072481385175	-0.00017527457524830985	-0.0020841796163958873
2
159600
Ar	0.00025908522026863123	8.535546636297436e-05	0.0032126004711322737	0.02293509030188672	-0.00372419975500591	0.001792507566306624
Ar	-0.00022201796618152655	9.18147726626782e-06	0.002764489997743536	0.006111959518744471	-0.000525140617854416	-0.001426231140245744
2
159800
Ar	0.00040093770042835857	3.0263065193291275e-05	0.0032141271461494656	0.004205121658231507	-0.00677055028108241	-0.0015170663327718017
Ar	-0.0001104263575181784	2.949787063846519e-06	0.0027623211124633775	0.01524520284728137	-0.0006711368028888877	0.0010165998709061523
2
160000
Ar	0.00033960146353608303	-3.7993934188473405e-05	0.003188501075877799	-0.015577875724111782	-0.006306668401782889	-0.002912285190580316
Ar	5.758671507677393e-05	-3.7251914534183446e-06	0.00278094798871423	0.016792019731508193	-0.0006075919802938347	0.0021980989166136278
2
160200
Ar	0.00011981907213022948	-8.759651394029633e-05	0.0031772365789250983	-0.026972238125589236	-0.0033953935255609056	0.001488020062732883
Ar	0.00019402007929941162	-7.603715670640278e-06	0.0027888248579568046	0.009521288547590873	1.1966492214978117e-07	-0.001319823557204028
2
160400
Ar	-0.0001637315221822911	-9.97812558361036e-05	0.0032046495458403104	-0.02704116742192075	0.001247145349751611	0.002803028935556828
Ar	0.00023606169092612797	-5.057600387510993e-06	0.002766265551351754	-0.0016933380248621208	0.0003541408086989145	-0.0021903433456099794
2
160600
Ar	-0.00036887042987116897	-6.316033565035759e-05	0.003219063239938773	-0.01204498943472448	0.005711914353657252	-0.0001886826601223081
Ar	0.0001608288107224822	-1.6753190835704347e-06	0.0027558325141116514	-0.01268554572507502	0.0003282096923538832	0.00028771266786396576
2
160800
Ar	-0.00038451725032575114	4.028597547828102e-06	0.0032016222290925616	0.008817872559956674	0.007098879785226059	-0.0028747139275055295
Ar	3.8100928937138337e-06	1.0936295805197404e-06	0.0027708606603853597	-0.01736486811120964	0.00023187780625445365	0.0024384543412246384
2
161000
Ar	-0.00021427880378935564	6.70785305885114e-05	0.003177631119524601	0.023624121486223105	0.005137343984275276	-0.0007135009202343062
Ar	-0.0001545392212315857	2.6595532110499713e-06	0.002791990097811569	-0.012760912648780777	-7.569845477071698e-06	0.0007509598501957943
2
161200
Ar	5.844725931414554e-05	0.000101601861592607	0.00319421005298019	0.028919471924975636	0.001349185352023142	0.0029725365347268366
Ar	-0.00023505372197302543	-4.067110018215819e-07	0.0027794052749717476	-0.0027669109450852237	-0.00046466494795001015	-0.0023491667248116016
2
161400
Ar	0.0003105911199101885	8.918463834992696e-05	0.0032162189093433505	0.01896816233211226	-0.0037929412012551946	0.0008668172734701101
Ar	-0.0002018344677234682	-3.5270808050513478e-06	0.0027616695987726257	0.009186858217036284	-0.00011230382738048036	-0.0007787930603446817
2
161600
Ar	0.00040346195896907714	3.246942372203301e-05	0.0032085177465067177	-0.0011118182784552984	-0.00700745645199669	-0.002269896764021296
Ar	-6.664418054855128e-05	-3.06161813217518e-06	0.0027664399105196756	0.016682340597708168	0.00018785082689421772	0.0016497153856852274
2
161800
Ar	0.0002955532412682037	-3.8367617922010144e-05	0.003180918485627962	-0.019126050977098304	-0.006588403486182579	-0.0022935586086177255
Ar	0.00010268779899639643	-3.858142890372595e-07	0.0027870249963543622	0.015523122160006302	0.0003060685643877359	0.0017484031814651079
2
162000
Ar	5.127221003477307e-05	-9.207987334690399e-05	0.0031826375262567885	-0.028350055027722032	-0.0038093300297298224	0.002605354663790672
Ar	0.00021735751658759892	4.29420418579465e-06	0.0027844527808872747	0.006813656162858038	0.0006312430242459119	-0.002218858030536041
2
162200
Ar	-0.00022643858698501314	-0.00010572339461308338	0.0032115234860869775	-0.024403360266535806	0.0013239401812661937	0.002217197801729222
Ar	0.00022781069190801418	8.70379741130606e-06	0.002761022242204555	-0.005003752301540039	0.00011103150991036566	-0.001719949469973291
2
162400
Ar	-0.0003903912519421644	-6.70590697726456e-05	0.0032173496047485203	-0.006878912746971966	0.006051213149928901	-0.001154004928530411
Ar	0.00012440622655291047	6.546290499176785e-06	0.0027566676533352014	-0.014739717322371674	-0.0005247316856360302	0.0009322190970453102
2
162600
Ar	-0.00035494778932810807	4.223996920235052e-06	0.003193405065552557	0.013335545866496297	0.007556730259564702	-0.003055667050281307
Ar	-4.2482639052796e-05	-2.902080742698778e-07	0.0027763103024504676	-0.017137908979256166	-0.0007745460847923957	0.002542562609855779
2
162800
Ar	-0.00015173766557905865	7.279578178096011e-05	0.003176983160264903	0.02581341953961179	0.005788393931955806	0.0007995446570356211
Ar	-0.00018629565251469598	-7.843522337936683e-06	0.002790965771413927	-0.010441949208890904	-0.0008029273300230929	-0.0005080325728575708
2
163000
Ar	0.00012864341821358237	0.00011165461130373864	0.0032010207724290124	0.027749400214099766	0.0014610709252485337	0.002792246843519322
Ar	-0.00023872697542120087	-1.473234942567678e-05	0.0027729743263552858	0.0005106160299468741	-0.0003346664487980435	-0.002082759316323513
2
163200
Ar	0.00034999489687698843	9.718823247002464e-05	0.0032169327224087223	0.014376361193669987	-0.00424811032425537	5.190337979117314e-05
Ar	-0.00017425075168997733	-1.299767537773748e-05	0.0027612389152698808	0.011837784706126777	0.0006497348718896027	-1.15889028586266e-05
2
163400
Ar	0.00039122099238485795	3.472951587521546e-05	0.0032018656766250055	-0.006301159612363331	-0.007621934204935768	-0.002728302996566791
Ar	-2.1789277573585418e-05	-2.8760391461122823e-06	0.0027723803306389794	0.01733036463712298	0.0012783015909724983	0.002010484054109389
2
163600
Ar	0.0002418199239797841	-4.248075914059024e-05	0.0031770091336982315	-0.02202531331843379	-0.007268387057274037	-0.001098867958299417
Ar	0.00014101704425250813	9.584994227158835e-06	0.002790993979417017	0.01358994702762294	0.0011382809721959119	0.0007609934227786363
2
163800
Ar	-2.0909961663782636e-05	-0.00010243038759931051	0.0031913628066919694	-0.028734889003147027	-0.004196715111678477	0.0030614480883541084
Ar	0.00023113235649443211	1.995914801571501e-05	0.002777948429745519	0.003916676395695938	0.0007798060288753143	-0.0025948795567364144
2
164000
Ar	-0.0002813499821776417	-0.00011608657239037906	0.003216584710353763	-0.020738620717669336	0.0016784468544391148	0.001312133227080442
Ar	0.00021003013788768312	2.1144403967597993e-05	0.002757141061442746	-0.00806558082725377	-0.0005837954579378138	-0.0010682308177290586
2
164200
Ar	-0.00039718826182389767	-7.165007213204526e-05	0.0032126026167085945	-0.0014798402478014545	0.006783227011698452	-0.002031248982945872
Ar	8.291902971009269e-05	9.647714864596036e-06	0.002760288724367284	-0.016258125921607153	-0.001574456783267749	0.0016448709816498314
2
164400
Ar	-0.00031326748111527874	6.881069335204002e-06	0.003184651745482224	0.017148213994362435	0.00821184322924041	-0.0027052943426294418
Ar	-8.745753343986418e-05	-7.040880725953226e-06	0.0027832836909849603	-0.01613876429063086	-0.0016185404864692001	0.0022972669530961646
2
164600
Ar	-8.388051385008269e-05	8.197960446972876e-05	0.003180295653638773	0.027405886916751544	0.0063835503129231735	0.0021388254813201114
Ar	-0.00021059762082067563	-2.1381098771958217e-05	0.002787947751469974	-0.007796712216626403	-0.0012442301998047416	-0.0016395181743246495
2
164800
Ar	0.0001939428337095011	0.00012287445786745592	0.0032082155738990125	0.025414792095230926	0.001246185199910395	0.0024113287686567484
Ar	-0.00023222726399935986	-2.7775441460124693e-05	0.0027668836386318223	0.0038616210713814923	0.00015012283059596187	-0.0017688876292927783
2
165000
Ar	0.00037591370168076266	0.00010319567280790783	0.0032169259659680727	0.009247737498486442	-0.004996541956582506	-0.0008016693541486722
Ar	-0.00013848556435427063	-1.8525248969742334e-05	0.002760642303672545	0.014064338525985905	0.0015957175751966672	0.0006029746247080415
2
165200
Ar	0.0003651112834542907	3.242839740779272e-05	0.003195604733969249	-0.01099228875843021	-0.008477854216233403	-0.002954001006990482
Ar	2.5742199323822074e-05	9.603688134095082e-07	0.002776878761275372	0.017315578841042827	0.002078874778753162	0.002261723781394581
2
165400
Ar	0.0001807214615513164	-5.224386884352216e-05	0.0031768090904262577	-0.024402805909175342	-0.007964798969886644	0.0002982210110576386
Ar	0.00017535220272941345	1.9750248584931735e-05	0.0027910222495804503	0.011268839050024756	0.0016279518400563395	-0.00037921799892826584
2
165600
Ar	-9.26289138448673e-05	-0.00011657360414812894	0.0031988367942057012	-0.027984822121026275	-0.004173499879116886	0.0029026418895745534
Ar	0.0002379124875070862	3.165944188745919e-05	0.0027719336030378916	0.0006396002683911891	0.0004672075252378733	-0.0023764406621309122
2
165800
Ar	-0.0003258317734497637	-0.00012573253678551494	0.003217377044766085	-0.016371277624880103	0.0024675555667300897	0.0003623103831683724
Ar	0.00018409465944560572	2.698301820450746e-05	0.0027572862039451427	-0.010938555893362165	-0.001346670949875795	-0.00026223952441873884
2
166000
Ar	-0.0003911526030054812	-7.170779414108663e-05	0.0032047993257131586	0.0037433308130328936	0.007794608229919188	-0.002575799287667007
Ar	3.7342369331011245e-05	7.171691722519144e-06	0.0027673240387116192	-0.017135432700680187	-0.0024273811300672956	0.0020970876491025114
2
166200
Ar	-0.0002635139582068347	1.5879411443750077e-05	0.0031785965320896216	0.020356189869236978	0.009012094374191119	-0.0015748412193808152
Ar	-0.00012826344105039837	-1.6943189486281897e-05	0.0027895379855700946	-0.014294591755400063	-0.002188295938130729	0.001431069291003622
2
166400
Ar	-1.2619367569094969e-05	9.784023075377005e-05	0.003188825311332973	0.028261366714403525	0.006756022266669812	0.0029742033147432574
Ar	-0.00022663402463539523	-3.488145908112569e-05	0.0027822338248128606	-0.004869387649768189	-0.0012432940616294236	-0.0023515513019576914
2
166600
Ar	0.00025262863516703536	0.00013660294751598493	0.0032153351676892238	0.022127434045262614	0.0005119010470996027	0.001581966918924421
Ar	-0.00021583777456358309	-3.687832568138461e-05	0.0027612795316819517	0.007069781365487448	0.0008997760786185406	-0.001249913145256878
2
166800
Ar	0.0003887263410745676	0.00010659905629628836	0.003214077548605338	0.003910882250447357	-0.006180474977594323	-0.0018019264917759337
Ar	-9.686688798390864e-05	-1.8153504048083278e-05	0.002761555352472655	0.015670005427837214	0.002648888796743943	0.0012945020699474527
2
167000
Ar	0.0003282491305962501	2.487354764043026e-05	0.0031867823425444216	-0.015105255809193335	-0.009374642168223054	-0.002894087746604073
Ar	7.153391438462198e-05	1.083999952310673e-05	0.002782014645256109	0.0164194403561015	0.002860455525763592	0.002233590858897064
2
167200
Ar	0.00011498730116119039	-6.761250558027478e-05	0.0031780577597176635	-0.02624312415046526	-0.008636835809351793	0.0017614432172387495
Ar	0.00020103105899154614	3.4999238837240534e-05	0.002788384578101658	0.008620893206090557	0.0019165855379846622	-0.0014878478273486699
2
167400
Ar	-0.00016032477859227127	-0.0001335012561085112	0.0032055938757566144	-0.026142869964613683	-0.003747710684861312	0.0026064261208887793
Ar	0.000233010662145697	4.466580089394528e-05	0.0027664459116065855	-0.0026922816477924784	-0.00020975118362406018	-0.001974368470505696
2
167600
Ar	-0.0003578758748783403	-0.00013405565290039806	0.0032175742969606067	-0.011489855769268318	0.0036609883601721478	-0.00045857593245183376
Ar	0.00014992001265053728	3.048506331475791e-05	0.002758053033631208	-0.01318888528947098	-0.0024968920993669653	0.0004413673536785576
2
167800
Ar	-0.00037183607185085736	-6.761913710259609e-05	0.003198440372083852	0.008574960754361458	0.008904031027434015	-0.002903708784232314
Ar	-8.858550395023913e-06	-7.216490457333658e-07	0.0027738453717381433	-0.01720545329997521	-0.0034356656058039557	0.0023904115066954138
2
168000
Ar	-0.00020738857964580634	2.9165624133082845e-05	0.003176946703271509	0.02280104087469147	0.009805529376698706	-0.00024233143903160142
Ar	-0.00016202027901880301	-3.186876741762577e-05	0.0027919650642965516	-0.01195081515615665	-0.0025912367572283298	0.00021303258836747604
2
168200
Ar	5.665833969724578e-05	0.00011656601269149683	0.0031965146697596897	0.027958700960983195	0.006806648577377436	0.002953519825814386
Ar	-0.00023310577344302325	-5.012706037361614e-05	0.0027759000320755015	-0.001743277576270097	-0.0007706388275248439	-0.0024167972865993983
2
168400
Ar	0.00029926439519585715	0.000150069966432646	0.003216620519728268	0.018183940464936432	-0.0004796639428904485	0.0005792258553002354
Ar	-0.00019113900773654472	-4.368557783357242e-05	0.002759169266719435	0.009845200395897574	0.0020094589960549156	-0.0005819835622774388
2
168600
Ar	0.0003875715222351701	0.00010787379844816905	0.0032061136146871723	-0.001189460800732155	-0.007515125322722779	-0.0024575614326661555
Ar	-5.297854732093471e-05	-1.3594015785171316e-05	0.0027660008140593015	0.016618394675346777	0.003719090947652414	0.001839309080061548
2
168800
Ar	0.00028321113276220207	1.4164243996173457e-05	0.0031789922129434114	-0.018368428689347432	-0.010405169151412014	-0.0019650700366654235
Ar	0.00011201628091616567	2.4114675391532347e-05	0.002787436569349056	0.01474257562393125	0.0034349619475240144	0.001646973363474765
2
169000
Ar	4.782110102899966e-05	-8.719188181653657e-05	0.0031850862797822323	-0.027346186854613503	-0.009245435767541834	0.002847151522211154
Ar	0.00021751644451586746	5.147777820569916e-05	0.0027829695584298893	0.005818453942005411	0.0018897603797872918	-0.002266909519414546
2
169200
Ar	-0.00021864969233563873	-0.00015255720881859425	0.003213596860070401	-0.02326803022881689	-0.0030485209327145513	0.002000063641007798
Ar	0.0002180767198295422	5.568896185706341e-05	0.002761174503016842	-0.005866268952093493	-0.001165099672568643	-0.0014431667274494317
2
169400
Ar	-0.000374221712149408	-0.00014177219396254237	0.0032166245513813065	-0.006424494696069531	0.00509638136315326	-0.0014425801484450268
Ar	0.00010956728479405874	2.9895362180197214e-05	0.002759537763349656	-0.014867119205632528	-0.0037281716168921972	0.0011255019716989846
2
169600
Ar	-0.00033946043377820057	-6.114621778274393e-05	0.0031907918049176873	0.01272994109927513	0.01023243383314177	-0.0030472039707988884
Ar	-5.454593373790934e-05	-1.2015843748446075e-05	0.002779622188039012	-0.016454081654260374	-0.004251898425856463	0.0024146592302798486
2
169800
Ar	-0.0001457156274569238	4.716665972732575e-05	0.0031771754245147167	0.024733753751731646	0.01078906196970619	0.0012026089771045839
Ar	-0.00018834314349569232	-4.821243241291407e-05	0.002790516084987586	-0.009291814364713626	-0.002843864909194736	-0.0010112368077164298
2
170000
Ar	0.00012266182290518278	0.00013884084926895737	0.0032027758120469073	0.026475174161920086	0.006539566319497042	0.0027278419249209995
Ar	-0.0002296142299594867	-6.387586961943756e-05	0.0027696464964865773	0.0015486764275841646	2.166511233562045e-05	-0.0021734754410089297
2
170200
Ar	0.00033319965958456064	0.0001636447715231649	0.003217072120419711	0.01359397675430905	-0.001817871217963745	-0.00014449112238049114
Ar	-0.00015807125507818072	-4.656892490059592e-05	0.0027584133332477	0.01213230265206209	0.003286799484285961	0.00011645123528391125
2
170400
Ar	0.0003717051470711609	0.00010644971084780543	0.003200702355243696	-0.006019073225567179	-0.009030207843655122	-0.0027556976515633867
Ar	-6.931893355628118e-06	-4.143737505168199e-06	0.0027713576753328074	0.016795326659539672	0.004812406114846984	0.0021926625139879487
2
170600
Ar	0.0002298609086362887	-2.524842012222913e-07	0.0031773277640534114	-0.02091349369378499	-0.01147173522897438	-0.0007411604594033183
Ar	0.0001471269957420609	4.0714776461456055e-05	0.002790330763046835	0.01247758817165314	0.0037720212717749905	0.0006299091923714157
2
170800
Ar	-2.006089662578403e-05	-0.00010967367932598176	0.003193942570683687	-0.027324799404769482	-0.009489363440854723	0.003020165750854865
Ar	0.00022572303891048892	6.772917478688383e-05	0.0027769737868936356	0.0027542406307983756	0.0012967613628465588	-0.0024148888715284146
2
171000
Ar	-0.0002672646951936476	-0.00016991411401135498	0.0032170432641336426	-0.019636106180895844	-0.0018869320662859843	0.0009875206737713223
Ar	0.00019489894762873394	6.18062038475834e-05	0.002758894852325489	-0.008719753212448266	-0.0024562728644304185	-0.0007778083638631552
2
171200
Ar	-0.00037697087732470243	-0.00014379963637283695	0.0032100295945966225	-0.0013839657701052602	0.006798285679641102	-0.0022357281152370445
Ar	6.610257820511832e-05	2.287541822620932e-05	0.0027639736249968085	-0.015967017801244456	-0.004970415596933861	0.001696185504854163
2
171400
Ar	-0.00029772134030904904	-4.765655560163941e-05	0.003182010369740381	0.016154524273851466	0.011508433709931064	-0.0024565866917805597
Ar	-9.667346592238234e-05	-2.8569447230421872e-05	0.0027855891205256166	-0.014978185483158653	-0.004805454176584287	0.0019411508266377415
2
171600
Ar	-8.081240652306461e-05	7.100836851193601e-05	0.003181709309119225	0.02600158419187561	0.01156484657205956	0.002428284318130022
Ar	-0.00020752028830677853	-6.658808504848867e-05	0.0027853448140079716	-0.006599501502013882	-0.0026415193201047263	-0.002033164057723696
2
171800
Ar	0.00018246868159186073	0.00016273795528404854	0.0032098054898981165	0.02403494357718916	0.00572945362552986	0.0022069268670684428
Ar	-0.00021867860727634432	-7.447125494514606e-05	0.002763090404925413	0.004644135649236121	0.0012654920873020408	-0.0016833971850662517
2
172000
Ar	0.00035432817537892926	0.0001736705741281244	0.0032160140985695277	0.00873113985275536	-0.003617942437534105	-0.0010629169658200694
Ar	-0.00012155378748216263	-4.342506308911721e-05	0.0027586287880861046	0.013910731531176073	0.0046837044528906125	0.0008882282696127015
2
172200
Ar	0.0003445557957568484	9.79120667575357e-05	0.003193086252270987	-0.010292601730711493	-0.010745789948509797	-0.0029421936944353942
Ar	3.658371041225491e-05	1.068367858472908e-05	0.0027773944391967	0.016306393019139734	0.005636127765537505	0.002432961694261158
2
172400
Ar	0.0001715381583973799	-2.2856839082996623e-05	0.0031768264783438053	-0.022985323640039287	-0.012677494200858673	0.0007455962833633143
Ar	0.00017385052899684014	5.9538806804992117e-05	0.0027911982999251662	0.009983664287391992	0.0038490006492006997	-0.0005674350905409608
2
172600
Ar	-8.605494878890641e-05	-0.00013864513577026424	0.0032013685580764726	-0.026313803260105517	-0.009268663332394343	0.002899447425449368
Ar	0.0002248599888794201	8.235737343573913e-05	0.0027719819107901405	-0.00029324298572470583	0.0003208384754317915	-0.002236766144316867
2
172800
Ar	-0.00030494558997443296	-0.00018870385648027215	0.003218450007213742	-0.015343987703442776	-0.00022679527259368914	0.00013320953978577133
Ar	0.00016599650927213134	6.360263204988058e-05	0.0027593937966008016	-0.010977665052587725	-0.0038890284850843534	-5.014807362072285e-05
2
173000
Ar	-0.00036599780323436423	-0.0001434905082627004	0.0032037252530843206	0.003487008952807493	0.00876672755583621	-0.00275969941500476
Ar	2.3735405146111015e-05	1.136544739134487e-05	0.002770626765067498	-0.01626958254606191	-0.006060952635967346	0.002088364165520121
2
173200
Ar	-0.0002476036641468202	-3.004204327614764e-05	0.003177654339589499	0.018855593701594706	0.012974707080794361	-0.0013174522934677583
Ar	-0.0001300681882765098	-4.675033343399292e-05	0.0027907312920846922	-0.012938405140516683	-0.00500236934359487	0.0009563723765054742
2
173400
Ar	-1.3839584879186487e-05	0.0001001474001556509	0.0031900211522765585	0.026399979880135992	0.012075656592302315	0.0029419834083658594
Ar	-0.0002160447520281698	-8.313547403451361e-05	0.0027791606320891078	-0.0038030692496766856	-0.001949926588970302	-0.002524767947038952
2
173600
Ar	0.00023376788488406808	0.0001874472661334367	0.00321489950277505	0.020636114815201403	0.004435333621589082	0.0013310670878086542
Ar	-0.00019803276626591729	-7.946402814318148e-05	0.0027585882650662348	0.007359715409240892	0.002711343430131271	-0.0010751434358566463
2
173800
Ar	0.0003610348602829673	0.000180478742445713	0.003211503851847979	0.003716994558794778	-0.005734042557728469	-0.0019356078306476169
Ar	-8.094286397112554e-05	-3.3893041002325364e-05	0.0027610966309633595	0.015031650205629335	0.006006865659393366	0.0015307197976206484
2
174000
Ar	0.00030562311298847593	8.47047278691007e-05	0.003184487532434403	-0.013936521843435003	-0.012457868798543718	-0.0026320702936624123
Ar	7.728727983936894e-05	2.990315216023406e-05	0.002783189337441744	0.015093150612448342	0.006116158428313366	0.002260897353689422
2
174200
Ar	0.0001084385917917573	-5.031891301163364e-05	0.003180200029689409	-0.024382848376012057	-0.013810611397621651	0.0021340581782057326
Ar	0.00019320364551249637	7.907648077915562e-05	0.00278816124713631	0.007375882790151037	0.003490641279651731	-0.001626519671559382
2
174400
Ar	-0.00014697964675301913	-0.000168692669251299	0.003208602967283767	-0.024223231990648304	-0.00857755399976695	0.002487324505464086
Ar	0.00021528118973321541	9.27075969518893e-05	0.002766604186660545	-0.0033127109211109514	-0.001073744150701744	-0.001832527547269776
2
174600
Ar	-0.0003302446736231519	-0.00020430237253584683	0.0032180979412739954	-0.010669839989936604	0.001816879906814895	-0.0007498126466331542
Ar	0.00013132577709976958	5.850985667505854e-05	0.002759655151876122	-0.012762352529442503	-0.005442752403728372	0.0005743566680989383
2
174800
Ar	-0.00034368820868289657	-0.00013723466842754028	0.0031967000299114915	0.007840692460685651	0.010886031698151295	-0.0030488701718622414
Ar	-1.8943516761899234e-05	-6.516638961416598e-06	0.002775800425371852	-0.015972739736018187	-0.006966347983850502	0.002313053035067379
2
175000
Ar	-0.00019280737089667608	-6.091874535225541e-06	0.0031760470665161407	0.021031574048995978	0.014407095069174506	7.896583332669823e-05
Ar	-0.00015805861275760102	-6.798174994424814e-05	0.0027911821698009135	-0.01056081394851504	-0.0048735112294590295	-0.0002232743276214413
2
175200
Ar	5.127983181594803e-05	0.00013316861724047227	0.0031974650258790667	0.025793674293733717	0.012112367049724912	0.0029846391943381375
Ar	-0.00021761470054850883	-9.838066026641621e-05	0.002772621016086357	-0.0008943680691229	-0.0007786911658788087	-0.0024163487984139556
2
175400
Ar	0.0002749267272384122	0.00021116508388682118	0.0032172137620636075	0.016739202568426058	0.002663242858062231	0.0005260150707837557
Ar	-0.00017149843974552666	-7.968525834399776e-05	0.002757070027401735	0.009706890020141164	0.004350155835191716	-0.00038208056819208705
2
175600
Ar	0.0003564711489796762	0.00018173175974346895	0.003206091892925732	-0.0010555229639733937	-0.008176404658842652	-0.002510386278854691
Ar	-3.936789824573491e-05	-1.9438385522224495e-05	0.002766145141385938	0.015575826441566564	0.007162852673653559	0.002036161193615476
2
175800
Ar	0.0002611457473934736	6.443828441714605e-05	0.003179493383418033	-0.016811807254783734	-0.014210955545183824	-0.0017494016261964049
Ar	0.00011271414016913734	5.0837647299693265e-05	0.0027886289989774303	0.013278012692360782	0.006174038417755886	0.0015779154361006162
2
176000
Ar	4.485550595696364e-05	-8.44764999310079e-05	0.0031878467697247473	-0.02515652276504447	-0.014558295057354231	0.0028714367476236047
Ar	0.00020524303013590609	9.63175707096531e-05	0.0027831970137792354	0.004744270842616192	0.0026455091525159876	-0.0022064055326209207
2
176200
Ar	-0.00020003484779454225	-0.0001995902739074645	0.0032144851677716143	-0.021391828193964266	-0.007186083590015745	0.0016614200068960517
Ar	0.0001989274814498145	9.639057394821555e-05	0.0027630774101934995	-0.006054767742321118	-0.0027180159268879876	-0.0012337767817490134
2
176400
Ar	-0.00034258693308508823	-0.0002138999677293666	0.003214169626549875	-0.005874314597125133	0.0044318721391262104	-0.0016818600144073896
Ar	9.398572757305927e-05	4.6624456876435494e-05	0.002763189915456294	-0.01404484408179878	-0.006779730026682241	0.0012579795510849637
2
176600
Ar	-0.0003107416842382395	-0.00012133101021604595	0.0031876561124329016	0.011620519102658319	0.01309897774391661	-0.002900354631491046
Ar	-5.838520546104254e-05	-2.7583857971628703e-05	0.002783188440754324	-0.015014165946542951	-0.007351972317779201	0.002210228298654474
2
176800
Ar	-0.00013386756994565344	2.7025081267191913e-05	0.0031778920528275924	0.022617864258555213	0.015741094844634963	0.0016299489909362796
Ar	-0.0001781811134062607	-8.760022555913397e-05	0.0027894667036410087	-0.008090532229667362	-0.004363994523360559	-0.0015350334611955773
2
177000
Ar	0.00011118239895111892	0.00016975665466475821	0.003204898040010022	0.024104189014043535	0.011313492209536587	0.0026149038142506205
Ar	-0.00021042623424168434	-0.00010779736331116864	0.002766081829968554	0.0020625039197445854	0.0007285679077362142	-0.0021763632749419843
2
177200
Ar	0.0003027684460178799	0.00022994609249412425	0.003216931992733461	0.012330593107943993	0.00014845865355377826	-0.00043230808297527407
Ar	-0.00013912068447124247	-7.321113592505619e-05	0.0027559041924895542	0.01158457038534253	0.005892424690832394	0.0003097515557432934
2
177400
Ar	0.0003379605120715904	0.00017374049524848312	0.0031983335669561316	-0.005392013318987122	-0.010713827412810802	-0.0028625480530431444
Ar	2.26003713819516e-06	-3.3434575539460717e-07	0.002771044889639146	0.015460338896876822	0.00804275952470406	0.0024150493361414956
2
177600
Ar	0.0002099168564289998	3.57627749670532e-05	0.003176202261085911	-0.018956406649438203	-0.015814777351494815	-0.0003547102087816696
Ar	0.00014155919057366135	7.234829549890015e-05	0.0027910038435572187	0.0110132824176504	0.005880141182240303	0.0005264091190281783
2
177800
Ar	-1.7540367699415496e-05	-0.0001234630151708803	0.0031954821444162757	-0.02485733915510622	-0.014640782913555342	0.003082100220046203
Ar	0.00020824807093359967	0.00011083728588803851	0.0027771741034965888	0.0018831915727871593	0.0014199613037519908	-0.002310536565376359
2
178000
Ar	-0.0002418133388957951	-0.00022769199855504396	0.003217666891934153	-0.017794878215599205	-0.005096793109285289	0.0008136934665557786
Ar	0.00017424510430439814	9.510124373750922e-05	0.002760840206097052	-0.008453042836256499	-0.004451107784091253	-0.0005854200127601792
2
178200
Ar	-0.00034121157580375164	-0.000216077518917515	0.0032088113849154786	-0.0012885338622054346	0.007217381557131998	-0.0024087479999076304
Ar	5.3276445322804805e-05	2.9814575621375742e-05	0.0027671707137920626	-0.01471416193849585	-0.008023076325235889	0.0017529715688405425
2
178400
Ar	-0.00027021273924837956	-9.889301849262965e-05	0.003180545282866441	0.014466584039402045	0.01506797035592933	-0.0022445508931726744
Ar	-9.462870124553235e-05	-5.1126191582066846e-05	0.0027879035270776185	-0.013374780471500767	-0.007347159716496356	0.0016522925482427276
2
178600
Ar	-7.502767274229836e-05	6.462816121717006e-05	0.0031836394306007615	0.023459148724180208	0.01665185059030905	0.002651755337127705
Ar	-0.00019132067928026255	-0.00010670613241443238	0.0027836671420267897	-0.005457333757606342	-0.003491297923622222	-0.002325071502227011
2
178800
Ar	0.00016227832785271003	0.00020447694535921331	0.0032115122516044262	0.021658245416513313	0.009825026711777459	0.0020260552318601896
Ar	-0.00019553242707107766	-0.00011239824302050566	0.002760394505844409	0.004786428720291663	0.002549317975371714	-0.001629245695615333
2
179000
Ar	0.0003173270449488666	0.00024179411637427988	0.0032155321062354867	0.007951428666311702	-0.0026804042404026183	-0.0012762236722769524
Ar	-0.00010298914434694516	-5.9747798052530705e-05	0.0027576008559352604	0.01292570204426443	0.007509035756052169	0.0011099109042322435
2
179200
Ar	0.00031000047343247855	0.0001577380828354281	0.0031913578929355624	-0.009055859422613263	-0.013218719619441788	-0.0029293686458634733
Ar	4.157875139207445e-05	2.4529179901715234e-05	0.0027782461255467846	0.014681135044001977	0.008547796757269664	0.0025633226404495274
2
179400
Ar	0.00015665604405265288	5.277476386763419e-07	0.003177808918146914	-0.020527826540294693	-0.017276910565484496	0.0011712822097342498
Ar	0.0001626716732647988	9.584232833598525e-05	0.002791639939557625	0.008528939151555814	0.005291603307628855	-0.0007340141377377679
2
179600
Ar	-7.441891273671643e-05	-0.00016402873366202876	0.0032037433764689504	-0.02362478451636152	-0.013972208558846028	0.0027845500186211543
Ar	0.00020277814744329548	0.00012331623820338936	0.002772297199677331	-0.0009495589245850629	-0.0002572217671460857	-0.002115330856349286
2
179800
Ar	-0.0002714184009151354	-0.0002503701638574555	0.003218280870299761	-0.013891302232889223	-0.0024362668769260594	-0.0002170690113438484
Ar	0.00014351166164546246	8.880819726813913e-05	0.0027605045366402648	-0.010386357372191518	-0.006315282266784878	-1.2818403708552763e-05
2
180000
Ar	-0.0003282324619166657	-0.00020937368556910152	0.0032006646173135156	0.002852939084973654	0.010108471585712816	-0.002911828737316422
Ar	1.2369077035547822e-05	7.856477355100298e-06	0.002772216716643152	-0.014741419797577723	-0.009160101952128762	0.0020958645671052107
2
180200
Ar	-0.0002253143896788125	-6.83366352506261e-05	0.0031754619858565644	0.016587580292122723	0.01687372162603084	-0.0009250614698987958
Ar	-0.00012426745491753952	-7.716110734232416e-05	0.0027907876818209143	-0.0111854910311059	-0.007060408377250779	0.0006446535235885791
2
180400
Ar	-1.767822529231976e-05	0.00010746894634443222	0.0031915992489425227	0.02355286042567123	0.01693804449913741	0.0031531782335263185
Ar	-0.00019560177545226967	-0.0001252743176742797	0.0027768313620215347	-0.0027103766629013554	-0.0021449536975564052	-0.0025439050018655407
2
180600
Ar	0.0002041055770758877	0.0002371154292014948	0.003217147877253303	0.01860567439010517	0.007638856151028377	0.0013149125073387382
Ar	-0.00017213257699826874	-0.00011275494226502749	0.0027575711856112992	0.007247627573083283	0.004585339991435381	-0.0008495418312684348
2
180800
Ar	0.0003204912135488383	0.00024634908371575393	0.003212903545427919	0.003672465128109412	-0.005803265910042393	-0.002058016497345267
Ar	-6.266778043998438e-05	-4.1695500281849035e-05	0.0027626735885064725	0.013716903510328874	0.009003397918945253	0.0017750141741303272
2
181000
Ar	0.00027526195996069276	0.00013389339174760517	0.0031853813354766254	-0.011962278594024095	-0.015527778773891356	-0.0025755333549140357
Ar	7.90054029029019e-05	5.152915587060769e-05	0.0027860479637857303	0.013213317091912808	0.008725405984296504	0.0021782651225091807
2
181200
Ar	0.00010284496177136587	-4.1236633418094285e-05	0.0031826192581426343	-0.021534907806021693	-0.018489071482041413	0.002202307224863287
Ar	0.00017765254416942118	0.0001186112949210318	0.002788494282312749	0.005948891569957773	0.004381583356173321	-0.0018275098396666278
2
181400
Ar	-0.00012380333227793219	-0.0002052179711418703	0.0032090070095358437	-0.021608455336633064	-0.0125618946583863	0.0020847922824489243
Ar	0.00019004185783567362	0.00013033169414755787	0.0027662497581569336	-0.003699135908265674	-0.002341406440295713	-0.0018107795504804273
2
181600
Ar	-0.0002883783674919546	-0.0002674772187218301	0.003214571305407935	-0.00978501247054973	0.0006783775938787674	-0.0010882162176608205
Ar	0.00010910726329001994	7.518389025966539e-05	0.0027600143876486878	-0.011813432977836496	-0.00817981675574776	0.0006592987438069445
2
181800
Ar	-0.00030466839387670514	-0.00019486463088537372	0.0031918990738702374	0.006417422110241781	0.013013197274418471	-0.002894079472772047
Ar	-2.649907091331606e-05	-1.9238976496850276e-05	0.002776558604621542	-0.014110933069670921	-0.009839695641428189	0.0022692822399021885
2
182000
Ar	-0.00017638441313941455	-3.122291296014483e-05	0.003175986647758927	0.018145143013534107	0.01861687362676507	0.0007579678590328486
Ar	-0.0001464187367663037	-0.00010363530484801988	0.0027898494999057254	-0.008805016005195987	-0.006417976447277073	-0.0005466007323310373
2
182200
Ar	3.6517530398155934e-05	0.00015301251924093975	0.00320124261892917	0.022675548978441953	0.016480803061166074	0.0030389736948587057
Ar	-0.00019234440576038466	-0.00013968635183714422	0.0027701834230235826	2.175143457041147e-05	-0.0003132451597358297	-0.002313542200991352
2
182400
Ar	0.00023450580300121698	0.00026543481061648794	0.0032197921055779873	0.014999862028123888	0.004875637179605973	0.00026560039404989
Ar	-0.00014430756850118475	-0.00010627366965225451	0.00275639179906433	0.009198677354447704	0.006685479688635842	-0.00018221372602683167
2
182600
Ar	0.000310308886577684	0.000242663547637689	0.0032057657905529458	-0.0003782855937091647	-0.009088611407091468	-0.0027580442675645724
Ar	-2.3614301605269268e-05	-1.7477692250627395e-05	0.0027672190613347862	0.013912263580715994	0.01025197573865979	0.0021599285831091883
2
182800
Ar	0.00023266871599395683	0.00010263565872644474	0.0031784207987713893	-0.014145747061869197	-0.017621747019422096	-0.0015578822475547348
Ar	0.00010907819515814598	8.062965504133208e-05	0.0027891973576751206	0.011284524838545196	0.008407665598735542	0.001306476621654666
2
183000
Ar	4.720350396105986e-05	-8.720042236273393e-05	0.003188598019965695	-0.021831928117648416	-0.019049967503144992	0.002884173511952285
Ar	0.00018454410077168806	0.00013970696435760304	0.002781180071762759	0.00344314172664963	0.0029747864072850816	-0.0022876097044153515
2
183200
Ar	-0.00016700109114300515	-0.0002424469045395924	0.003213852152462976	-0.018864000810333924	-0.010377127929366877	0.00147384192708216
Ar	0.00017121385738842114	0.00013215534785075093	0.0027616223169318116	-0.006095185207754307	-0.004536891316692225	-0.0010990849411279034
2
183400
Ar	-0.00029546055975570375	-0.0002751316544077583	0.003212044537059176	-0.005686911318952198	0.004078671779846961	-0.0017610195957873495
Ar	7.275253864165066e-05	5.663826955181309e-05	0.002763217208857416	-0.012750408233931301	-0.00989078159849939	0.0013621631720813572
2
183600
Ar	-0.00027423042485006	-0.000170991202632325	0.0031861906811043064	0.00943201425246422	0.015617969523663896	-0.0026166600524723284
Ar	-6.250616825093783e-05	-4.870384313720326e-05	0.002783817032817857	-0.013010697967694542	-0.010145045465551639	0.002147753493953422
2
183800
Ar	-0.00012547709198317764	1.2295545363988708e-05	0.0031807735744689082	0.01941450754369524	0.019999045453741388	0.0020055683456178712
Ar	-0.0001632103006366452	-0.00012901289725523833	0.002788118945339084	-0.0064701340285899505	-0.005487589278954323	-0.0016992956311414934
2
184000
Ar	8.700351707920884e-05	0.00019817802175266456	0.0032084644751684548	0.021074535189712973	0.01525204363601594	0.002451437070875783
Ar	-0.0001838575276516558	-0.00014934643031948118	0.0027653106485782796	0.002627780254138887	0.0018442987843867815	-0.0019706475981766418
2
184200
Ar	0.00025661983032016785	0.0002869254658904789	0.003217695286513331	0.011222483522536674	0.0016480603921229325	-0.0007694892210107765
Ar	-0.00011406241612222493	-9.398945847530682e-05	0.002757546424294434	0.010742268818202333	0.00873851617133769	0.0005515607955285562
2
184400
Ar	0.0002933931404171601	0.0002300739171022184	0.003196125214017969	-0.0040056656194597876	-0.012326540868869088	-0.003041448961812664
Ar	1.3339092785075966e-05	1.013686951240639e-05	0.0027743463921579875	0.01358824943181597	0.011149419887814416	0.0024682477132362303
2
184600
Ar	0.0001890646102382225	6.447137942303975e-05	0.0031753552242951757	-0.015852304778749195	-0.019538185360024725	7.693035678214447e-05
Ar	0.00013241500085028473	0.00010835477270903094	0.002792108209204582	0.009048589256288576	0.007682000335605967	6.49341433047177e-05
2
184800
Ar	-4.432246022942893e-06	-0.00013672199461371397	0.0031973462213104316	-0.021371731768790314	-0.018958297817059114	0.003089621841355064
Ar	0.00018326424606899527	0.00015524482277529984	0.002775168154453231	0.0007796865976294734	0.0011643981374327176	-0.0023943094697523202
2
185000
Ar	-0.00019944564603057872	-0.000276771986536005	0.0032183182083990905	-0.015730974912446356	-0.007611499306821714	0.0006107486111103401
Ar	0.0001454047616273012	0.00012641808394524712	0.0027593138941157318	-0.008062125067179017	-0.006703338076251711	-0.00045936658459080714
2
185200
Ar	-0.0002907823157756998	-0.00027536435246983197	0.0032077175799801443	-0.0017963009982197259	0.007730149461687487	-0.002513498509746927
Ar	3.5191905648288245e-05	3.251710870841684e-05	0.002767432654866443	-0.013049095840746998	-0.01126157453295791	0.0019249267372674034
2
185400
Ar	-0.00023669065547954611	-0.00013948248815311815	0.0031802751061296764	0.011848194437503545	0.018092930144285643	-0.0019147041966087552
Ar	-9.263562067763427e-05	-7.853827270776865e-05	0.002788968624684865	-0.011240090824114405	-0.00985178194675061	0.0015421042118933172
2
185600
Ar	-7.282924312629742e-05	6.217156072526322e-05	0.0031868306907564697	0.02000914756657646	0.020984053762959688	0.0027714613197379312
Ar	-0.00017064411208075287	-0.0001502420760256689	0.0027830128855556168	-0.003985513386363306	-0.0041068571539664995	-0.0023135482413614177
2
185800
Ar	0.00013125878787170343	0.00024246708277041737	0.0032131052148244646	0.01880005392906705	0.013188806334825942	0.0016887393675290058
Ar	-0.0001662390069729803	-0.00015112382385406336	0.0027614050401221233	0.004940560944246737	0.004093274480636927	-0.001405546022032482
2
186000
Ar	0.00026834461828543604	0.00030055913830272457	0.0032135553906467427	0.007364852378708873	-0.0020849274231144366	-0.0016063857485369257
Ar	-7.955705560767069e-05	-7.488333798950106e-05	0.002760454963913234	0.011670264890464358	0.01045754073798563	0.0012071627730093162
2
186200
Ar	0.00026813633418825057	0.0002076316824159969	0.003187461239121535	-0.007123119830827333	-0.015419567175250242	-0.0029071854697045227
Ar	4.746015186580804e-05	4.0225509877436166e-05	0.002781037327675448	0.012570605600759573	0.011475335901902854	0.0023713068269685584
2
186400
Ar	0.0001423667781224284	1.897771598199937e-05	0.003177193038308257	-0.017173077275285525	-0.021200961349622738	0.0016220104118188838
Ar	0.00014784786490351604	0.00013368717313025913	0.002789710874258658	0.006745525577078609	0.006673669831357955	-0.001294740062297541
2
186600
Ar	-5.340048451923665e-05	-0.00018650345897334365	0.003205209377068044	-0.02021558347657148	-0.017800051990981565	0.002771287001560801
Ar	0.00017485607599314145	0.0001641477933075466	0.002767717460776861	-0.001662369843866593	-0.0010994519935104829	-0.0021369473423891445
2
186800
Ar	-0.00022415834127942084	-0.00030188704687075265	0.0032188367292987643	-0.012298932356164683	-0.004156883563884848	-0.0002957958173347536
Ar	0.00011638382502988367	0.00011208376177182634	0.002757266413246705	-0.009504957995644487	-0.008860225643433821	0.00021713314530242748
2
187000
Ar	-0.00027821558476576517	-0.0002632500480950567	0.003200599821054307	0.0017946979386238994	0.01132403241987529	-0.002951465042247539
Ar	2.4184832314286652e-08	2.1811339958351312e-06	0.002771493390627857	-0.01276465755706846	-0.012160198803723255	0.0023446191647245916
2
187200
Ar	-0.0001969500174492082	-9.880325236209439e-05	0.003176277881620798	0.013571806943826148	0.02017827668101872	-0.0006690888177106463
Ar	-0.00011550470108336353	-0.00010852036848022514	0.0027911872273975913	-0.00914739737949722	-0.008970626891152198	0.0005481272831497872
2
187400
Ar	-2.3759748760899228e-05	0.00011570119629156286	0.003193466684202534	0.01985400115450716	0.021010685338152073	0.0029813153087649953
Ar	-0.0001704401100022703	-0.00016656505657971368	0.0027771366513175658	-0.0015419478160067608	-0.0021108711081901732	-0.002410136425640264
2
187600
Ar	0.00016505366259947536	0.0002807243985567606	0.0032157123613336005	0.016027835137942925	0.010295373766824068	0.0009228966597689582
Ar	-0.00014266732723882135	-0.00014359012417363413	0.0027595385069428494	0.0068814356094185425	0.0065372668450015756	-0.0007058488821817217
2
187800
Ar	0.00026771890405698294	0.0003029572039031289	0.003208395720940985	0.0036474531574366307	-0.005968013396552131	-0.0022284878676921403
Ar	-4.4290347393497315e-05	-4.709758819737093e-05	0.002765326870649434	0.011978357088302404	0.011906486793414689	0.0017786929076806155
2
188000
Ar	0.0002357103676169717	0.0001756042578639271	0.0031815380632412974	-0.009437832197350116	-0.01816214481609295	-0.002197349108493093
Ar	7.615980832989801e-05	7.35447745049724e-05	0.0027871013056769683	0.010934446758230782	0.011039421836558046	0.001840343774290156
2
188200
Ar	9.540229637194522e-05	-3.365093737039106e-05	0.003184554835243745	-0.017852440260703865	-0.022457918959158763	0.0026584453223257158
Ar	0.00015470711324990158	0.00015628866589694255	0.002784905136346781	0.0043634683081777	0.00510158479442906	-0.00216100674482441
2
188400
Ar	-9.460399848500175e-05	-0.00023576160971217256	0.0032126862141367866	-0.018316027348010157	-0.015859637321462488	0.0020676520999926866
Ar	0.00015755130502694662	0.00016506289261097054	0.0027623823058187435	-0.003912780439734956	-0.0035996037171922425	-0.0016110894013153573
2
188600
Ar	-0.00023674944949946355	-0.0003199742076930996	0.0032170181071545724	-0.008808977011609062	-0.00021523322600830973	-0.0012964589940640133
Ar	8.256645472594561e-05	8.978427402547017e-05	0.0027591374163356878	-0.010440426840930583	-0.010789371443058662	0.0010092727026060487
2
188800
Ar	-0.00025729592516773647	-0.00024271321082935826	0.0031918269173151314	0.004672016035121483	0.014743834333040474	-0.0031271032832132363
Ar	-3.4089179485087225e-05	-3.2138380692383924e-05	0.0027787700650894866	-0.011852307505410864	-0.012481376886980016	0.002465239464081121
2
189000
Ar	-0.00015604680065888784	-5.230762487823463e-05	0.0031755739217964904	0.014764246200263264	0.022079899596916558	0.0009155692376825723
Ar	-0.00013173379510293632	-0.00013664563922213943	0.0027914897636311165	-0.006790560539112177	-0.007672597061269305	-0.0008124122617762769
2
189200
Ar	2.0364875912459944e-05	0.00017006966447919813	0.003201177119849387	0.019015279286156556	0.02024146818628918	0.002930871937643738
Ar	-0.000162681793817994	-0.00017648007176154326	0.002770338927151826	0.0008768741379297449	0.00027595378346427995	-0.0023381879696767064
2
189400
Ar	0.00018900285204521617	0.00031232537117881415	0.0032182153449829484	0.013105998017222903	0.006782269886506286	0.00014314343346667467
Ar	-0.00011447088767295219	-0.00012883540252409196	0.0027573174067748282	0.008351839992801091	0.008820073267296898	-3.743946139070291e-05
2
189600
Ar	0.00025936436912584897	0.000294932201500238	0.003203628595012551	0.00043525196733746257	-0.009933420464716042	-0.002712628805935841
Ar	-9.27670293178165e-06	-1.4911569852299481e-05	0.002769277804574647	0.01179554188936867	0.012960603210882842	0.0022022421307445134
2
189800
Ar	0.0002016950643092557	0.00013531901177370805	0.0031784424182068264	-0.011205303437392625	-0.020505030746302312	-0.0011588835977640673
Ar	0.00010019372040222333	0.0001067720144299539	0.002790230482511151	0.008975975843134728	0.010182175857727013	0.0010020603353160962
2
190000
Ar	5.045365060547287e-05	-8.995952123156837e-05	0.0031918743292483178	-0.018072756502938516	-0.022901849147519835	0.002908246569643946
Ar	0.00015681309811638546	0.00017574084348042659	0.0027796262191295915	0.00205920939366554	0.003111579672796767	-0.002340660741639101
2
190200
Ar	-0.00012887888695475643	-0.00027955825623382984	0.0032153787294017543	-0.016051925335691383	-0.013066748336044884	0.001140362128643335
Ar	0.000137613575587231	0.00015989083240135083	0.0027611262855181096	-0.005776077040388768	-0.006223902170064179	-0.0009158236824328744
2
190400
Ar	-0.0002413233049551131	-0.00032694516853312396	0.0032103197853311795	-0.005431190151320799	0.0038991465052199852	-0.0020652088829056173
Ar	5.0660785304345274e-05	6.225672968417183e-05	0.0027647301415428278	-0.010870288349693068	-0.012451327303612971	0.0015916111070014888
2
190600
Ar	-0.00023127279142580963	-0.00021203112873499028	0.003183527345854247	0.007089185354615656	0.017801146342753923	-0.002476497730826505
Ar	-6.178824883794463e-05	-6.764877908548762e-05	0.0027860859357832137	-0.010526769280626411	-0.012248409198262011	0.002029793782886028
2
190800
Ar	-0.0001139352530194263	1.0690815035773645e-06	0.0031818377547977745	0.015697263320869147	0.02362783843766375	0.0023768822993148458
Ar	-0.0001399613285533141	-0.00016196054185506424	0.002787224981810466	-0.0046328835032326795	-0.006133146536510059	-0.0020141566950264696
2
191000
Ar	6.058975462940755e-05	0.00022278957355731372	0.0032108438848470317	0.017582337268948724	0.018443867518635505	0.0023946063457648214
Ar	-0.0001491046748021763	-0.0001796586495229284	0.0027633037221007355	0.0029612592107428775	0.0029813753692891076	-0.001933428371815826
2
191200
Ar	0.00020501717007668263	0.00033386062651077566	0.003218664265755601	0.009932769133923146	0.0027217977819774877	-0.0009821995369168409
Ar	-8.488749387234477e-05	-0.00010620473068243379	0.002756274867249711	0.0093258503692137	0.011044111302999933	0.0006332991627089591
2
191400
Ar	0.00024302273050478087	0.00027488310999076944	0.0031952297340628634	-0.002512556984405264	-0.013746918462159165	-0.0031549229155182516
Ar	2.179233621752163e-05	2.2350808486265726e-05	0.0027737018642081113	0.011113927998393697	0.013535692712724524	0.0024691266839545712
2
191600
Ar	0.00016397335714569725	8.619885055043426e-05	0.0031754459057202473	-0.01254390897055103	-0.022619348407838004	0.00032822438090071636
Ar	0.00011629438102395633	0.00013894212236682574	0.00279017512320093	0.006880853458352477	0.008863442016752486	-0.00016915690146900584
2
191800
Ar	7.0726509941455575e-06	-0.00014917443559304505	0.0031977474684509433	-0.017635588091618786	-0.02230453449164107	0.002900450231968978
Ar	0.00015120748229430098	0.00018925744067974245	0.0027732344449110055	-0.00012441829298050352	0.0006133359173233697	-0.002166329619441506
2
192000
Ar	-0.00015603561806022524	-0.00031632618671821475	0.0032159264125706773	-0.013410797245064766	-0.009459383301348176	0.00034444774233684147
Ar	0.00011338572765140258	0.00014683767170299783	0.0027604107759108803	-0.007135629002756481	-0.008733666478699638	-0.0001293759415473662
2
192200
Ar	-0.00023733218245775256	-0.0003219703785255861	0.0032036363290555	-0.002201266614770276	0.008234927920191063	-0.0025441636919686715
Ar	1.974933167336307e-05	2.9514902667517263e-05	0.002771326355112363	-0.01079909783235897	-0.01370904289307442	0.002089776047985396
2
192400
Ar	-0.00020068687477341117	-0.00017081828755415455	0.003178135618776744	0.008942106023734917	0.020492147841288742	-0.0014413540598210558
Ar	-8.326588441616937e-05	-0.0001027889595310433	0.0027921997931975935	-0.008747268109061679	-0.01141773094064519	0.001160992500322898
2
192600
Ar	-7.207286661729687e-05	6.12595552445695e-05	0.0031899019907884935	0.016063008624106874	0.024389338279583166	0.0030935928755327228
Ar	-0.00014075133415082883	-0.00018318487398673536	0.002781469918771204	-0.0024995238402914857	-0.004198093478552534	-0.002673781087155011
2
192800
Ar	9.467930642870063e-05	0.00027253649120921526	0.003217104099196451	0.015665676615108075	0.015684934903780052	0.0015825384438057106
Ar	-0.00012945306841393478	-0.00017592880057684993	0.002758059939143382	0.004720650453253351	0.00570885033569761	-0.0014121109530539442
2
193000
Ar	0.00021207198733808264	0.00034529132947868355	0.003215483221916363	0.006769218226733212	-0.00174027840349939	-0.0018719385963087542
Ar	-5.421685987394321e-05	-7.905901947072273e-05	0.0027576838810076734	0.00969711848191075	0.012819923341268186	0.0013223909262687727
2
193200
Ar	0.00022034069418748483	0.00024465310592366313	0.0031871366200656665	-0.004938968633097827	-0.017211899712894507	-0.003015975480103537
Ar	4.8618582245238854e-05	5.881225035798153e-05	0.0027793542152918594	0.00991116970622152	0.013456605676514941	0.0024426946520461944
2
193400
Ar	0.00012493591728740818	3.0083724599846006e-05	0.0031775934600410277	-0.013514805777745286	-0.024436748038109964	0.0016716360698964996
Ar	0.00012458531295434777	0.00016595994285213158	0.0027879508042985097	0.004705030367510459	0.007344822778341179	-0.0012615508263385917
2
193600
Ar	-3.2149330888086286e-05	-0.00020830492909370576	0.0032042220368139244	-0.016462063572792784	-0.020805556524622116	0.0025335260751727885
Ar	0.00013813367140577603	0.00019475886621190126	0.002768523402123063	-0.0021432779868065348	-0.0021088084099588596	-0.0017220623408154513
2
193800
Ar	-0.00017369331181199858	-0.00034514024052200695	0.0032156712783714646	-0.010493204857269862	-0.00526681833720626	-0.0004618259735657695
Ar	8.478673549387941e-05	0.00012587860089561373	0.0027620659275235976	-0.00806750400345163	-0.01102989176398909	0.0005658731485668699
2
194000
Ar	-0.00022460972169358078	-0.00030626817582711556	0.0031970397627626187	0.0006103977880783498	0.01248022004776848	-0.0027996185673108123
Ar	-1.0314730108775976e-05	-7.5047389365329516e-06	0.0027776831894161308	-0.01011610064753775	-0.014433364377033653	0.002247368574299527
2
194200
Ar	-0.00016683824172985598	-0.0001219082767173078	0.0031772954164299544	0.010281007828347573	0.022915103268144853	4.562661639497318e-05
Ar	-9.891096141507667e-05	-0.0001360409515732645	0.002793163731961437	-0.006677669671804041	-0.010144297016174496	-0.00013799017246696155
2
194400
Ar	-3.148184090554994e-05	0.0001240266373258285	0.0031992476435965186	0.01583068898706021	0.024191964291439296	0.003100980397512988
Ar	-0.00013563493934443997	-0.00019837350761050775	0.0027736048663726414	-0.00048670220327420545	-0.0017154163380195054	-0.0026950775150919254
2
194600
Ar	0.00012159184314384319	0.000315210909476026	0.0032201354986640474	0.013294967840046227	0.0120979630491231	0.0005698067268447405
Ar	-0.00010703322583798735	-0.00016343206664708144	0.0027551285422708818	0.005986687418488451	0.008402803853183684	-0.0006426470634293125
2
194800
Ar	0.0002106052895548672	0.0003446167054106184	0.003208591000294335	0.0037552008239329472	-0.006344261341863734	-0.002660205049048003
Ar	-2.558380446977009e-05	-4.470897162696022e-05	0.002762417094768555	0.009612825632697527	0.01429489485685627	0.001957445185959135
2
195000
Ar	0.00019336190209396078	0.00020433567310969788	0.0031787642656460314	-0.006788772224424007	-0.020212376395729387	-0.002234516136116844
Ar	6.90242929010925e-05	9.719860219749082e-05	0.0027858483793198803	0.00833407340154935	0.01267297517972429	0.001883380470984668
2
195200
Ar	8.692896032577347e-05	-3.115207135744299e-05	0.00318299504819492	-0.013920734109061679	-0.02546698306128851	0.0027333763589519303
Ar	0.00012595338621435443	0.00018953861542421658	0.0027837143654382834	0.002772580482984894	0.005291397904550133	-0.002024895604880162
2
195400
Ar	-6.374525338479064e-05	-0.00026113001718490285	0.0032109482162619614	-0.014765429678657809	-0.018163523699413837	0.00199686042384631
Ar	0.00012130148918623008	0.00019186175886837508	0.0027639321395544762	-0.003718769745229395	-0.005021512142501891	-0.0012855627973270044
2
195600
Ar	-0.00018119379438859482	-0.00035954937393129356	0.003214674070069408	-0.007644369213063774	-0.0006642915798848819	-0.0012728647756603568
Ar	5.738342073471208e-05	9.722989031971869e-05	0.0027634484387084675	-0.008508519561608967	-0.01308201228731037	0.0011822828549269081
2
195800
Ar	-0.00020510900108255858	-0.0002763517344200988	0.0031911304513866814	0.0028778676645784436	0.01624650386480383	-0.0027883354500966087
Ar	-3.504749351793179e-05	-4.7163462824668736e-05	0.0027831019145510678	-0.009126397637318632	-0.014483898497088709	0.0022528821164747317
2
196000
Ar	-0.00013228854928006345	-6.429976773892054e-05	0.0031801671445126434	0.011144136642514773	0.02485794693985753	0.0014001290233464168
Ar	-0.00010751861180009771	-0.0001659576675048979	0.00279123739215044	-0.0047642156194808195	-0.008463976689049022	-0.0013572617019655148
2
196200
Ar	3.886198339477678e-06	0.00018630912627291843	0.0032058428290302325	0.014941324903232868	0.02282718895417313	0.002543256582182314
Ar	-0.00012560039749570548	-0.00020526330711197576	0.0027678851953784754	0.0013082791125125224	0.001202259500617975	-0.0023111798954572695
2
196400
Ar	0.00013910807004622542	0.0003474362853831201	0.003217421094826135	0.010802179468629413	0.0078121878913994455	-0.00047052219395217015
Ar	-8.314245214603905e-05	-0.00014205620622143638	0.0027559359707091872	0.006831373350636904	0.010867453764621447	0.00014500654908482772
2
196600
Ar	0.00020140344285921423	0.00033035898385160505	0.0031982131876931944	0.0011864931641109493	-0.01087131263947953	-0.0029714183331566325
Ar	1.0397504563327617e-07	-6.508034306333931e-06	0.0027698879159581023	0.009135246000409077	0.015037815151292606	0.002366445102439863
2
196800
Ar	0.00016470397261818753	0.00015436753590502533	0.00317383079607197	-0.007981819966891316	-0.0227477202611556	-0.0006749117487373274
Ar	8.265090292663639e-05	0.00013183263345469456	0.002790571044373751	0.006507428831437241	0.011280709874742077	0.0007333472857190996
2
197000
Ar	5.2317328109688305e-05	-9.705820540118757e-05	0.0031925443548473263	-0.01381407823872854	-0.025623943515280058	0.0032780980319884628
Ar	0.00012116214303664606	0.00020541516503581766	0.002777652793473802	0.0010471268789709759	0.002842400165868319	-0.0023710961629294478
2
197200
Ar	-8.780669238078314e-05	-0.000309154577669407	0.0032177424479576206	-0.012869755286923417	-0.01463219670250261	0.0011714235698713036
Ar	0.00010175184354723457	0.00018007607013524553	0.0027601302481886033	-0.004819209063903115	-0.007771835133288906	-0.000751604983082778
2
197400
Ar	-0.00018163271056665975	-0.00036296342151295497	0.003211797546534801	-0.0050613588288935816	0.004257896449583889	-0.002219309249801413
Ar	3.2706619518337545e-05	6.334886786829487e-05	0.0027653177056574814	-0.008422465401848383	-0.014568254004838726	0.001707541046441363
2
197600
Ar	-0.00018271514816330136	-0.00023645877280991482	0.0031832877340399373	0.004607282005243296	0.01961276455491226	-0.0025009244218631025
Ar	-5.2554538563996614e-05	-8.633071940860193e-05	0.002787020521635186	-0.007809695452987478	-0.013865038627423991	0.0019266082208316319
2
197800
Ar	-9.960911390728371e-05	-3.5716802954967897e-07	0.003182842100960744	0.011556176063325293	0.026246840704509732	0.002424209723197815
Ar	-0.00010821704448327442	-0.0001912568774103613	0.00278607191415122	-0.0029992849216500185	-0.0065536856206910715	-0.002123109075608995
2
198000
Ar	3.256446405819893e-05	0.00024578618841129113	0.0032100629172155106	0.013637607749030308	0.02044016871575686	0.002085173057764792
Ar	-0.00011015690246145152	-0.00020529389309499257	0.0027630616388186653	0.0026541337977688635	0.004073193636771306	-0.0017115408518517618
2
198200
Ar	0.00014788518040312557	0.0003688118403847161	0.0032149487871060306	0.008345445298287475	0.0030298379670859266	-0.00116863142729717
Ar	-5.899156732943929e-05	-0.00011592925515760116	0.0027588397146603265	0.007144299212075407	0.012993319390234641	0.0009041029396764093
2
198400
Ar	0.00018586944074132223	0.0003044355555544786	0.0031916565943731056	-0.0009162506272810696	-0.015044001168135113	-0.0029215776141944885
Ar	2.129747634314916e-05	3.263426445876494e-05	0.0027778461151900346	0.008223811522575038	0.015362139304029675	0.00243071590549424
2
198600
Ar	0.00013508956365095682	9.73205421973934e-05	0.003176592847141412	-0.00876675722818395	-0.02495999712480838	0.0009260100399406004
Ar	8.917378648398052e-05	0.00016266119176062388	0.002791180861680862	0.00471178352294716	0.009663336640872123	-0.0006610144701353521
2
198800
Ar	2.0723194271205786e-05	-0.00016245944758723984	0.003202343780280677	-0.013197508972227222	-0.024577687885495157	0.0029442553186477256
Ar	0.00011049416934587965	0.00021428050089518507	0.002770969884014108	-0.0005659073192012912	4.082261956901652e-06	-0.002297910873763828
2
199000
Ar	-0.0001048616135805619	-0.0003464558955845631	0.0032193091544817343	-0.010735272859486686	-0.01038714457278737	8.980959014996005e-05
Ar	7.840794020824454e-05	0.0001598943972370774	0.0027579225141880596	-0.005590159106745578	-0.010424392061164252	-8.336111668376708e-05
2
199200
Ar	-0.00017490766764869487	-0.00035270858213648455	0.00320368513982539	-0.0027153243440953497	0.008995525420956836	-0.0028581224608949644
Ar	7.740099829576594e-06	2.360121584000942e-05	0.0027694651923032515	-0.00795879061218863	-0.01564477399306578	0.0021817057004019525
2
199400
Ar	-0.0001578651168225639	-0.00018792394107056007	0.0031766455636172753	0.0057666450810784226	0.022368272934587523	-0.0013418468293364787
Ar	-6.655736481471405e-05	-0.00012440789876991233	0.0027904322572867043	-0.006109255795246884	-0.012497775929438737	0.0010482346182784925
2
199600
Ar	-6.820243932042556e-05	6.597640814715181e-05	0.003189431848694457	0.011671912939840236	0.026662159064235736	0.003018325912015877
Ar	-0.00010472833236762326	-0.0002094902287458159	0.0027792875080404128	-0.0013695009832456679	-0.003967639673731658	-0.002508563293718724
2
199800
Ar	5.649149820818587e-05	0.00029649039805407825	0.003214902986985235	0.01207551753112444	0.01707411734231764	0.0014277663976119592
Ar	-9.210612266769756e-05	-0.0001937810600333802	0.0027591440577044457	0.0038209966566387604	0.007090924225093088	-0.0010333380970726155
2
200000
Ar	0.0001512942817814809	0.0003756048382059658	0.0032122369848322963	0.00602227670057793	-0.0018758320069327586	-0.0018716019230027132
Ar	-3.4508584828634856e-05	-7.959370661808721e-05	0.002762181683186696	0.007225768957824787	0.014736490384659542	0.001587193340748317
2
200200
Ar	0.00016831376228475915	0.00026664314729872097	0.003185749805579348	-0.002573892435099986	-0.018608907435489406	-0.0026133888693971696
Ar	4.052330173865493e-05	7.573841571702124e-05	0.0027843696717225292	0.007068503979075412	0.01480584256903597	0.002197939612948759
2
200400
Ar	0.00010691807899922326	3.3999167350820834e-05	0.0031815825154834867	-0.009321461689842724	-0.02660725168658924	0.002119406790661547
Ar	9.278730650791645e-05	0.00019074679369738987	0.002788186909486936	0.0030149790789316235	0.0075699252905555925	-0.001763351387076646
2
200600
Ar	-6.0609059584474906e-06	-0.0002245118781544339	0.003208573008839878	-0.012251021443302285	-0.022477591370420137	0.0022382613741774985
Ar	9.840401979569206e-05	0.00021517852484977581	0.002765533123420824	-0.001957184863741294	-0.00315609995284478	-0.0019036827713765701
2
200800
Ar	-0.00011563368474359358	-0.00037217467150021884	0.0032159338584135345	-0.008645374091327854	-0.005653776878122521	-0.0009209805951669669
Ar	5.659514631787577e-05	0.00013175468441440618	0.0027583394957290783	-0.006052572690253502	-0.012769970756639305	0.0005730969692984009
2
201000
Ar	-0.00016438027893395007	-0.0003303287025231158	0.003193567894192781	-0.0007788733123659493	0.013376405415494069	-0.0030200006778187565
Ar	-1.2713324709491634e-05	-1.882389180806569e-05	0.002774845973122025	-0.0072253796400990646	-0.015999997173826233	0.002364585708421063
2
201200
Ar	-0.00013365129868068903	-0.00013241212679285474	0.003174680220673766	0.006536003690716203	0.02468898736452878	0.00040762490003506485
Ar	-7.420537716424917e-05	-0.00015834334698648842	0.0027906886305878588	-0.0044440884703281685	-0.010688219385046594	-0.00023694477017977767
2
201400
Ar	-4.13236944381831e-05	0.00013328190890907196	0.003199046521167847	0.011276677201974937	0.026145201870272146	0.0031736238878816605
Ar	-9.627012201493145e-05	-0.0002202431920630951	0.002772205358929365	0.00010058671860007864	-0.0010068027703152426	-0.002366804323668281
2
201600
Ar	7.212799932528491e-05	0.0003398122915807605	0.0032197018964780708	0.010339661984638485	0.013079528164329831	0.000510503045246636
Ar	-7.224102927577287e-05	-0.00017385752440469157	0.002757663496736695	0.004509608416446123	0.009900477929132403	-0.00023851424174632185
2
201800
Ar	0.00014711307447387272	0.0003719354644987758	0.003207721657326648	0.004017804801150147	-0.00680571838852179	-0.002639331794879207
Ar	-1.3331501678042265e-05	-3.911934499669403e-05	0.002768024151151113	0.006830525108462052	0.01587870536402042	0.0021189727743433765
2
202000
Ar	0.00014792040083409466	0.0002213300356388685	0.0031796633496473195	-0.003636927845978464	-0.021722163041995375	-0.0018660832632907472
Ar	5.239246855603078e-05	0.00011579383314635099	0.002790496374932052	0.005621366799088032	0.01351860212492014	0.00148180442369263
2
202200
Ar	8.10678314187254e-05	-3.315124506949829e-05	0.003187564445638808	-0.009394680403826159	-0.0275546149676095	0.0028488692184664884
Ar	8.861229280607107e-05	0.00021119220130332147	0.0027832668264793216	0.0015074970726664967	0.005043057082002153	-0.002420154030103671
2
202400
Ar	-2.5831436718004425e-05	-0.0002811333479610913	0.0032136778897552303	-0.01099448799327573	-0.019513873303421265	0.001606105110281592
Ar	8.158086205425593e-05	0.00020538093206794866	0.002760919817915433	-0.0028695147204191125	-0.006307843521037514	-0.0014225123361690732
2
202600
Ar	-0.00011856676220298237	-0.00038653806314828534	0.003213153284752413	-0.006713897616289188	-0.00063626554056387	-0.0016898977994195814
Ar	3.531788777558189e-05	9.549672629897072e-05	0.002759715393933526	-0.006002059691942645	-0.01469772298149206	0.0011511618080296926
2
202800
Ar	-0.00014956397728753325	-0.000296886366096037	0.0031871013723096804	0.0006365630682845329	0.01743450783962548	-0.002797329420249465
Ar	-2.8690539894483973e-05	-6.379644957151014e-05	0.002779383359324543	-0.006215956206641928	-0.015641987103559813	0.0022282106491855157
2
203000
Ar	-0.00011014067334637399	-6.863783670222102e-05	0.003178509693785381	0.006948007355935831	0.02681198420478253	0.0017257617177630859
Ar	-7.655789110715911e-05	-0.0001887393070275147	0.00278658265990972	-0.002964171537300435	-0.008560095330288934	-0.0013432240696319522
2
203200
Ar	-1.8487602768095258e-05	0.00020106294687911985	0.0032059736657648634	0.010620030392176738	0.024478997754921496	0.0026027232954801273
Ar	-8.537197788000304e-05	-0.0002229060527409213	0.0027658696945773178	0.0012388617433999635	0.00224848921710821	-0.001873959099731535
2
203400
Ar	8.278362591978802e-05	0.00037309019723811096	0.0032175183738851632	0.008683322652675978	0.008273227818215876	-0.0005080871123101248
Ar	-5.338343384722238e-05	-0.00014588488714798047	0.0027585955298787624	0.004891041538537625	0.012468126277065898	0.0005610536613106927
2
203600
Ar	0.00013988367794184187	0.00035400163941188336	0.003197914261466428	0.0023115403306060455	-0.011649780269068604	-0.00295214288084995
Ar	4.577546923977544e-06	5.530771219380661e-06	0.0027753448427772684	0.006232730963275823	0.016484790674234202	0.0024410204275504103
2
203800
Ar	0.0001284594753163587	0.00016570078869414243	0.0031762015385477208	-0.0043437942360717964	-0.02439697187083351	-0.00015254601079366776
Ar	5.954925889481492e-05	0.00015289642025644907	0.0027934993742169717	0.004153287338216453	0.011648357695868422	0.00014463737156106168
2
204000
Ar	5.851369542489754e-05	-0.00010427794994056534	0.0031976146903215205	-0.00922203046609481	-0.027432398769618654	0.0032293822430141594
Ar	8.20657727718166e-05	0.00022477753787275069	0.0027755352275187217	0.0003218436743771535	0.002080746990428652	-0.0026745183058808786
2
204200
Ar	-4.099083168607795e-05	-0.0003305433445508559	0.0032201691513499015	-0.009700180363352753	-0.015534280516256063	0.0007607932485894137
Ar	6.548563927676762e-05	0.00018726324835724198	0.0027562117800343324	-0.003513076999063322	-0.009310716994030804	-0.0007859545583228765
2
204400
Ar	-0.00011798124213327574	-0.00038691959656954816	0.003210013524067527	-0.005015229892027698	0.004660990465111798	-0.0025942252249102024
Ar	1.7426109889280342e-05	5.428299450765817e-05	0.002762118889138229	-0.00570085446143593	-0.016125601547066992	0.0018175613482065331
2
204600
Ar	-0.00013431306183733343	-0.0002510942086237575	0.003180264154260695	0.0016819050958135535	0.020958079792772755	-0.0023482990646643788
Ar	-3.921786000847441e-05	-0.00010728462171331798	0.002784448787408464	-0.0050498009912670755	-0.01454786073230789	0.00185914677047384
2
204800
Ar	-8.916766071836843e-05	1.8106578723469523e-06	0.0031826232184862776	0.0071552526639703596	0.028128224388148056	0.002579824179210655
Ar	-7.360099561799396e-05	-0.00021359358532606197	0.002782823664622743	-0.001673951676192918	-0.006168157157028358	-0.0019648534913000357
2
205000
Ar	-8.807746439776081e-07	0.00026422208042444043	0.0032095581249217795	0.009688274160593386	0.021687878866617546	0.0019642783854554686
Ar	-7.179077405770872e-05	-0.00021835241741228413	0.0027632191595922027	0.0020435159129588267	0.005431320936311029	-0.001278352711988343
2
205200
Ar	8.698223065730657e-05	0.0003938128176224002	0.0032133983388892957	0.0070720132040118415	0.00306641347923875	-0.0012675715726297838
Ar	-3.564729088735026e-05	-0.00011372998075466014	0.0027632301872620156	0.004878213830053979	0.014585407272890599	0.0012958487643620511
2
205400
Ar	0.0001286449639189217	0.00032370137805681835	0.0031898181083926803	0.001005518924229272	-0.01609245287859511	-0.002773113640069524
Ar	1.7840444203131894e-05	4.867362262165169e-05	0.002784557485760038	0.0053574648787152014	0.016410734049333537	0.0024644672021579966
2
205600
Ar	0.00010926614616806275	0.00010260905831707347	0.00317911836483034	-0.004658333750177012	-0.026695502367996136	0.00153192210109807
Ar	6.0745911815089763e-05	0.00018381053406352923	0.0027943493218585648	0.0027834245365918704	0.009658951649548494	-0.0012992182665390668
2
205800
Ar	3.9939085817809156e-05	-0.00017486146997062536	0.0032076854537098467	-0.008697208098806256	-0.026157782354626465	0.0029053235227687775
Ar	7.115343193640516e-05	0.0002300068417293564	0.0027692285392658077	-0.0007110241567602019	-0.001062799267496052	-0.0026429814031816283
2
206000
Ar	-4.942977446252345e-05	-0.0003691639115175428	0.003221784176280761	-0.008336044101688296	-0.010820657309871765	-0.00037880473054563885
Ar	4.7909087959837735e-05	0.00016205512680948246	0.0027536657940474894	-0.003746264725103485	-0.011931613722109644	-0.00021134001217636795
2
206200
Ar	-0.0001118795764529564	-0.0003735717381385743	0.003201426432141168	-0.0036447146513590074	0.009774940418716717	-0.0032688412402517002
Ar	2.0455659392203198e-06	1.1407721052994211e-05	0.002765114806995068	-0.0050766050397103146	-0.016896435579796164	0.0022665984478765317
2
206400
Ar	-0.00011880749179910716	-0.00019680006278393366	0.003173379533930815	0.002136635305262243	0.023904205120490733	-0.0011241052060551207
Ar	-4.4441611420171325e-05	-0.0001449643080509411	0.002786999220510736	-0.0036745438671438426	-0.012840024120725737	0.0010875791576077944
2
206600
Ar	-7.230905604259036e-05	7.453698891528363e-05	0.0031882799000747123	0.006963791690220499	0.0283918370663172	0.003079257879526046
Ar	-6.564797552737632e-05	-0.00022904583986631393	0.0027780706161794084	-0.0005266245369177824	-0.003397055987095505	-0.0020185436881786385
2
206800
Ar	9.484929285180575e-06	0.0003183520110034245	0.0032132705197715815	0.008644403278817337	0.0178745973980623	0.0013284937072340084
Ar	-5.504432946093426e-05	-0.0002031810745186524	0.0027636012333645535	0.002562807945004543	0.008408590696522472	-0.00047862399971171387
2
207000
Ar	8.477194324819157e-05	0.0003992271798338894	0.0032099076144255084	0.005722327198809515	-0.0023407100431661796	-0.0018963686522729653
Ar	-1.8307415321076436e-05	-7.514054979210314e-05	0.0027705649588257776	0.0044671856742601644	0.016098086641666592	0.00176553334061258
2
207200
Ar	0.00011558903137647026	0.00028110962249450634	0.003184795208407407	0.00032166008455622864	-0.019845094190979296	-0.002265374212363538
Ar	2.7065192939499178e-05	9.089231474237197e-05	0.002791942290028769	0.004150660278251379	0.015474633675397784	0.0017918407929738845
2
207400
Ar	9.331675696055873e-05	3.371242097852461e-05	0.0031855338371544447	-0.00466057548190437	-0.028254122734688768	0.0024737160967318694
Ar	5.6020006326974916e-05	0.00020808421726075497	0.0027887794333322363	0.0014867914267232205	0.007362531533009708	-0.0025136270895547656
2
207600
Ar	2.7425631111141523e-05	-0.00023916014967426607	0.003213179533256976	-0.007979703763247279	-0.023567472862719506	0.002063502306924104
Ar	5.631778363417738e-05	0.00022584667059321985	0.002761163277549237	-0.0014037917022111917	-0.004211586048501141	-0.0022117353891569704
2
207800
Ar	-5.184793258697625e-05	-0.0003919322855412211	0.0032172581586142647	-0.0071284851542062514	-0.005593524592945662	-0.001342785879017757
Ar	3.0048384281697488e-05	0.00012992152246625127	0.002752640182355943	-0.0036350927576127927	-0.014113486377606104	0.0006045464128850799
2
208000
Ar	-0.00010274789886196725	-0.0003442284178686831	0.0031913791051412406	-0.0026970416004059353	0.014386514536728763	-0.003229666576456045
Ar	-1.0612379992365728e-05	-3.278221470745232e-05	0.0027703757799228163	-0.004174509545106062	-0.01696133645669136	0.0025528184459007847
2
208200
Ar	-0.00010385221905072207	-0.00013356026889869976	0.0031730728309161656	0.002339329516782733	0.026211446715866143	0.0006704915615756993
Ar	-4.4990055988076766e-05	-0.0001774364703062291	0.0027874626238642555	-0.002306616501316839	-0.010793782228866122	-0.00012487421890221013
2
208400
Ar	-5.8129293769202315e-05	0.00014676365677926642	0.0031983098911839846	0.006545626993247139	0.027323233658317063	0.0030891314778125362
Ar	-5.454480073410283e-05	-0.0002357014662949409	0.002772436689218204	0.0003968845263276577	-0.00019852459448767507	-0.0018412111283465835
2
208600
Ar	1.6110856189721792e-05	0.0003600683516087251	0.003217722523130871	0.00761187745239694	0.01324205459276666	0.00038983355543773776
Ar	-3.8380424816659655e-05	-0.0001780778601465889	0.0027628790372526673	0.0027093390555195645	0.01124191025120046	0.0001556267179834807
2
208800
Ar	8.053816349432114e-05	0.0003885978773338588	0.0032051915275180423	0.004688443798542864	-0.007597394020049286	-0.0025962453479123062
Ar	-4.20689049738377e-06	-3.0050237992409046e-05	0.002775137856804542	0.0038381678941987614	0.017088140911075175	0.0020690031583842027
2
209000
Ar	0.0001038188723192778	0.00022764315579813706	0.0031795086103213106	-5.47896165243714e-05	-0.022919925037663463	-0.0013475541191651555
Ar	3.1588691874407365e-05	0.0001325338876785568	0.0027941184721153945	0.0029147293006381303	0.01381159959998094	0.0007966178068058709
2
209200
Ar	8.09418354387709e-05	-4.0122674372063556e-05	0.0031916724113872177	-0.004479707646813843	-0.028863637819904264	0.0029388077823837727
Ar	4.847329982926882e-05	0.00022696806512360272	0.0027797398390226715	0.0004827567814941914	0.004497908378537121	-0.002893000119145233
2
209400
Ar	1.973494807553782e-05	-0.0002973511153578254	0.0032162683453667677	-0.007208572172944678	-0.019991717411573573	0.0012973037779707318
Ar	4.170087561266009e-05	0.00021176187173613308	0.0027555542512087933	-0.0017709091968144352	-0.00751282816720082	-0.0014114652266414634
2
209600
Ar	-5.0199009775705444e-05	-0.00040276562615047383	0.0032120666935705295	-0.006130523452478428	-0.00020380524283867158	-0.0020507186247901237
Ar	1.5478048566474267e-05	8.916200458507398e-05	0.0027558696229725557	-0.0032556345189519334	-0.015952501289066546	0.0014345235735819827
2
209800
Ar	-9.281013578472995e-05	-0.00030544611247742995	0.0031835867432698263	-0.002098515718212791	0.018438031894617176	-0.002815953589808767
Ar	-1.832048366203548e-05	-7.973582689049048e-05	0.002778655342148749	-0.0031617186587060897	-0.016205881007527307	0.002456893529755667
2
210000
Ar	-9.193730964327982e-05	-6.588419268482329e-05	0.0031781417694298686	0.0022597438020318726	0.028068232968341125	0.0021481311932597226
Ar	-4.1047451707801455e-05	-0.00020583739389446742	0.002786504060694688	-0.0011539990324026428	-0.00827500352947266	-0.0012927037990573952
2
210200
Ar	-4.915869312466267e-05	0.000214498503748433	0.003207472972685961	0.005985941421695457	0.025183791580461953	0.0026129494655049235
Ar	-4.1815479896633e-05	-0.00023319460669146775	0.0027681308414724587	0.0009554423415134319	0.003285439949173396	-0.0015634462427816641
2
210400
Ar	1.74662568641111e-05	0.000389336521538358	0.0032183164050955393	0.006706958153472734	0.008110105928825455	-0.0006377337748187953
Ar	-2.3424282956740356e-05	-0.00014425876252762516	0.002763428558929131	0.002568455513270335	0.013690985836121657	0.0007505988110971452
2
210600
Ar	7.319566630951243e-05	0.00036509029368383223	0.0031977678487001083	0.003970709677883568	-0.012477343787288769	-0.002980750197567566
Ar	5.674192208313037e-06	1.7842662204805388e-05	0.0027803280940833005	0.003021089382589036	0.01728775127309787	0.002292649665818829
2
210800
Ar	9.245220197552622e-05	0.00016697763302311587	0.0031773834105479275	-8.964289863322523e-05	-0.025518821434359445	0.00011059764651704713
Ar	3.117980588917314e-05	0.00016918162594598048	0.002794261224814087	0.0017626016478660602	0.011633603511639957	-0.0005544949904459651
2
211000
Ar	7.105193314864529e-05	-0.00011395279373295262	0.003198725982850308	-0.004167816956676619	-0.028311290595095413	0.002923241305713403
Ar	3.8627969852104105e-05	0.0002369575904629562	0.0027712211124350144	-0.00020984754442862898	0.0012533264213222981	-0.002914543798231105
2
211200
Ar	1.5040042975298296e-05	-0.0003449779956159977	0.0032175666414163604	-0.006505395377365069	-0.015584075756137206	0.00039479746564046104
Ar	2.822384832794908e-05	0.00018850646960271022	0.0027515918743061096	-0.0017822814080452	-0.010543828375113506	-0.0006595037710257807
2
211400
Ar	-4.736822675462663e-05	-0.0003980109993163157	0.0032051426615642615	-0.005411229362124066	0.005306189026824305	-0.002633253846721314
Ar	5.089051655156554e-06	4.4112732709802716e-05	0.0027598962405833215	-0.0026488003878921366	-0.0170912120405627	0.0021430014690229297
2
211600
Ar	-8.471927908373858e-05	-0.0002542379882534008	0.0031774791805535873	-0.001879034114088413	0.021854135946627554	-0.0018107834897142998
Ar	-2.0485599182605402e-05	-0.00012328431282156494	0.002785024165909865	-0.0021561694954574714	-0.01469689166585365	0.001967742204403115
2
211800
Ar	-8.396951047464451e-05	8.394769660121571e-06	0.0031860827365896103	0.0021032082108465126	0.0290619285689259	0.003011288022755358
Ar	-3.313465405289642e-05	-0.00022708644026618553	0.0027833924318944377	-0.0003565423534641218	-0.005519351874539282	-0.0018573031089730756
2
212000
Ar	-4.403458619157467e-05	0.000276731062069711	0.003214499658766593	0.005575739705226554	0.02187368323413474	0.0018503586458755133
Ar	-2.892296841605606e-05	-0.000222220037599967	0.0027663661632360884	0.0011420560715911545	0.006582353675918886	-0.0009954615194541889
2
212200
Ar	1.7300376265490404e-05	0.00040456652096264344	0.0032159249943642353	0.006133672073893466	0.0025462966697540903	-0.0015538081771604103
Ar	-1.1747704844083201e-05	-0.00010595645806482739	0.002767803254699397	0.002139429718900759	0.01565751016017226	0.0012636021373929928
2
212400
Ar	6.81806319079814e-05	0.0003275138906294365	0.003189616461705531	0.003643680380252109	-0.01684736006321644	-0.0029620036182889512
Ar	1.0826711617777277e-05	6.443007238426383e-05	0.0027868153451613134	0.0021532177280875003	0.01680908842386692	0.0019959648600965402
2
212600
Ar	8.663679286573448e-05	9.84100063188907e-05	0.003179288127005579	1.0592854173123779e-05	-0.02756444115852303	0.0015999807056919389
Ar	2.6391528110312187e-05	0.00019890542837835848	0.0027899679024307976	0.0007880917838208914	0.009237388613088733	-0.0019551571718348687
2
212800
Ar	6.657888563217483e-05	-0.00018542419618638783	0.003205984561082661	-0.00397156540813122	-0.026441236646447652	0.0025573126630227833
Ar	2.6845953081352258e-05	0.00023726103509985632	0.002762402681491427	-0.0005914717464483884	-0.002187616191397269	-0.0025271264347015744
2
213000
Ar	1.3777075672292534e-05	-0.00037944185133181874	0.003217067009628807	-0.006098435221721272	-0.010479234998823054	-0.0005726081033291451
Ar	1.554592884133469e-05	0.00015691917255005914	0.002750302642868894	-0.001577992827271708	-0.013152459876713374	0.0003052903012262384
2
213200
Ar	-4.407418347301192e-05	-0.00037842655042394905	0.0031970970384820395	-0.00496034847182487	0.010426739171206099	-0.003003224981277167
Ar	-2.4076615450681696e-06	-3.621681981070989e-06	0.0027668798207548533	-0.0018970710344205924	-0.01755999958257981	0.0026915081336345036
2
213400
Ar	-7.875942375774132e-05	-0.00019535184475159975	0.0031742611749526074	-0.0018396408035901283	0.024561260313152967	-0.00032443531659311965
Ar	-1.860888068691126e-05	-0.0001617118692513334	0.002790189591225033	-0.0011110893233896957	-0.012536632181380595	0.0008672206498823185
2
213600
Ar	-7.886413570475919e-05	8.254520152130793e-05	0.0031950910067316375	0.0019643341963034894	0.028874613157256604	0.0032897399170774377
Ar	-2.268190018906573e-05	-0.00023922228779729794	0.002779298830173579	0.00020531332559924873	-0.0023266799836982764	-0.0020700335085585453
2
213800
Ar	-4.118825102763256e-05	0.00032771661594873443	0.0032189649423951137	0.005248401385439566	0.017708631996981996	0.0009426112014207399
Ar	-1.6260481481804645e-05	-0.00020102113804976513	0.0027646613350525017	0.0010374046414365165	0.00968940784153132	-0.0005036589426964622
2
214000
Ar	1.6332908646778484e-05	0.00040483041006130193	0.003211026020167849	0.0057466929696770854	-0.0028625458570348677	-0.0023566868236334147
Ar	-3.2192650851515136e-06	-6.158337293367762e-05	0.002771095533741342	0.0014804248563105747	0.0169835425218059	0.0016536055215619668
2
214200
Ar	6.403739557990302e-05	0.0002812105070699132	0.0031825837248731074	0.0034665407923244436	-0.020412600912618078	-0.0023350326941311977
Ar	1.113179754680774e-05	0.0001091385349167577	0.0027902862160156345	0.0012367993306157583	0.01542982083534755	0.001416767803375077
2
214400
Ar	8.2921675455281e-05	2.7169726450743104e-05	0.003184355202588829	0.00015974748527291697	-0.028903414715440456	0.0025160527178163966
Ar	1.780137065490112e-05	0.00022183189122356684	0.002783160408670628	5.557738001768899e-05	0.0065292677631703855	-0.002627958170219103
2
214600
Ar	6.46558433251877e-05	-0.0002494901859503686	0.00321090639597124	-0.003699056139998409	-0.02362213784010965	0.0019214353881000458
Ar	1.4406811262081708e-05	0.00022780771583016325	0.002757349811518802	-0.000673496273159699	-0.0055617331649545935	-0.0017917176413549387
2
214800
Ar	1.4827436693674654e-05	-0.00040010012565474455	0.003214138246196333	-0.005786281801327518	-0.0051278213473267276	-0.001356344155597667
Ar	5.434480600671431e-06	0.00011944860121518019	0.002753805117767669	-0.001050358036561627	-0.015178115017652807	0.0010965015282595812
2
215000
Ar	-4.06794780251249e-05	-0.00034646827759341863	0.0031895439348966406	-0.004845315252315346	0.01501982335669309	-0.0029170570575989922
Ar	-5.217851954233962e-06	-5.058547758859059e-05	0.0027752959585458045	-0.0010093731340391023	-0.017252563191374772	0.0026937447248642247
2
215200
Ar	-7.624836157513529e-05	-0.0001297326426688208	0.003176733098458857	-0.0021268874529135648	0.026845416054533215	0.001298700014040066
Ar	-1.234454243948566e-05	-0.0001930038930850819	0.0027902655056073733	-0.0002628426513892875	-0.01016014161564828	-0.0005664755142543929
2
215400
Ar	-7.902763331794773e-05	0.0001554716295064368	0.0032042708650963404	0.0017330381244888965	0.02753365385751648	0.002969855479088767
Ar	-1.1096324740924503e-05	-0.00024165665598514536	0.002772672667383316	0.00037722434419145085	0.0010488851121527628	-0.00195845258435851
2
215600
Ar	-4.346576636891252e-05	0.0003676128317119258	0.0032200266920740864	0.0050727555805030345	0.012824222426680555	-0.00011668264699789568
Ar	-5.970910644710474e-06	-0.00017115404226437675	0.0027625880893114613	0.0006037576844108077	0.01242848422324301	0.00013363262721741994
2
215800
Ar	1.2948408287828805e-05	0.0003904901245409053	0.003202801680387012	0.005694477500110331	-0.008215738710434854	-0.00293250995451654
Ar	5.868743047942771e-07	-1.416842910929458e-05	0.002774888727218653	0.0006627327763969491	0.017596445484581537	0.002081678370470624
2
216000
Ar	6.157240173904233e-05	0.0002243636821523916	0.003176753152195535	0.0037473368716737844	-0.02338647477590335	-0.001063347766992867
Ar	6.354605581478545e-06	0.00014852946276871384	0.0027926803677384483	0.00037935327366596383	0.01334338550667598	0.0004722042673564389
2
216200
Ar	8.401705421497709e-05	-4.809865931853645e-05	0.003191739751660602	0.0004424158154760926	-0.029193150799419733	0.0030513541620493328
Ar	6.322674736248023e-06	0.0002353417320770652	0.002776184963828525	-0.0002711605066001073	0.00343912607998688	-0.002853802034024268
2
216400
Ar	6.729890950834114e-05	-0.0003057386380268909	0.00321609433379906	-0.0036650577971239873	-0.019743631902116962	0.0011834653583141321
Ar	3.145866294242886e-06	0.00020810105695505274	0.0027540650906072517	-0.0003307868376873439	-0.008721750676617577	-0.0011145825734797392
2
216600
Ar	1.710997469871437e-05	-0.0004064475815753577	0.0032109573695436105	-0.005875600493533517	0.00043104888520399345	-0.0020844265416921203
Ar	2.0562456965155242e-07	7.545856553412896e-05	0.0027575688220202303	-0.00027946784897494025	-0.016669427365531814	0.001750119445764621
2
216800
Ar	-3.9843280702653414e-05	-0.0003030022241342633	0.0031835816391410704	-0.005070836501298853	0.01893369158823127	-0.0025152215810974672
Ar	-2.395224019184807e-06	-9.645174404255623e-05	0.002781877796828149	-0.00024784559782730807	-0.01605266160565834	0.0023921083882383364
2
217000
Ar	-7.872102600321149e-05	-5.8674616787334945e-05	0.003181606689595002	-0.002480546977464513	0.02855239367822537	0.0022968489685148185
Ar	-2.852816969016174e-06	-0.00021750933078257533	0.0027871537103660313	0.0002343017084173447	-0.0074964584895318665	-0.0015184417678364103
2
217200
Ar	-8.3164781179054e-05	0.00022345450343271806	0.0032092690299056273	0.0017520725229165192	0.025041169510358223	0.0022393923645112404
Ar	9.133178301186397e-09	-0.00023440809152220588	0.0027684482457985718	0.00023256570630662466	0.004485475656454792	-0.0014480310085661704
2
217400
Ar	-4.613103499440036e-05	0.00039404861505736634	0.0032159788816060846	0.005295636671383159	0.007488197420686987	-0.0010092886208435846
Ar	1.2810118912629166e-06	-0.0001347924161051773	0.002764810726823928	2.9247774694144388e-05	0.01458042580474339	0.0007736096816756036
2
217600
Ar	1.293447581399794e-05	0.0003629872239173836	0.0031932170376332233	0.005986264604496802	-0.013064061312525438	-0.0029751765097935966
Ar	8.2977330839714e-07	3.3070881868601107e-05	0.002781585145817603	-9.648914741063343e-05	0.01745478951083233	0.002154692342877475
2
217800
Ar	6.447847370422087e-05	0.00016070656406569228	0.00317660437611764	0.004102277280789559	-0.025865556927281395	0.0007539142587379908
Ar	-6.986520489560097e-07	0.00018163826616266724	0.002792323523049785	-0.000332598786378209	0.011023346926780385	-0.0009568841315411708
2
218000
Ar	8.908012906307374e-05	-0.00012245328706041015	0.003201939143851943	0.00044504163619881045	-0.02825741777393258	0.0030118461563678352
Ar	-4.825454115691582e-06	0.00024071902243616645	0.002768299006754124	-0.0003181489782782084	0.0001398606908256758	-0.002720530111915221
2
218200
Ar	7.08412377457209e-05	-0.00035028471782403635	0.0032196427649291088	-0.003908140072654357	-0.015057471203049233	0.0001492148549310871
Ar	-5.571702955396346e-06	0.0001813187039122841	0.0027520126906544584	0.00017348330614172912	-0.011493677440603691	-0.00024630695176231117
2
218400
Ar	1.7771505500774e-05	-0.000397351004886253	0.003204521949178312	-0.006187064911616389	0.0058918505849997315	-0.0028575351550644604
Ar	-2.250370369810802e-06	2.9866318341040132e-05	0.002763891947779495	0.00045923291422339275	-0.01748721580617446	0.0023878200788901432
2
218600
Ar	-4.252698773589776e-05	-0.00024924422815037053	0.0031766896938440533	-0.005442132948574815	0.022144327428913556	-0.001561896333012068
Ar	2.3479324411020605e-06	-0.0001368867656142177	0.002788709414700221	0.0004644974417128894	-0.014161679409425346	0.0015940789119989122
2
218800
Ar	-8.515791080778599e-05	1.6333268241469257e-05	0.003187939827593814	-0.002708196877121929	0.029242437568571113	0.0030584076169800677
Ar	8.103144305193588e-06	-0.00023282267724089684	0.002782371233527325	0.0005844791888665702	-0.004514592352184495	-0.0021744463029239433
2
219000
Ar	-8.941486484802307e-05	0.00028323069114023373	0.0032149216000814202	0.001954858441460884	0.02142993167623608	0.0015904514226615918
Ar	1.0722698560290396e-05	-0.00021714596549799036	0.0027636773612880142	-0.00011408897081996043	0.007663205434357693	-0.0010273000443095143
2
219200
Ar	-4.9251106590206666e-05	0.00040513000793311106	0.003213831556773755	0.00571492731430547	0.0019028424631004268	-0.0017731157551443796
Ar	6.132067715920916e-06	-9.256587715492344e-05	0.002765652212945841	-0.0007392900377297694	0.016184292249944575	0.0013802387960788341
2
219400
Ar	1.4154721898827246e-05	0.0003227513987885298	0.0031870788301475014	0.0064023500410465934	-0.0172803647127376	-0.002757955481684162
Ar	-2.3785365382218485e-06	7.928447264384406e-05	0.0027857196845650863	-0.000860696219161981	0.016509874629390527	0.0020437821201905416
2
219600
Ar	7.083088580220322e-05	9.046384666007577e-05	0.0031803572050115303	0.0046224830873969275	-0.02780651270081581	0.0019092874122962765
Ar	-1.073163027514351e-05	0.00020769629708503019	0.002788150789231787	-0.0008540790474974297	0.008428483598833128	-0.0019407251422233415
2
219800
Ar	9.777952070781511e-05	-0.00019308838743423517	0.00320730053292648	0.0003761837448972039	-0.0261021117569536	0.002392128957205652
Ar	-1.6209318107166998e-05	0.00023588153150214502	0.0027631371260610597	-8.055272780672923e-05	-0.003251079871353892	-0.0021281062316811294
2
220000
Ar	7.676033806942756e-05	-0.0003813962475512845	0.0032163401682723295	-0.0044002679119486115	-0.009785706984626701	-0.0007592949408095655
Ar	-1.1913743931781245e-05	0.0001466242519460092	0.002754790901546901	0.0008702936180374283	-0.013818690833449814	0.0005611775221785264
2
220200
Ar	1.8328011863838953e-05	-0.00037368316166010407	0.003194910322572337	-0.006739363423893312	0.01096864923806863	-0.003023992891893032
Ar	-5.212917786001824e-07	-1.7518080636275327e-05	0.002772087002120572	0.0012809164047546458	-0.017562441423084288	0.0025409633802641
2
220400
Ar	-4.7351660072526356e-05	-0.0001872642806406439	0.003174737055707806	-0.006011186673624276	0.024734961918128337	0.00017123198468761672
Ar	1.1018378608893504e-05	-0.0001714879326722978	0.002790776109877843	0.001038773955085947	-0.01181595318311203	0.00015540503904771136
2
220600
Ar	-9.450505183202034e-05	9.08734112454257e-05	0.003197924315220791	-0.0028719254887507053	0.028601879714967315	0.0031963075184476743
Ar	1.9510728701803632e-05	-0.00023990197237481767	0.0027751664737084227	0.00043561029043085256	-0.0012687514656471704	-0.0022167505962140373
2
220800
Ar	-9.745412890464468e-05	0.00033074431920555246	0.0032195099623557304	0.002350520597382795	0.01698210293734619	0.000658031420839491
Ar	1.766217958144844e-05	-0.00019138099349273548	0.0027608033939564153	-0.0007757528176550174	0.01056373773562767	-0.0003313871540787852
2
221000
Ar	-5.172301269220537e-05	0.0004001775860186873	0.003208691147385064	0.00633326913165374	-0.003553948836666927	-0.0025745074518671142
Ar	5.3649970012294925e-06	-4.611001869999726e-05	0.0027697140269245025	-0.0015386950341305307	0.01725477336117248	0.0019463353526380537
2
221200
Ar	1.7604519562431807e-05	0.00027182993669106723	0.0031802955952696193	0.006957473342564091	-0.02061307745686936	-0.002011776800745627
Ar	-9.946567789544549e-06	0.00012273333707718437	0.0027906359961912177	-0.0013885243558100424	0.014797091474537087	0.0013858317054166805
2
221400
Ar	7.974556060180325e-05	1.718746149265582e-05	0.003186517282566185	0.005019239445240516	-0.028790707753533793	0.0027915421238986554
Ar	-2.1503892782724706e-05	0.00022703793673358052	0.0027823241939852407	-0.0008600404167518014	0.005533311660367327	-0.0026014719847502117
2
221600
Ar	0.00010714008027817507	-0.0002549935381299547	0.0032128351763125447	0.00010009098942702818	-0.022877000421889504	0.0016967505709519126
Ar	-2.3616982510651354e-05	0.00022248541507918776	0.002758518602225794	0.0005218115996928376	-0.006565147456478584	-0.001530070862918071
2
221800
Ar	8.109745522089155e-05	-0.00039738188337946597	0.003213307077292392	-0.00506088645650811	-0.004338737446118116	-0.0015900456764802666
Ar	-1.209625568384951e-05	0.00010632797539665488	0.0027570937344557245	0.0016607699699035764	-0.015643705888415304	0.0012319448770671056
2
222000
Ar	1.531989927550705e-05	-0.0003379961953070954	0.0031877272073959515	-0.0074405240133539425	0.015307007287159925	-0.0028316670672645355
Ar	6.346199438404795e-06	-6.401613406384434e-05	0.0027787256112340284	0.0018464290151171154	-0.016851623873595567	0.002564822282719165
2
222200
Ar	-5.7184222615571864e-05	-0.00012062784899341928	0.00317830088725952	-0.006657569935175911	0.026793839359616448	0.0016932792598273628
Ar	2.265291423723631e-05	-0.00019928766831950226	0.002789976342833717	0.001366934498323577	-0.00926011819606479	-0.0010528097762447656
2
222400
Ar	-0.00010705210559419286	0.00016144913037402191	0.0032064700254777535	-0.0027149576543749427	0.026912149161212567	0.002745446813653089
Ar	3.044472839713604e-05	-0.00023775560804278426	0.002770345102606315	-1.6242554503120017e-05	0.002082620718211278	-0.0019208747543902134
2
222600
Ar	-0.00010462688247244035	0.00036579573274763224	0.003219379598159309	0.0031703197113987355	0.011978107296406762	-0.00040058900136792863
Ar	2.163735922459873e-05	-0.00015891866121167547	0.0027616536413905594	-0.0016314078299878552	0.012964803583981702	0.00035717476204933057
2
222800
Ar	-4.9911001202078635e-05	0.0003819559175362388	0.003199880640297812	0.007234807710298629	-0.008664341968616178	-0.0030585406054947917
Ar	6.50970501346262e-07	1.3940475636837133e-07	0.0027759177715637857	-0.0023636360432395713	0.017451975168317806	0.0021973933110702457
2
223000
Ar	2.7527434195141693e-05	0.00021418855620736568	0.0031757130551279505	0.0077309758326092595	-0.023315236168489604	-0.0005156870572705012
Ar	-2.1213390994676863e-05	0.00015783035294070783	0.0027928926817519907	-0.0018717377726713029	0.012525984515663627	0.00012930221136105637
2
223200
Ar	9.557460366745952e-05	-5.583163361636e-05	0.003194783639116968	0.005196869567691597	-0.028644355233832845	0.003153508202391317
Ar	-3.545592624622994e-05	0.00023541843629628007	0.002774318458037472	-0.0007078489930715662	0.002421167070658964	-0.0028072808572608045
2
223400
Ar	0.00011978565717639531	-0.00030563368447985597	0.0032178875742142564	-0.0006594004469791637	-0.018802829212969104	0.0009227396839874473
Ar	-3.197397742736359e-05	0.00019895877872539884	0.0027539015769635	0.0013802092627200795	-0.009451735283224946	-0.0008672730801714757
2
223600
Ar	8.362045828811703e-05	-0.0003975682895736032	0.0032097706207843916	-0.006195307675714658	0.0011019453026798296	-0.0023882841546527867
Ar	-1.0743007182723917e-05	6.221633891277229e-05	0.002759740633887797	0.0026595548747466056	-0.0167274877398786	0.0019169037543965886
2
223800
Ar	7.5727007802653155e-06	-0.00029101993042267456	0.003181021557847959	-0.008346291620374128	0.01888696578548372	-0.0024001414492944746
Ar	1.6565145006513793e-05	-0.00010685585511799641	0.0027842747659173436	0.002483433335716584	-0.01537985315159348	0.0021987601695126957
2
224000
Ar	-7.268885825690423e-05	-4.966361088123814e-05	0.003182689807602171	-0.0072288844874916205	0.02804553813295231	0.002591171499453795
Ar	3.656564757512041e-05	-0.00021928771123675157	0.0027857806043334963	0.0014172608080122477	-0.006532517139421663	-0.0018116061457202565
2
224200
Ar	-0.0001230870876497457	0.0002247928020294792	0.0032107537979465246	-0.0022235473051722705	0.02407311024843054	0.002101246429265917
Ar	4.040076309850978e-05	-0.0002265404492899045	0.0027662479525364728	-0.0007621079302467528	0.0053326012878034046	-0.0013799574230470189
2
224400
Ar	-0.00011217669835709403	0.0003862027278967804	0.0032157620418784734	0.004301438806026067	0.006772011421749128	-0.0011888566508435167
Ar	2.2439609950061738e-05	-0.00012064932649314224	0.0027639698650538764	-0.0026432128631350992	0.014907676543360806	0.0009677229417460509
2
224600
Ar	-4.557989841572317e-05	0.00035107032198992326	0.003192089487654341	0.008351829613067033	-0.01313754721669771	-0.002913128293942149
Ar	-7.524059823452355e-06	4.627799139413427e-05	0.002781913317350318	-0.0030620916791044015	0.016968098314734222	0.0021620049584940124
2
224800
Ar	4.146312826709058e-05	0.00015095645088822066	0.003178185569654905	0.008563268905939407	-0.025467978109387987	0.0010963828002944283
Ar	-3.342978020590144e-05	0.0001869800158153605	0.0027909019900057524	-0.002053918811979968	0.010060232835057482	-0.001197350792912431
2
225000
Ar	0.00011339177782742844	-0.00012571269183512052	0.003203943702774497	0.005024835809414039	-0.02734373392266221	0.002805165907850771
Ar	-4.556189838921443e-05	0.00023553732360725681	0.002767187246303433	-8.716147096127005e-05	-0.0009131571862971335	-0.002457262059938883
2
225200
Ar	0.0001308977449958799	-0.00034383495626695294	0.0032186892262633113	-0.001733063819620377	-0.014135008044951426	-0.00019193791897724008
Ar	-3.387715364491981e-05	0.00016780393141235423	0.002753930706894483	0.0022957167092701337	-0.012020284914147203	2.5727444801786623e-05
2
225400
Ar	8.230683257185371e-05	-0.00038430391930015944	0.0032013609372396703	-0.007471925870204911	0.006177930899540251	-0.0029211587911702965
Ar	-3.776070386615376e-06	1.534629651209317e-05	0.0027673720313262937	0.003458867878981915	-0.01716826308153094	0.002380253924889316
2
225600
Ar	-4.846042781406213e-06	-0.00023747031605807656	0.003175396539627848	-0.009275052922137119	0.02165774135127319	-0.0010677586930837226
Ar	2.8509777333306628e-05	-0.0001443462768315433	0.0027899724563991255	0.0027280452898143757	-0.013161601632456865	0.0011087856760099097
2
225800
Ar	-9.238549738239368e-05	2.12853038646599e-05	0.003190971143091194	-0.00749340640052771	0.028318534906406574	0.003213752569017948
Ar	4.851866446824359e-05	-0.00022974567718894801	0.0027798961632024347	0.0010568021405258092	-0.0034050665736900057	-0.0023026346448119504
2
226000
Ar	-0.00013904429341093778	0.000277558625765872	0.0032170884532733697	-0.001316069020371462	0.020349406598291948	0.001357230492246597
Ar	4.527346183846735e-05	-0.00020433749533777898	0.002761460535904199	-0.0017046702153134302	0.008360571568040995	-0.0009109989979845116
2
226200
Ar	-0.00011571691583797101	0.00039119689922141176	0.003213455954351604	0.00572599672668271	0.001428098582082596	-0.0020230723639682482
Ar	1.7765002248833488e-05	-7.634534861768815e-05	0.0027652341927576923	-0.0035547257182216	0.016141841243821224	0.001596323995770324
2
226400
Ar	-3.602625567539637e-05	0.0003084167394186514	0.0031858925991957773	0.009473468845497228	-0.01686062073135937	-0.002614998966329559
Ar	-1.934072389322659e-05	9.095732987109819e-05	0.0027868762090582366	-0.0034946225193049347	0.01569272162812977	0.00204624427258364
2
226600
Ar	6.060063168289526e-05	8.281785519755737e-05	0.0031825880993861045	0.009321167582415149	-0.026959231393639524	0.0021790303664646687
Ar	-4.7056664554580925e-05	0.0002093816710977506	0.002787794345631537	-0.001961920084033821	0.00736178471036005	-0.0020748932955475343
2
226800
Ar	0.00013389419293894427	-0.0001906055118415405	0.0032095909469092906	0.00449475140594591	-0.024993265702930183	0.0021753382870524918
Ar	-5.37771695155993e-05	0.00022707553427580887	0.002763321311465608	0.0008187072941541158	-0.004186301164922435	-0.0019889018497365124
2
227000
Ar	0.00014082267773913996	-0.0003690808896946731	0.003215809060401763	-0.003153169112563143	-0.009032035803792688	-0.0010457095834357708
Ar	-3.177427025060125e-05	0.00013144409781619884	0.002756148027837472	0.0033519471825394897	-0.014085051607553762	0.0006439140193951466
2
227200
Ar	7.752420381341678e-05	-0.00035822948969914555	0.0031928571168795988	-0.008854549429159746	0.01082286137496367	-0.002975571367768669
Ar	7.304968775163489e-06	-3.098558513158685e-05	0.002773550023493628	0.004100946619361255	-0.01697830920021917	0.002449615285114176
2
227400
Ar	-2.1340619796912302e-05	-0.00017682666795942696	0.0031755479588614255	-0.010296648012495423	0.023985716648443987	0.0006488854669595864
Ar	4.294164687024245e-05	-0.00017599878983763975	0.0027895655614024783	0.0027920736821595363	-0.010735264956087127	-0.0002334192945305309
2
227600
Ar	-0.00011480066864568073	9.18470856191426e-05	0.00320072894391268	-0.0074265688700803755	0.027453338225340556	0.0031154341593416226
Ar	5.980378391464573e-05	-0.00023368986625699604	0.0027723652383159535	0.00026680273089011976	-0.00023389300054290718	-0.0021774299654992602
2
227800
Ar	-0.0001541002371809537	0.0003200204525049764	0.003219880227879962	-8.517865517176091e-06	0.01593622924565092	0.00031860362404457116
Ar	4.6093749130771346e-05	-0.00017727223875751963	0.0027595886504592814	-0.0028703016090028655	0.011030421948812647	-0.00010515122291424796
2
228000
Ar	-0.00011534813104100245	0.0003827663519585925	0.003206153514481738	0.0073239025199721966	-0.003771925465697515	-0.0027601765718746206
Ar	7.5286805606864425e-06	-3.146728115268956e-05	0.0027707426414512576	-0.00447817584720698	0.016875580245468355	0.0021299252561599973
2
228200
Ar	-2.180936633241588e-05	0.0002571116018067573	0.0031783774706654108	0.010601885764125168	-0.019927148423715898	-0.0016277309296394093
Ar	-3.4999523692049254e-05	0.00012991763978780448	0.0027919586486642996	-0.003639379096612986	0.013759141659132534	0.0011767813858885327
2
228400
Ar	8.386586391226684e-05	1.1524730865206754e-05	0.003188653674165185	0.009765163912107922	-0.027644057478791725	0.0029598921857400032
Ar	-6.189249329441196e-05	0.00022320179392213392	0.002781162964085077	-0.001521393693053959	0.0044157716086143765	-0.002699581169496332
2
228600
Ar	0.0001538468426817459	-0.0002479849680243671	0.0032150565993711434	0.003445673773462871	-0.021631348458603438	0.0015686550348194023
Ar	-5.999882713596071e-05	0.00020919003756867153	0.002757741482174216	0.0019251815616222196	-0.007227711310943591	-0.0014059216936877766
2
228800
Ar	0.00014586806192950946	-0.0003805953798422789	0.0032137529926214597	-0.0049424828375328	-0.003732145369282469	-0.0018017797566938444
Ar	-2.6410869777500196e-05	9.049735703320774e-05	0.0027576689700965725	0.004474895966536626	-0.01547866301396409	0.0013602994754885178
2
229000
Ar	6.54513402459995e-05	-0.0003202207960437904	0.0031867406569350935	-0.01033003353312984	0.014889127686800892	-0.0028140920986414676
Ar	2.157244871489359e-05	-7.450718241135068e-05	0.00277977054941862	0.0046510978189422385	-0.015986014091981197	0.0024441876645055643
2
229200
Ar	-4.5304716782429985e-05	-0.00011062788742506224	0.0031792072596279687	-0.011185373567332303	0.02576085085179913	0.0018459503199441572
Ar	5.931451759600957e-05	-0.000199349763304554	0.002788409634328185	0.0027278184035890566	-0.00820237602435978	-0.001236829398054182
2
229400
Ar	-0.0001405050352001714	0.0001587040694815887	0.003206308022597902	-0.006786180396082806	0.025487162564678888	0.0024737151329381505
Ar	7.069344493567185e-05	-0.00022794407401715585	0.002769492292236653	-0.0006970227102189874	0.002918975737379412	-0.0016720378051196688
2
229600
Ar	-0.00016714960473463328	0.00035073511895792995	0.0032165895634282	0.0017366736393317464	0.011084572678513054	-0.0006193210291408073
Ar	4.569180969018744e-05	-0.00014441992418675318	0.002763054241583192	-0.0040672457796177	0.013054333879433022	0.0005417288548382959
2
229800
Ar	-0.00010974911237927985	0.0003627380284611169	0.003196459170488933	0.009115292233551654	-0.008543780668111742	-0.002929519833539862
Ar	-3.349805515240597e-06	1.1224521546490883e-05	0.0027784842962197873	-0.005313050192502292	0.016714703703026097	0.0022178374567805954
2
230000
Ar	-1.1244325076872432e-06	0.00020100691273003613	0.003175913556076918	0.011823554925798407	-0.022343247775880343	6.55395490488752e-05
Ar	-5.0590704138990444e-05	0.0001590870759452681	0.002793612086285754	-0.003791857243035254	0.011459776428984684	-0.00023226474321648945
2
230200
Ar	0.0001120133782590478	-5.7095676841041535e-05	0.0031985436224657503	0.009740439697778757	-0.027221334075920863	0.003188658585473657
Ar	-7.530315326137953e-05	0.0002266564275157322	0.0027728371822795645	-0.0007794602923812031	0.0015197211342671177	-0.002771237037816519
2
230400
Ar	0.000173537624108031	-0.00029275310362669184	0.0032200235472073296	0.0018888250442093447	-0.01757072429038961	0.0006187973469899581
Ar	-6.268254250479831e-05	0.00018400354056048244	0.0027538245798122076	0.003207179592797323	-0.009718695392792645	-0.0006721043173933924
2
230600
Ar	0.0001466446506264384	-0.00037689781907268804	0.0032086558173273546	-0.00693233648802688	0.0013573266417965326	-0.0026580025269203307
Ar	-1.7077688025043472e-05	4.8597615404176046e-05	0.0027612617035639134	0.005511115995663837	-0.016218051829596746	0.0020157357215295
2
230800
Ar	4.892749822872434e-05	-0.0002734236934831019	0.0031791939592883327	-0.011710698067478898	0.01804502346475435	-0.0021541968475325937
Ar	3.766109117850191e-05	-0.00011223323650096487	0.002785511023577087	0.004895168215967927	-0.014308254676450131	0.00199896340956483
2
231000
Ar	-7.271287135812991e-05	-4.309772819456786e-05	0.003184327343425983	-0.011811257674683303	0.026681274274483358	0.0027930280417105256
Ar	7.443554992775901e-05	-0.00021407914183584357	0.0027842534242021764	0.0022590175484091743	-0.005539112822756963	-0.0019737006397745446
2
231200
Ar	-0.00016529908735725713	0.00021607619131007715	0.0032121420120429286	-0.005681442170882732	0.022548532647279507	0.001913057850148867
Ar	7.696791522481649e-05	-0.00021296970119568398	0.0027651486032268953	-0.001884047042457611	0.005890825755611235	-0.0012230677285367888
2
231400
Ar	-0.00017489509566869424	0.00036545923862004755	0.003214610053071042	0.0038114740606840216	0.005985692424585806	-0.0014276018003663387
Ar	3.9400385457997174e-05	-0.00010595405947460358	0.002764732990783041	-0.005274206653128129	0.014573611574741843	0.0011402434934463179
2
231600
Ar	-9.72889102877493e-05	0.00032909398784356577	0.003189460071589075	0.010888796384218606	-0.012592871896968677	-0.0029090270138814127
Ar	-1.9156896402193122e-05	5.4290388009858696e-05	0.0027839364090775573	-0.005881405636939122	0.015987140822098806	0.0021697407819309144
2
231800
Ar	2.5062352485938954e-05	0.00013934345305455405	0.003178481049428493	0.012883077405387702	-0.024108770729436013	0.001536414171841872
Ar	-6.762319656337613e-05	0.00018386659998455445	0.0027906856559212247	-0.00356939083229364	0.008955883685905386	-0.0015337997206063714
2
232000
Ar	0.00014146989784342165	-0.0001218264907899329	0.003206322258198041	0.009165978122104497	-0.02567100580624402	0.002791834460943951
Ar	-8.529486954419503e-05	0.00022307472658001105	0.002765593277091642	0.00038503898030978537	-0.0016181829524154756	-0.0024533741928326057
2
232200
Ar	0.000189271527197026	-0.00032482620850220987	0.0032198198445045384	-6.818882593230708e-05	-0.012996036060590003	-0.00036903380354464613
Ar	-5.917354002793846e-05	0.00015256093762747018	0.00275275888205165	0.004592405530043418	-0.011883609913506945	7.553931684012998e-05
2
232400
Ar	0.00014109020137872288	-0.00035989662030080645	0.0032003275792197136	-0.009027271788905564	0.006080999211551997	-0.003121555741275934
Ar	-1.740294985625109e-06	5.049226071114272e-06	0.0027669847125447533	0.006375933400187897	-0.016362118413921767	0.0024913297588796124
2
232600
Ar	2.6050313351884882e-05	-0.00021988098652908397	0.00317443248268651	-0.013048558171250817	0.020504958953759325	-0.000819317532445756
Ar	5.6576847014918194e-05	-0.00014433584768781382	0.0027895137556208705	0.004797914101669768	-0.012028988627012212	0.0009439847961353681
2
232800
Ar	-0.00010444163273941829	2.4401525919309098e-05	0.003191539566297486	-0.011942272706625696	0.02660415175305559	0.0031636563962724492
Ar	8.891637620238711e-05	-0.0002198698893177726	0.0027786794814829516	0.0013443064214817202	-0.0026012653258673745	-0.0021808708569163475
2
233000
Ar	-0.00018855569463254612	0.00026370121908471763	0.0032162876458935647	-0.003996764716774694	0.018866707599331484	0.001170187772737441
Ar	7.846026800894015e-05	-0.00018936647892328984	0.00276254234730786	-0.0033953273484927907	0.008504040143806619	-0.0006421630561302794
2
233200
Ar	-0.00017687949426665306	0.0003671213429790099	0.0032111585620110262	0.006134063553429665	0.0009684918342748166	-0.0020673721939432435
Ar	2.732584529345355e-05	-6.420181826396058e-05	0.0027680610226559605	-0.006400066959196686	0.015462464955056	0.0016484071102704741
2
233400
Ar	-7.871475410100341e-05	0.00028647940109451667	0.0031842758592797457	0.012510759791876736	-0.016006711360690228	-0.0023923293777895305
Ar	-3.819831140257816e-05	9.339512229665144e-05	0.0027886619440334074	-0.006036997869991024	0.014506340300519912	0.0017507953366626282
2
233600
Ar	5.6142966288802634e-05	7.361501960434136e-05	0.0031844415719145262	0.013686855959856645	-0.02539084012767925	0.002423895232801495
Ar	-8.455753297718459e-05	0.0002008032307789204	0.0027856663754703918	-0.003029966927069616	0.00640318258393788	-0.0023294193618981947
2
233800
Ar	0.00017104045115823492	-0.00018145364015418702	0.003211249312429374	0.00801186515957848	-0.023128520693237006	0.002002007396362624
Ar	-9.166508303653142e-05	0.00021135036476376234	0.0027610056061501314	0.0018255982333240136	-0.004565478502823208	-0.0018303223210898493
2
234000
Ar	0.0002007192944946638	-0.0003452518998933583	0.0032153393993104495	-0.0023626299807518016	-0.008112224715725569	-0.0012730871795373592
Ar	-5.112752634984154e-05	0.0001166984939894555	0.0027560387986677805	0.005917035164342031	-0.013554732417418268	0.0009043799989709747
2
234200
Ar	0.00012950429574838223	-0.0003320981369992628	0.0031906468857836844	-0.011126755274644006	0.010300192800967178	-0.003061380497011451
Ar	1.649822308530349e-05	-3.704510682442687e-05	0.0027759160164520552	0.006967738133737271	-0.015837415081106542	0.002627585556066705
2
234400
Ar	-2.097335303285617e-06	-0.00016210475814906278	0.003174847852203066	-0.01439505720350599	0.022415088903523037	0.000971347224717419
Ar	7.552223841590118e-05	-0.00017000668747991859	0.002791209740513915	0.004479975887448366	-0.009646232259031584	-0.0005521020083085594
2
234600
Ar	-0.00013896443844905635	8.810376931941069e-05	0.0032016766126855183	-0.011606381537135183	0.025426600814452388	0.003095638282412381
Ar	0.0001002867577840965	-0.00021900795585276555	0.0027720048275932012	7.262466906086795e-05	0.0003682816669462782	-0.002221133078098637
2
234800
Ar	-0.0002099807148704381	0.00029830245809111394	0.0032200703430468915	-0.0018956298461707591	0.014567115145136054	0.0001718964271743041
Ar	7.495170025144886e-05	-0.0001606283312210654	0.002759406844669858	-0.00493342945232647	0.010779882747190536	-6.693936341796588e-05
2
235000
Ar	-0.00017398876885155233	0.0003542731088750354	0.003205198148892929	0.008613253662814428	-0.0036895263897791207	-0.0028210652980053446
Ar	1.0435247124710207e-05	-2.136918734722823e-05	0.002771103307519787	-0.0074019147443604525	0.01588064664330006	0.002139071126725324
2
235200
Ar	-5.4784351322900624e-05	0.00023669907803814096	0.0031782010681008274	0.014189910200987407	-0.01849971482149895	-0.0013858237946909175
Ar	-5.9583245680341626e-05	0.00012790413594904935	0.002791217052497356	-0.005956641286322549	0.01246729835832648	0.0009290538528192707
2
235400
Ar	9.252285079925648e-05	8.981993227409648e-06	0.0031899316677245324	0.014175154249906254	-0.025577821988465376	0.0028858563109508913
Ar	-0.00010155737844936316	0.00021026908551210647	0.0027791847726980146	-0.002106846210391421	0.003560306870888038	-0.0025731350490756826
2
235600
Ar	0.0002006973124680914	-0.0002298607905098855	0.0032139333048893017	0.006300914666709591	-0.019798348622153253	0.0012374508733263608
Ar	-9.472894717341749e-05	0.000191093985612002	0.002758412606827441	0.0034564940780028174	-0.007300611050323646	-0.0010927641508119723
2
235800
Ar	0.00020693928191672307	-0.00035043178458152855	0.0032099630265133095	-0.005032446857224404	-0.003273023909758075	-0.0019510962034472014
Ar	-3.832875062951055e-05	7.672983224616642e-05	0.0027609993650847225	0.007294780868546013	-0.014599045847685939	0.0015712234056279226
2
236000
Ar	0.00011102309223701868	-0.0002938721864069583	0.0031832590733890747	-0.013167290547490669	0.013708114879459735	-0.0025469859653519137
Ar	3.85336604126167e-05	-7.618261088364701e-05	0.002783401511674538	0.007307008557417313	-0.014532708083252638	0.00227745233098423
2
236200
Ar	-3.66345406096459e-05	-0.00010127223483856452	0.0031808239571658025	-0.015524649643867664	0.023708876259557095	0.002371840870810756
Ar	9.589343238333458e-05	-0.00018723192996738866	0.002787784642892772	0.003937114852199074	-0.007029028823444442	-0.0017047602778659295
2
236400
Ar	-0.00017415954193491522	0.0001457432257441445	0.0032104691024206294	-0.010485421082731377	0.02329697371444315	0.002487576074690317
Ar	0.00010951506476657392	-0.00020729902015253324	0.002765887862244608	-0.0015308565467743777	0.0033404452909062336	-0.0018337025867662903
2
236600
Ar	-0.00022533577936429734	0.00032023528702323324	0.0032191412886943553	0.0007749220474118773	0.009973708817177062	-0.0009105684130708802
Ar	6.693025468480875e-05	-0.0001249928852533375	0.0027594511725881664	-0.006590302744577726	0.012417825329669771	0.0006471407716290184
2
236800
Ar	-0.00016209531583825064	0.00032994908583477164	0.0031962196729027727	0.011136914946196294	-0.007852739660406092	-0.0031460201863615406
Ar	-1.0877315284950294e-05	2.01643331788258e-05	0.002776346530931697	-0.00825892317021213	0.01537206482761163	0.0023708705435893534
2
237000
Ar	-2.3041169712478786e-05	0.00018227410038623146	0.003175569781536074	0.01572435161596858	-0.020394260971131485	0.00018220471642444456
Ar	-8.29873125300248e-05	0.00015330565993392054	0.0027916216156669846	-0.005621993274320028	0.010047325654688468	-0.00031487293184173984
2
237200
Ar	0.00013273212633066976	-5.3093255022228556e-05	0.0031977004622563807	0.013963169039743012	-0.024731449405753995	0.002977750928647616
Ar	-0.0001168622720145213	0.00020911923141887963	0.0027722665082375465	-0.0006973299117760289	0.0006654480957340538	-0.002456659223693137
2
237400
Ar	0.00022753821421561934	-0.00026642026787622366	0.0032169031008338817	0.004028663264269664	-0.015835845346187274	0.0004254324103624471
Ar	-9.312616678096612e-05	0.0001631195007245381	0.002756735178111354	0.005241378061938734	-0.009469017620378273	-0.00034722955740780487
2
237600
Ar	0.00020640693437262443	-0.00034180935138843587	0.003204946735386562	-0.007936957191191984	0.0012972226572883407	-0.002558741095210418
Ar	-2.1014777382921967e-05	3.531153861564655e-05	0.0027663362320455766	0.00852125994282033	-0.014992768657850226	0.0020842089093873356
2
237800
Ar	8.519181753239382e-05	-0.0002482223594909627	0.0031785672370364644	-0.015175319106363905	0.0162542174048928	-0.0016415219763142668
Ar	6.201227811463214e-05	-0.0001102984603622293	0.0027887520853007173	0.007259149538523363	-0.012631131435756185	0.0014969578907947608
2
238000
Ar	-7.738397463958996e-05	-3.9906747819543425e-05	0.0031882920133754285	-0.016245121588291053	0.02417027580432342	0.002934984994299304
Ar	0.00011458495326549874	-0.00019729246625392044	0.0027818772618227443	0.002927335300679176	-0.0043372623125020856	-0.002329452891821878
2
238200
Ar	-0.00020962784726773591	0.00019434097989748782	0.0032147871581597394	-0.00877412600919105	0.02035950639797776	0.0016098888813236515
Ar	0.00011269743004558356	-0.00018898370038851505	0.0027608723280619007	-0.0034004507782022584	0.006047375075038956	-0.0012749308584963292
2
238400
Ar	-0.0002359000406558305	0.00032909527443397783	0.003213682879310123	0.0037258672759426345	0.005391832271896897	-0.0017898794047609575
Ar	5.250371928285705e-05	-8.625341548108701e-05	0.002761125803702563	-0.00810852178499464	0.01359260161283307	0.0013351757034613815
2
238600
Ar	-0.00014426666734775363	0.00029614032641599495	0.0031867314767179363	0.013588556751476353	-0.011331729464201894	-0.002844914264256329
Ar	-3.555006853658003e-05	6.0057922538420796e-05	0.0027824233625348966	-0.008637398031888469	0.014302708763777778	0.0023489729437119896
2
238800
Ar	1.4008522688112863e-05	0.00012552246379202498	0.00317859434512571	0.017161240177461918	-0.021719448744511503	0.0018629945757795386
Ar	-0.00010507200470792916	0.00017280244944007395	0.0027896385350617667	-0.004916301360632522	0.007458106156599585	-0.0014997149225459514
2
239000
Ar	0.0001731540011395274	-0.00010931834009849933	0.0032072970568980006	0.013005597234298403	-0.02303324692760557	0.0026858735786700343
Ar	-0.0001260503365362681	0.00020040569900209665	0.0027669003830950497	0.0011203240072420867	-0.0023061363792559707	-0.002095446370075978
2
239200
Ar	0.0002479595189810077	-0.0002911836964196796	0.003219132542395814	0.0012429852623251929	-0.011594236551744007	-0.0005211833606115569
Ar	-8.30345253318487e-05	0.00012915563975620154	0.0027574440606341986	0.007076803284620783	-0.011324405353300945	0.00036733540970794253
2
239400
Ar	0.0001970461035072624	-0.000322350673739159	0.003199036077080832	-0.010801069378719835	0.0054179356636563135	-0.003052878027234646
Ar	2.9872104225229512e-06	-7.327559585706983e-06	0.002772738424344482	0.009371782517476342	-0.014784578169309849	0.002387705150298284
2
239600
Ar	5.298033030882127e-05	-0.00019797296391005524	0.0031758915108351634	-0.016873224886606034	0.018249442123096503	-0.00036019948954291116
Ar	8.729655219080122e-05	-0.0001389065077964767	0.0027912571094834042	0.006759450769771641	-0.010269408010636487	0.00025851096368024963
2
239800
Ar	-0.00012026034804007947	2.0317781489117622e-05	0.0031951338898275005	-0.016274949606131073	0.023759580559138384	0.0030325564100103027
Ar	0.0001303283380849891	-0.0001995993981769588	0.002775363208916445	0.0013883679038258513	-0.001447312469585912	-0.0024169902645531064
2
240000
Ar	-0.00024000122943450448	0.00023370466551019976	0.003216387135568173	-0.0064377375790585015	0.016798621679864536	0.0007025010537726221
Ar	0.0001096160740505304	-0.00016348129611375362	0.0027587996907911085	-0.005370883046395487	0.008377943498326192	-0.000544184580456016
2
240200
Ar	-0.0002373508626693439	0.000326289521236664	0.0032067344845573094	0.006838202082763375	0.0009647801650272131	-0.0024109699633653777
Ar	3.22793810927166e-05	-4.5730834038090224e-05	0.0027663104908830457	-0.009433900989874813	0.014165643189111241	0.001912645890956627
2
240400
Ar	-0.00011856365667470643	0.0002560849554811508	0.003179536905229723	0.015708036501050692	-0.014039841895025357	-0.002001188506410396
Ar	-6.201834240803834e-05	9.525104577362395e-05	0.0027885693392424578	-0.008469243149010547	0.012604955096288352	0.0017137422924029743
2
240600
Ar	5.561731252287058e-05	6.777404615323724e-05	0.003185666417913944	0.018062615674489482	-0.022558464405645306	0.0029079324817073587
Ar	-0.00012513601508573402	0.00018484394198716028	0.002783673623507394	-0.003815867840546383	0.004872788659175724	-0.0023801025016834195
2
240800
Ar	0.00021096828256503725	-0.00015914963192642647	0.003214774903703085	0.011331837058017793	-0.020574841485296213	0.002004630363085756
Ar	-0.00012943383473065475	0.0001853636893814859	0.002760486928705882	0.003145818700693345	-0.004943445076231368	-0.0015781520657806689
2
241000
Ar	0.0002603829684922896	-0.00030507115084177946	0.003217254059987587	-0.0018612988367772939	-0.007274912574621602	-0.0015298065514213494
Ar	-6.734222579368695e-05	9.38136862572944e-05	0.0027579903382091353	0.008718159981750162	-0.012571012760078968	0.001123817256210595
2
241200
Ar	0.00017923717005980685	-0.0002945845980159005	0.0031903916156195123	-0.01344803798202609	0.008975903387193812	-0.0031690988269548275
Ar	3.0003435884357902e-05	-4.5493847362273745e-05	0.0027786342082921417	0.009838712176057427	-0.014007294235817896	0.002497376701485903
2
241400
Ar	1.465546478609958e-05	-0.00014529221042612622	0.0031761162311372136	-0.01844607691118308	0.019792321906994387	0.0012536101594637535
Ar	0.00011142615128772039	-0.00015954735217930455	0.002790100705673841	0.005953053576911466	-0.007880306477098796	-0.0010152430009756751
2
241600
Ar	-0.0001641102441567811	7.63102505799466e-05	0.0032029379147446952	-0.015507124937925373	0.022506056719189284	0.0028548290334363385
Ar	0.00014084403586450654	-0.00019428383734857084	0.0027690337291136945	-0.0005569634729078044	0.0013067068458076198	-0.002178417574930595
2
241800
Ar	-0.00026425278435659246	0.0002624921622747157	0.003218252106264389	-0.0035166897708490655	0.012937972361013201	-0.00011572052901274273
Ar	9.931282538508186e-05	-0.00013390130704401312	0.0027580529555755718	-0.007367559837804227	0.010234508585808422	0.00017384417650027402
2
242000
Ar	-0.00022948479870484872	0.00031280523593926393	0.0032015927737565376	0.009995414596586621	-0.0031486114255743596	-0.0028439828064441433
Ar	6.085613021257325e-06	-6.5172535283864345e-06	0.0027716298385028924	-0.010431213828032864	0.0141368164269279	0.0022869508033399417
2
242200
Ar	-8.485588597011995e-05	0.00021048129904398992	0.003177576199050015	0.017699218878175747	-0.016205614126640264	-0.0007555850663602583
Ar	-9.023612482744736e-05	0.00012296272439924903	0.0027914691778553814	-0.007947368461074258	0.01045178930108759	0.0006646456330082921
2
242400
Ar	0.00010290218925917063	9.724555952494197e-06	0.003194307962493043	0.018352435013075975	-0.022564472648244807	0.003035635785836046
Ar	-0.00014315937344104012	0.00018824379096586013	0.0027776236715315195	-0.0021923199450617566	0.0022031058190180508	-0.0025357529543675057
2
242600
Ar	0.00024678016661603986	-0.00020079952114448446	0.0032170141256019883	0.008951355030866085	-0.01744362844074325	0.0009390127775879729
Ar	-0.00012702640511485884	0.0001620484999058785	0.0027585448003050014	0.005318191760277075	-0.007268492024936981	-0.0008668423714862782
2
242800
Ar	0.0002651256545651688	-0.0003072914071975728	0.0032095908861852944	-0.005353377375762353	-0.0029595850997641312	-0.0022852142574348987
Ar	-4.5950056856672316e-05	5.510609734569876e-05	0.0027630328709617653	0.01018118558613145	-0.013214308862363086	0.0016666130769529004
2
243000
Ar	0.00015246552949492586	-0.00025901590232804017	0.003181209880074791	-0.015982626705306036	0.011861913241004326	-0.002443344345046057
Ar	5.898949065895534e-05	-7.974239860064496e-05	0.0027852986373940207	0.00975134730588697	-0.01243167900757949	0.0020771470152264795
2
243200
Ar	-3.080393020200135e-05	-9.109134240618853e-05	0.0031816766435757925	-0.01962350903984916	0.02078541140296689	0.002595305806580258
Ar	0.00013353420778400947	-0.00017096058429649715	0.0027861852142412828	0.004807699790119832	-0.005352089475519148	-0.0019735269081208023
2
243400
Ar	-0.00020754117871642607	0.0001254968326932258	0.0032117246374399047	-0.013888520209293207	0.020426542898211705	0.002407880463169196
Ar	0.00014537832537118607	-0.00017927830801705492	0.0027637338544277104	-0.0027081038165477416	0.003869308857215504	-0.0017336855296749987
2
243600
Ar	-0.00028097464325699105	0.0002791833834289375	0.0032189487638665864	-0.00014132294682452619	0.008870114046911383	-0.0010682051317505315
Ar	8.300818146384177e-05	-9.909321157004846e-05	0.0027585787792233	-0.009177197797370163	0.011447689190719944	0.0007767352169143111
2
243800
Ar	-0.0002123359612446892	0.00028934081631048434	0.00319475268988382	0.013062208145440542	-0.006685988758483701	-0.003165473960718632
Ar	-2.261449076454705e-05	3.094666723855066e-05	0.0027766211266867145	-0.010953712380512676	0.013405768884168334	0.0024013781956834556
2
244000
Ar	-4.426968988444389e-05	0.0001621582518786784	0.003176291144563819	0.019428267840974296	-0.017701224030008997	0.000560781305547891
Ar	-0.00011593105827108906	0.00014334948167320623	0.002790308845528278	-0.007045887081103248	0.00807181257715021	-0.0005902702856564964
2
244200
Ar	0.0001509989285967793	-4.316750114105669e-05	0.0031995413314181405	0.017777620646858942	-0.02163728250614652	0.0028433382973646238
Ar	-0.00015467188046954482	0.00018363449840205914	0.0027705142991722186	-0.00015778701101662956	-0.0003906701296299493	-0.0022948525239100204
2
244400
Ar	0.00027590299637112375	-0.00023031025264448203	0.003216437424586248	0.005945326883253111	-0.01395840704636819	0.00018515352406812258
Ar	-0.00011639420412415348	0.00013469303391946312	0.002757413271389344	0.007491573438405726	-0.008991869076589862	-7.931950445347354e-05
2
244600
Ar	0.0002601682592535043	-0.00029782329087472156	0.003202687674903688	-0.008817883069180976	0.0009363398212755892	-0.0026266183694500793
Ar	-1.8142775823809113e-05	1.8658512741242138e-05	0.0027690003520432814	0.011302739212237439	-0.013217502301356867	0.0022037677303096415
2
244800
Ar	0.00011857530919628744	-0.0002186932945735875	0.003177805429180197	-0.018187543294461105	0.01392322074644873	-0.001182394330081675
Ar	8.917933116409535e-05	-0.00010624527235258806	0.0027906287677445115	0.009105066539979419	-0.010471718251424957	0.0011703477845519494
2
245000
Ar	-8.082959066426343e-05	-3.853015079708116e-05	0.0031917391431272764	-0.020283696980799275	0.02100163502950943	0.0031096218852409425
Ar	0.00015225697791967837	-0.0001745336231917719	0.0027807436114694745	0.003075624851297142	-0.0028800429219188748	-0.0024180454322776895
2
245200
Ar	-0.00024908437065583686	0.00016525924816504143	0.0032175824456423694	-0.011600430009790826	0.017771651533713146	0.0013503993376844253
Ar	0.00014206251334643807	-0.00015842364910026877	0.002760420778590126	-0.005117515373593175	0.0060365633499565256	-0.0011141196757550405
2
245400
Ar	-0.0002908263380661377	0.000284001004460953	0.0032132182073542335	0.0035621266470049176	0.004935536312673717	-0.0021158356198338513
Ar	5.879307348767512e-05	-6.385062992473743e-05	0.0027623424528901274	-0.010790075268035196	0.012076469005359974	0.001437001132423415
2
245600
Ar	-0.00018736987657735319	0.00025845139604058394	0.0031843320115455044	0.01598731626764792	-0.009497337247205263	-0.0028230285874954507
Ar	-5.5054438464084164e-05	6.312124777278343e-05	0.0027833294126496182	-0.01087033779113839	0.012085422012208987	0.002165188388368514
2
245800
Ar	3.2531539302061017e-06	0.00011284217815715293	0.0031787443214757165	0.021055341814759605	-0.01874980443755334	0.002117923912976935
Ar	-0.0001401354467286047	0.00015525111168314778	0.002787202484730645	-0.005694416108430182	0.005746899626610887	-0.0017717552878155865
2
246000
Ar	0.0002010385856577049	-9.050051847955998e-05	0.0032076571107538684	0.01644326856124699	-0.019993487247239823	0.002585313882519817
Ar	-0.00015966387726996383	0.0001711536001818289	0.0027645047140486497	0.0021754507146881964	-0.0027970733372092503	-0.001911408078101183
2
246200
Ar	0.00029971969035232706	-0.0002492731749837954	0.003218338934042458	0.0023669703021736792	-0.010258570146208497	-0.0006531187905492769
Ar	-9.882566775409265e-05	0.00010302956430099213	0.0027575567900988253	0.009441258438362726	-0.010259051548369945	0.0006458331765290895
2
246400
Ar	0.00024610891292455375	-0.000278954730342127	0.003197501448142042	-0.012408312216928985	0.004402998349962289	-0.0029971806634006832
Ar	1.3046139389555316e-05	-1.7025657703318372e-05	0.002775041541222003	0.011928624581766911	-0.012693130673920878	0.0025131057810051675
2
246600
Ar	7.617782964407092e-05	-0.0001743649877116825	0.0031771340808918716	-0.020293376493246952	0.01554341539324071	0.0001034767767399355
Ar	0.00011758580905789275	-0.00012714961232299408	0.0027925242270098734	0.008078704145374573	-0.008269371777802006	-7.151604806969746e-05
2
246800
Ar	-0.00013492289552052497	1.3139563146799181e-05	0.0031983185361462124	-0.020059552292461386	0.020507665391820484	0.0029068322520787175
Ar	0.00016565739184831344	-0.00017233264018981056	0.0027747798468826944	0.0009675273219527321	-0.00043973304043226456	-0.0024078431607326752
2
247000
Ar	-0.000284972670296658	0.00019773272474009118	0.003217084034199785	-0.008452429627565376	0.014612261595807316	0.0004174833836168767
Ar	0.00013242292756648384	-0.0001337804309807441	0.0027587747660828515	-0.007338964667233697	0.007855571826810955	-0.00047354441105861234
2
247200
Ar	-0.0002893865180505211	0.0002792692767118028	0.003204890854019532	0.007500790650436544	0.0010774643097829085	-0.0025721035275172734
Ar	3.1186925578742904e-05	-2.84366846414301e-05	0.002766808989345622	-0.012013616180722398	0.012314246213228495	0.0019248903646287476
2
247400
Ar	-0.00015221715594514055	0.00022186542689196052	0.0031780589115355225	0.01854518610196863	-0.011726792410108114	-0.0017238512389802303
Ar	-8.615665098868118e-05	9.08878523176527e-05	0.002788077477877427	-0.010306677694357596	0.010345210699245046	0.0014575415160222596
2
247600
Ar	5.667656216611664e-05	6.235296946361488e-05	0.0031870909081393377	0.02189887370302788	-0.019242544280366494	0.0029655194688877795
Ar	-0.00016004017891685192	0.00016149982538207874	0.002781018034282314	-0.004060754372380434	0.0034379470583782556	-0.0023890900272599317
2
247800
Ar	0.00024663789981221385	-0.0001316103776061073	0.0032146418834682455	0.014098904023497274	-0.01761336627462406	0.0017416902177458677
Ar	-0.00015760323561843292	0.00015412248573812127	0.002759503032800402	0.004663316312936048	-0.0049070283941274615	-0.0013066698485387411
2
248000
Ar	0.0003116667098124194	-0.0002574430956686943	0.0032149352403675843	-0.0016518584286670396	-0.006436728540523177	-0.001672886228558028
Ar	-7.459693918398436e-05	7.088212545691312e-05	0.0027598852858939983	0.011214243965290634	-0.011052988371893828	0.0013562832285856066
2
248200
Ar	0.0002200555513486855	-0.0002515610806105984	0.0031881323527015648	-0.015609380592801604	0.007295255553097341	-0.00295101673681542
Ar	4.720848187180245e-05	-4.8422004618254284e-05	0.0027816434388550776	0.01201339570827695	-0.011697353150682868	0.0024413136093898806
2
248400
Ar	2.635884017625359e-05	-0.00012809244770161507	0.003178282797121339	-0.021974387576551326	0.016591355888803408	0.001645984552286146
Ar	0.00014412132931380597	-0.00014074369445156782	0.002790187157517777	0.006786212409939104	-0.006070509829712001	-0.0013633664171210827
2
248600
Ar	-0.00018816054413664326	5.878504809001314e-05	0.0032058379101458775	-0.018733160123361455	0.019082526734942932	0.0026753660316551943
Ar	0.0001733065913109143	-0.00016326174877231522	0.0027678664820561753	-0.0014531886723194644	0.0018452576221546354	-0.0021420612402340386
2
248800
Ar	-0.00031127958773486156	0.0002179015399297788	0.0032182605048529708	-0.004706071312729664	0.011225767348878602	-0.00045993476331169055
Ar	0.00011555342730021318	-0.00010590603286129592	0.0027575229607024266	-0.009587748998888257	0.009140045174688536	0.00026570848705963657
2
249000
Ar	-0.00027530838016148464	0.000264202144459485	0.003198853641654007	0.011342336442706803	-0.0022201621792753384	-0.002999790354357391
Ar	-1.7715321399559554e-06	4.460061602741412e-06	0.0027715947811600907	-0.012846195969124872	0.011970633978737972	0.0022698271545524918
2
249200
Ar	-0.00010778479405570415	0.00018218042469877563	0.0031756559365415642	0.02078457405420563	-0.013290656051020859	-0.0004265400355635636
Ar	-0.00011763440071162014	0.00011158803042069327	0.0027897614491522358	-0.00927777856250294	0.008328989994232486	0.00031118386029598157
2
249400
Ar	0.00011463235782148007	1.469054971139505e-05	0.003194789963977123	0.02186962823243971	-0.0190053881322062	0.003079732921461183
Ar	-0.00017646745760019578	0.0001606132291173124	0.0027743065430480677	-0.0019144590452136493	0.0011844854052296058	-0.002376885280961279
2
249600
Ar	0.0002873733967119418	-0.0001637496972884451	0.0032172316836391653	0.010949094585814124	-0.014923586990700562	0.0008558107472053866
Ar	-0.0001490931600395402	0.00013200937521194207	0.0027581598189902567	0.0071938806083331535	-0.006674254236595448	-0.000488844237075183
2
249800
Ar	0.0003133248650688279	-0.00025689323601277547	0.0032089828445532845	-0.005880484962687161	-0.0029297755673232404	-0.00233812745494717
Ar	-4.4887980108107154e-05	3.7971639587657345e-05	0.002766315738934741	0.012736173915746767	-0.011341407564629487	0.0019793708666067133
2
250000
Ar	0.00018469656222758982	-0.0002209362810836345	0.0031813837791122364	-0.01847322355021078	0.00950296284456756	-0.002172883849206075
Ar	8.275054129320532e-05	-7.526843342681087e-05	0.0027894252422752362	0.011545386826471202	-0.010157443734006415	0.0018395923794887106
2
250200
Ar	-2.9999122261419113e-05	-8.334530172899588e-05	0.003185351673968495	-0.02324640706955378	0.017266431141784024	0.0027316086891155866
Ar	0.00016802486803014767	-0.0001472275441260417	0.002786096611438832	0.005053265946928992	-0.003870670369522786	-0.0023291233594242957
2
250400
Ar	-0.00024013796340819943	9.788317086280556e-05	0.0032135429763840897	-0.016584805993774657	0.017203161179602883	0.0020053215750843946
Ar	0.00017345226442879862	-0.0001473738621778451	0.0027621628838779577	-0.004215643443722281	0.003917571893721196	-0.0017385299553750488
2
250600
Ar	-0.0003294459062816235	0.00022865350336738623	0.0032168722237606827	-0.00047365449145782084	0.007747233055068984	-0.0014151454783473333
Ar	9.039566414952267e-05	-7.518764057140057e-05	0.002757869720869365	-0.011630921271329649	0.009911536432171802	0.0009189431738242071
2
250800
Ar	-0.0002521998610148151	0.00024140998958375212	0.003191105971537061	0.01498267819505699	-0.00508392760816033	-0.0030986019134908826
Ar	-3.957457164396029e-05	3.479494003185878e-05	0.002776671097294259	-0.013152292577692605	0.011095605034116158	0.0024003050223013003
2
251000
Ar	-5.6735047501913744e-05	0.0001399703329847067	0.0031760067628662085	0.022832061130356157	-0.014438106073316335	0.0010461380865720747
Ar	-0.00014853331435752903	0.00012536415333831027	0.0027888029893577957	-0.00791993092771011	0.0062651834499241514	-0.0008049101605795577
2
251200
Ar	0.0001737040211982603	-2.942729309207931e-05	0.003201383919875285	0.020980905063659534	-0.017955078119351736	0.002774266797353307
Ar	-0.00018736938219826737	0.00015319140434018775	0.002769849310916346	0.0007045258034088385	-0.0009655263484770955	-0.001987627748668824
2
251400
Ar	0.0003213959749480257	-0.00018592557839013432	0.0032166365561572116	0.007126109791767259	-0.01183121163388492	-4.127518263813448e-05
Ar	-0.00013336348188886397	0.00010656670735847794	0.0027602032501298293	0.009620332030877232	-0.007967201071964556	0.00026129014357702116
2
251600
Ar	0.00030458950012147724	-0.0002456364641728959	0.003200865379138586	-0.010124955848448643	0.0002904045394295225	-0.002761585084475387
Ar	-1.1011882585501035e-05	7.337142203160088e-06	0.002773905420004458	0.01377861283941748	-0.011053687418884588	0.002229041845248432
2
251800
Ar	0.00014133576175917592	-0.00018492305153424937	0.003176938640883328	-0.02104992596401321	0.011065812975547103	-0.0008204501160247786
Ar	0.00011661171071627354	-9.459184258021005e-05	0.002793175696725278	0.010528362189698187	-0.008245946519619733	0.000599567697210887
2
252000
Ar	-9.100413191706791e-05	-3.896144553898243e-05	0.003193917143106969	-0.02366148095267744	0.017218943325091374	0.003154629007299922
Ar	0.0001863349400569854	-0.00014590119743312997	0.0027779595851382295	0.002876745425654422	-0.001760171563413309	-0.002723994146899375
2
252200
Ar	-0.000287139245424423	0.00012931056176695017	0.003218190570740819	-0.013547375953437163	0.014782802218873722	0.0010898826325473772
Ar	0.00016567594290223348	-0.0001265930075075645	0.0027566240953411326	-0.006904007300187131	0.005515513146577754	-0.0010704416945726272
2
252400
Ar	-0.0003368188410668055	0.00022969245230894966	0.0032113848090202066	0.003987565190849492	0.004431969393310633	-0.0023172090098255976
Ar	6.0393015737653235e-05	-4.4365037963154436e-05	0.002759861988995593	-0.013242026453294831	0.010227663356291196	0.0016298730301342074
2
252600
Ar	-0.0002186652462437145	0.00021337523882003086	0.00318178714445837	0.018311369113785548	-0.007278892750619454	-0.002677936464309776
Ar	-7.648316499895392e-05	6.05056541499018e-05	0.0027825949796785716	-0.012798909138065149	0.00973900116410355	0.0022139723186276714
2
252800
Ar	1.432279416151581e-06	9.799681200915958e-05	0.0031795362795307815	0.024435910429226007	-0.015133489050748643	0.002400804156486314
Ar	-0.00017381952160811827	0.00013207361987043384	0.0027855820325868304	-0.006180185601700207	0.0041576673040026	-0.0017719325342548456
2
253000
Ar	0.00023066592933291584	-6.732638686958133e-05	0.0032084532765162	0.019039533873074846	-0.016371512186099276	0.002379363455971437
Ar	-0.00018900724565449275	0.00013900826133087326	0.002764957397378986	0.0035016566394781893	-0.002915259299726845	-0.0015741145312879094
2
253200
Ar	0.00034522841441170254	-0.0001987556802930125	0.003216621967680255	0.002802127506967745	-0.008654849739390768	-0.0008578016955222358
Ar	-0.00010902561934449875	7.80608257780526e-05	0.0027611071224253286	0.011795456808137771	-0.008738306089034014	0.0008480351786868132
2
253400
Ar	0.00028457200164260025	-0.00022655205888594477	0.003194864460685245	-0.014140047554132524	0.003135242349028415	-0.0029281338715672076
Ar	2.7134971479012366e-05	-2.1643486317378247e-05	0.002779054459518191	0.01419778362286635	-0.01033690372540914	0.002351331807617775
2
253600
Ar	9.028735863596608e-05	-0.00014617835153672934	0.0031779921095762536	-0.02336627020044453	0.012239014973489096	0.0006613784111532827
Ar	0.00014849849397602957	-0.00010876158896021176	0.0027921367632617626	0.009108628274829897	-0.006293296645318164	-0.0007081441620373345
2
253800
Ar	-0.00015299514167606035	3.3626597670665284e-06	0.0032016746944747475	-0.02305968406714542	0.01645345314859371	0.0028332872966705526
Ar	0.00019853896677770664	-0.0001403444103188766	0.0027708987068345197	0.0002735921354575044	0.00022680663518113945	-0.00249253930637809
2
254000
Ar	-0.0003254413081953234	0.0001527270173232024	0.0032179533316864226	-0.009740494609290436	0.011971997643442301	5.492069980135426e-05
Ar	0.00015059589466891602	-0.00010353945842285591	0.0027559233596337186	-0.009435505886525912	0.006839611420182204	-0.00021732949156837085
2
254200
Ar	-0.00033087758009701565	0.0002216085018121676	0.0032022371863286805	0.008513930633363491	0.0013032825554317455	-0.002882270465485539
Ar	2.599498761166718e-05	-1.5223145931344965e-05	0.002766885205790003	-0.014412554719403975	0.010080485241674398	0.00221433512908099
2
254400
Ar	-0.00017494566458940255	0.00018075973091362984	0.003174906609361051	0.021104921544376265	-0.008882569287400598	-0.0014205287537463636
Ar	-0.00011125543667953165	8.042341841889487e-05	0.0027895430420417176	-0.011694955040943488	0.00802549611865213	0.001335191051548374
2
254600
Ar	6.419577563992045e-05	5.680282111870275e-05	0.0031882261039690813	0.025137451206484206	-0.015205613587492388	0.003258302402629885
Ar	-0.0001923290619226723	0.00013266678078180784	0.002780637546958897	-0.004013649553727196	0.002195302664505637	-0.002392415563342953
2
254800
Ar	0.00028135397361336227	-9.812107623904896e-05	0.0032164544856651133	0.01604642320725941	-0.014244549577840403	0.0016784377847198727
Ar	-0.0001812657050884785	0.00012084929121535098	0.0027604895408716934	0.006237312310859013	-0.0045157329381988135	-0.0011091850840302393
2
255000
Ar	0.00035528777129533644	-0.0002020198258468335	0.0032152083666699936	-0.0018791147157623093	-0.005610194142128479	-0.0018747727827283897
Ar	-7.785820988003425e-05	4.976042594832205e-05	0.0027625042491513548	0.013515986188619386	-0.009096680098613499	0.0014753732982370766
2
255200
Ar	0.00025124905720192076	-0.000202345273544165	0.0031874474042101965	-0.0177170241324607	0.005308425449640876	-0.0028715700843332803
Ar	6.571193639319323e-05	-4.64386310793694e-05	0.002784188641279805	0.01381039137704103	-0.00924203642775207	0.002258078261539247
2
255400
Ar	3.088026338960486e-05	-0.00010783077336318397	0.00318018172721056	-0.025111626578972878	0.013001811984954597	0.0019061849239924455
Ar	0.0001739374204700915	-0.00011676241924103072	0.002789100249520255	0.007239721184651735	-0.004334109838511674	-0.0016924488045696262
2
255600
Ar	-0.00021340687925878668	4.044811750915814e-05	0.0032071963535776865	-0.021280074456996	0.015265617039449345	0.0024138898470718066
Ar	0.0001997115672783199	-0.000128870630769754	0.002766253484722053	-0.002564644949347565	0.002059989917168334	-0.0019736253426054233
2
255800
Ar	-0.0003526295079583231	0.00016890526064377705	0.0032166352153808263	-0.005247252878281045	0.009223325908551789	-0.000724058334832814
Ar	0.00012546417235460605	-7.831771145452474e-05	0.0027585725967773163	-0.011603839618628422	0.007638845015426575	0.0005356439053169207
2
256000
Ar	-0.0003116413214556852	0.00020942774840574042	0.003195670911180113	0.012826481194023147	-0.0013421448993697221	-0.002978303239156477
Ar	-1.2991298736339548e-05	1.1167846768629585e-05	0.002775066486984953	-0.01484826096695242	0.009484506300837527	0.0024178252232990804
2
256200
Ar	-0.00012301722089199236	0.00014877070648250417	0.0031758327523864994	0.02343385157476724	-0.010118499911405662	0.0002061405329479065
Ar	-0.0001437842682959955	9.3584718676718e-05	0.0027920765828616098	-0.010159480335055078	0.006180342074957568	-7.661188421206492e-05
2
256400
Ar	0.00012818770453528004	1.8931848457092133e-05	0.003199009937398633	0.02468548496559519	-0.01490508434398187	0.003161579858145546
Ar	-0.0002046207350694031	0.0001271826208940133	0.0027737311584236854	-0.0013696899894263595	0.00035638798477028756	-0.00251171175685486
2
256600
Ar	0.00032266760547604637	-0.00012216697790835035	0.0032198491700164322	0.012248550783334871	-0.011945414906887842	0.000540018051136648
Ar	-0.00016526943236030647	9.941343058443922e-05	0.0027570144172700227	0.008914527869016291	-0.00568755861830313	-0.000482392722910806
2
256800
Ar	0.0003514503701574771	-0.00019882415446444723	0.0032078869233366307	-0.006566682705110898	-0.002768946073980545	-0.002680948886108283
Ar	-4.16094741718595e-05	2.2536023267874504e-05	0.0027653739169724383	0.014727652077901214	-0.009046751924876615	0.002001435392938411
2
257000
Ar	0.00020776909944275325	-0.0001756781486685833	0.003178528027115753	-0.020623888859685975	0.006946578484057795	-0.002096389776760176
Ar	0.00010326494962934693	-6.567755110681151e-05	0.0027879237657345854	0.012784561853828931	-0.007704232940032288	0.001661761982204034
2
257200
Ar	-3.2964904003897244e-05	-7.175495822973153e-05	0.003184628645827462	-0.02605127890638066	0.013305752887642285	0.0028282580718153867
Ar	0.0001951125731834404	-0.00011821444469790997	0.002782361899890036	0.005113862939599324	-0.0025399489460657967	-0.002345954318954527
2
257400
Ar	-0.00026741438046472445	6.939351127172704e-05	0.0032122993551954625	-0.01843939624316412	0.013555546830000549	0.0018687985638253708
Ar	0.0001943139896340585	-0.00011305512418267824	0.0027608004499892393	-0.00541432881445464	0.0035734064502058386	-0.0013391303333653581
2
257600
Ar	-0.00036654913194333937	0.00017429758557803757	0.003214160895794147	-0.0005200944172700074	0.0064403392461203435	-0.0015076962602057341
Ar	9.584153498516124e-05	-5.262642101047242e-05	0.002760758629594054	-0.013421116791584408	0.008012355040688882	0.0013196219401206339
2
257800
Ar	-0.0002806073409496796	0.00018891011160528893	0.0031886337814581492	0.016617170239523547	-0.0034517903719095	-0.0028928369942885336
Ar	-5.164406779849437e-05	3.397690579845523e-05	0.0027822517287652954	-0.014689559877487426	0.008529594247409641	0.002436149621009195
2
258000
Ar	-6.430571469277853e-05	0.00011468232427839976	0.0031785869257015646	0.025331764846103104	-0.010861417219487326	0.0016849842808206574
Ar	-0.00017103222766382166	0.00010144231869466285	0.0027910886602876585	-0.00843808022079642	0.004408221335667969	-0.001370579221872687
2
258200
Ar	0.00019097541133265323	-1.4818785174237032e-05	0.0032071217701842877	0.023174567025319295	-0.013926111470153702	0.0027769827304730916
Ar	-0.00020908175169574781	0.00011776464576847115	0.002767850653162861	0.0014391822598515574	-0.0012849024765725454	-0.0022603320185655656
2
258400
Ar	0.0003539633353792021	-0.00013758522816922404	0.0032201427636876006	0.00783132550788682	-0.00946904747796834	-0.00043379455763745524
Ar	-0.00014253050367828106	7.694206816400814e-05	0.0027566623539809943	0.011252840229344132	-0.006521406321361225	0.0002052278735533542
2
258600
Ar	0.0003353723250083267	-0.0001876439232739282	0.003200035089337911	-0.01115712556849496	-0.00023010334592627921	-0.003148063086236793
Ar	-2.8964998382103917e-06	-1.7541724898215507e-06	0.002770919370516287	0.015442256977762725	-0.008561611590828671	0.002372305675579748
2
258800
Ar	0.00015566479194384884	-0.0001456965393056317	0.003174633931487952	-0.0232089820631937	0.008092884921510422	-0.0006740414644146001
Ar	0.00013750570319289845	-7.85849554014437e-05	0.0027910804524827553	0.011325473663570378	-0.005995214188405966	0.0005837373452203755
2
259000
Ar	-0.00010052797949250396	-3.626777116867245e-05	0.003192927780161362	-0.02602475044545411	0.013070787304611484	0.0031576883536807384
Ar	0.00021004160489263455	-0.00011371304888281139	0.002776691310059119	0.0025916470431085643	-0.0008965616140693597	-0.0024308785461565337
2
259200
Ar	-0.0003150969236559064	9.31102034536374e-05	0.003216419926423416	-0.014708449173568158	0.011538573357238917	0.001000939757536726
Ar	0.0001808933842084579	-9.446912034547072e-05	0.002759032581835365	-0.008202145485752342	0.004619185605313539	-0.0006814533548233376
2
259400
Ar	-0.0003680298935234371	0.00017339739894334613	0.0032095650250761917	0.0044777726748496905	0.0038224390072759324	-0.0022379502566832786
Ar	6.005339636141254e-05	-2.8628928637665887e-05	0.0027652890426936435	-0.014924312959715082	0.007973612040434435	0.0018077899119304445
2
259600
Ar	-0.0002381047241512001	0.00016534110396034012	0.0031821821805438407	0.020008508672023806	-0.005142819413070239	-0.002266945060075312
Ar	-9.17990261574589e-05	5.1315826987713856e-05	0.00278732244780256	-0.013936757290876931	0.00725361482665761	0.001829701486074139
2
259800
Ar	2.3713668743223775e-06	8.093382369512936e-05	0.0031846744733176288	0.02669059826776145	-0.011291832473249075	0.0026161537874361354
Ar	-0.00019584692436048435	0.000103068742609121	0.0027847325028024163	-0.006314837004868734	0.0028245978928104444	-0.0022265873820344747
2
260000
Ar	0.0002513853009951449	-4.444253710556207e-05	0.0032123916304157	0.02055173513866133	-0.012566087164454223	0.001994287884428375
Ar	-0.00020620370016160094	0.00010407001262363785	0.002761776471409672	0.004539310570659688	-0.002682445145009954	-0.0016311916105764789
2
260200
Ar	0.00037395125150389743	-0.00014714447436593833	0.0032156278732291335	0.002852955550998261	-0.007021291601591494	-0.0014147476212792876
Ar	-0.00011234367379501205	5.4110969946073365e-05	0.002758595492963908	0.013399105601555317	-0.006921906648620991	0.0010413301664209192
2
260400
Ar	0.0003066939558365574	-0.00017371472693897562	0.0031898174841902423	-0.015391786611506277	0.001813150174285897	-0.003101344603472125
Ar	3.926588210717115e-05	-2.294780162187781e-05	0.002778827771790286	0.015533000276536884	-0.007817855210588755	0.002559766738356651
2
260600
Ar	9.576557991956274e-05	-0.00011778881175880009	0.0031752650103333497	-0.025388602281246016	0.008883949191635153	0.0012154150526472762
Ar	0.00016915670972842057	-8.715207252666212e-05	0.002791894684417797	0.009506900975316214	-0.004408744598417606	-0.0008843603255218094
2
260800
Ar	-0.0001679975509450841	-6.043856950201341e-06	0.003203603739402219	-0.024861465620038787	0.012531124648196971	0.003126166398295606
Ar	0.0002178542620817917	-0.00010699372760373026	0.0027703289138160895	-0.0004215723889296345	0.00059055303421117	-0.0023258337361181398
2
261000
Ar	-0.0003526706110443043	0.0001096681209207827	0.003221358875976591	-0.010271638499918552	0.00950268498931252	9.716024249625295e-05
Ar	0.000159009360593576	-7.559263613559116e-05	0.0027573283629545604	-0.010850483483299415	0.005425544787407607	-3.239758852584132e-05
2
261200
Ar	-0.000356177169492853	0.00016764232003575448	0.00320513353634635	0.009384138475642187	0.001626626266887463	-0.0029725587798674668
Ar	1.8931000787186155e-05	-7.1431156710413e-06	0.0027696595902387262	-0.015925869719277137	0.007710629930802164	0.002251753178341007
2
261400
Ar	-0.0001868581940417727	0.000142758748001584	0.003177446132001117	0.022812806867036052	-0.0062079202450260286	-0.0013335930436556241
Ar	-0.00013081891659800037	6.468098716824186e-05	0.0027909311306195165	-0.01253615949432395	0.005896279738024	0.000962660808665227
2
261600
Ar	7.166684493389008e-05	5.245220092175837e-05	0.0031901349709573938	0.027075949251695923	-0.011344465558063276	0.0029025126271701885
Ar	-0.00021507842741424351	0.00010164513247960582	0.0027789257252195288	-0.0037675328927273535	0.0013527551105946998	-0.0025092223197061944
2
261800
Ar	0.00030403260735685495	-6.521244697579519e-05	0.003213565936741757	0.017020072801441632	-0.01105065456887159	0.0011365932672052822
Ar	-0.00019603923911600587	8.956794435127961e-05	0.002759412064586513	0.0075103144326548075	-0.0036868218100368937	-0.000966045179092631
2
262000
Ar	0.00038053649925284507	-0.00014851699706605826	0.0032085584750823257	-0.002308827914978046	-0.00485989217222804	-0.002028251026322889
Ar	-7.758552031962455e-05	3.3826683525790396e-05	0.002763101209996304	0.015144638713129247	-0.007005442674199386	0.0016104092943523306
2
262200
Ar	0.0002667196408704743	-0.0001558055137454104	0.0031820380944232018	-0.019086664307360404	0.0032670994160876026	-0.002402718726713527
Ar	8.069857812905772e-05	-3.88337047219191e-05	0.002785245891319732	0.014985879805702451	-0.006836406507387496	0.002133286213836892
2
262400
Ar	2.9581093284020127e-05	-9.110541096846506e-05	0.003182112508333017	-0.02701272661487572	0.009295388284319634	0.002624482053515341
Ar	0.00019594173469264875	-8.947154903362752e-05	0.0027868974319603585	0.007455461140384122	-0.0029929038751349427	-0.001986395894303021
2
262600
Ar	-0.0002310789508280712	1.8209275224827593e-05	0.003212595885746349	-0.022492572433348144	0.01154282688153394	0.002436435363463983
Ar	0.0002176483509506359	-9.565088834597281e-05	0.0027634633405660886	-0.0035458396975461774	0.0018325840233654348	-0.0018634699584717722
2
262800
Ar	-0.0003767648211406052	0.00011822204564637121	0.003220129188298155	-0.005294660402509079	0.0075029769441384425	-0.0010652050258437623
Ar	0.00012990101474086502	-5.570123193266247e-05	0.002757750633270576	-0.013232536668031937	0.005848903312399204	0.000819742005125339
2
263000
Ar	-0.0003299276821406151	0.00015602610724343695	0.003195369485461119	0.013919827358749576	-0.00016495580064191797	-0.003312819746050689
Ar	-2.445895620469688e-05	1.1809148395622823e-05	0.002776737473165723	-0.016252733693772784	0.007068162351972228	0.0025895822061134492
2
263200
Ar	-0.00012711004906124941	0.00011888102379656685	0.0031744081437958603	0.025125969236928593	-0.006859651986679509	0.0003474433346370311
Ar	-0.00016485403595443976	7.177240867348586e-05	0.002793040098252919	-0.010664445102633579	0.004307873849095922	-0.0003828143979266585
2
263400
Ar	0.00014180326197132934	2.6783545616773507e-05	0.0031980512677306718	0.02625569974574609	-0.010893748831865824	0.0030501396748623716
Ar	-0.00022517303298710324	9.32791240989743e-05	0.0027730675131633774	-0.0007256843435992308	-0.0001121353722844156	-0.0024842207092491144
2
263600
Ar	0.00034677636552474055	-7.934655163121695e-05	0.003217617194908241	0.012677101846871354	-0.009312476332163488	0.0004361868275656274
Ar	-0.0001746120556032933	6.990059035748114e-05	0.0027576527178741245	0.010376105627382158	-0.004390265934076621	-0.000318483778283201
2
263800
Ar	0.0003734703710944958	-0.0001430459665697354	0.003205674128924784	-0.00741233336753873	-0.002922500581776567	-0.0025652813112916235
Ar	-3.5269478422788525e-05	1.2382597615847416e-05	0.0027671645349309753	0.016279211893166154	-0.006627644078967408	0.0020479559080737535
2
264000
Ar	0.00021742970075019406	-0.00013507317226331045	0.003179293818699221	-0.02216898606193478	0.00426033257238472	-0.0015858379233289529
Ar	0.00012179228165114695	-5.1085133442466864e-05	0.0027890698143056172	0.01357434558597312	-0.0053778505071338184	0.0013930766625449
2
264200
Ar	-4.069687583898514e-05	-6.529426328577388e-05	0.003189272763006469	-0.027778037181369026	0.009332154665537872	0.0028958384079890505
Ar	0.00021679123007590966	-8.599381025781587e-05	0.002781130886099691	0.004874549517778184	-0.001477771171470771	-0.002361081008090872
2
264400
Ar	-0.0002885083213789613	3.68328668220178e-05	0.003214769804344415	-0.019241657371623273	0.010138017674239205	0.00145622642853859
Ar	0.00020763862014149892	-7.92019539874343e-05	0.0027607363950356567	-0.006742308900053401	0.002810663377650515	-0.00116595075259559
2
264600
Ar	-0.0003890063265887949	0.00011899237917515756	0.0032124303859746143	-1.2225208804940351e-05	0.0055601462513089036	-0.0018703936377156677
Ar	9.34921847475093e-05	-3.400568695013944e-05	0.0027624174888008575	-0.015057611659521672	0.0058544361655595055	0.0014537069963441642
2
264800
Ar	-0.00029325085137210086	0.0001397094179712482	0.0031850188825636367	0.017934200403482016	-0.0014748073020355624	-0.0028069833942374178
Ar	-6.830176302210815e-05	2.801921044009588e-05	0.0027841989283524703	-0.01574336684027131	0.0059723868049419895	0.0023122625818295045
2
265000
Ar	-6.174417882633023e-05	9.515875079594179e-05	0.0031787690864333233	0.027006497377510333	-0.007129812408653009	0.0020987545289055942
Ar	-0.00019281014905452674	7.33536069898016e-05	0.0027894405746368175	-0.00845347270995906	0.0027449715278691747	-0.001734844578055813
2
265200
Ar	0.00020804404569740368	5.53950229865519e-06	0.0032086897218377088	0.02425330762281477	-0.010003932955100629	0.0027052349952571687
Ar	-0.00022533422112711726	8.072247089199493e-05	0.0027653853313868884	0.0025037807881444062	-0.0013139277868643281	-0.0021173838492363067
2
265400
Ar	0.00037598678557479166	-8.68300533340358e-05	0.0032201763094135494	0.007732713095620758	-0.007569511591000468	-0.0006365681535087256
Ar	-0.0001452495964787966	4.945596748767445e-05	0.0027563369987731044	0.012798908324069198	-0.004690139693219099	0.00045736912893547276
2
265600
Ar	0.0003512275175887068	-0.00013299962663928475	0.0031988059585206716	-0.012186836519474154	-0.001341274052219942	-0.0031803823274035897
Ar	9.186578691013513e-06	-5.7587082094166505e-06	0.0027727382798264162	0.016697061973675497	-0.0058925222909658416	0.0024848431754416426
2
265800
Ar	0.000158773051061979	-0.00011430201410962463	0.003175312560354843	-0.024672659722583472	0.004776809875271411	-0.00025477400473715125
Ar	0.0001575919774783585	-5.716875376922843e-05	0.002791600567584115	0.011606899608595641	-0.003861344923815401	0.00020981413267756496
2
266000
Ar	-0.0001127210721472582	-4.319159771575522e-05	0.003195612329844934	-0.02733835773409904	0.009003108674202938	0.003072362342153818
Ar	0.00022793410994105428	-7.771167862302995e-05	0.0027752662841481115	0.0018277982023970428	-0.0002263033229216527	-0.0023841717141785223
2
266200
Ar	-0.00033562620715352486	5.022736540193596e-05	0.0032168953051677734	-0.014996606574179276	0.00877809633216905	0.0006954712880693276
Ar	0.0001871921299991076	-6.113394401692695e-05	0.0027593159559353322	-0.009648677808182992	0.00341246460019944	-0.0004739211814125344
2
266400
Ar	-0.0003860044569771224	0.00011679393494477396	0.003207030148425411	0.005232916773081426	0.003939806199909102	-0.0024338520543860805
Ar	5.139899587448773e-05	-1.4888986396835521e-05	0.002767423119421253	-0.01634424775505758	0.005497643920515488	0.0019574818631493255
2
266600
Ar	-0.0002458384778963264	0.00012406267763136671	0.003179733938216955	0.021231776946227916	-0.0023507998366711818	-0.001954095329143308
Ar	-0.00011056736759385149	3.885339219322032e-05	0.0027894707447562385	-0.01442646260732122	0.004709705489718898	0.0016194391814496733
2
266800
Ar	8.573790967642262e-06	7.498371272368835e-05	0.0031868897842474027	0.028131787891153733	-0.007209366800426687	0.002965395272803839
Ar	-0.00021490259202429655	7.0097410757668e-05	0.002783322758432449	-0.00588773705739283	0.001418986003132983	-0.0024656872421063886
2
267000
Ar	0.000268842598097272	-1.019527739313921e-05	0.0032152721369315155	0.021231001104990196	-0.009044365439302574	0.0018603409293350855
Ar	-0.00021615498571545414	6.63031938308255e-05	0.002759617337621593	0.00581438700296391	-0.002146319453498841	-0.0016113474964784627
2
267200
Ar	0.0003930130387759651	-8.904178737459612e-05	0.0032165852437435445	0.0024965019739496843	-0.0060161967040882535	-0.0016226772434052412
Ar	-0.00010807259652653538	3.0419380638776735e-05	0.0027572533169768617	0.01486040990590628	-0.00469611526059876	0.0011593207256390668
2
267400
Ar	0.000318214897536897	-0.00012089849406623541	0.003189251631888473	-0.016448643457054466	-0.0001768781015033957	-0.0031225420242873606
Ar	5.591361600757417e-05	-2.0362518030623093e-05	0.002778221850344632	0.01642377347602496	-0.005010864309191278	0.002543364825193491
2
267600
Ar	9.494311020994312e-05	-9.539206693843912e-05	0.0031765977621766206	-0.026816649556841154	0.0050268098788487	0.0014445574196947524
Ar	0.00018961737284887073	-5.952090411368924e-05	0.002789417155184352	0.009415172658003745	-0.0024571327080424557	-0.0010824683493503829
2
267800
Ar	-0.00018152126527168057	-2.5621571819868133e-05	0.003204285101783874	-0.025800563664092533	0.00837819803259476	0.0028434568972048827
Ar	0.00023241219576391987	-6.780203952884802e-05	0.0027684827837809885	-0.0014765193002731181	0.0008316087180743368	-0.002077901305217714
2
268000
Ar	-0.0003711783128731292	5.6914739064577276e-05	0.003218727132087977	-0.01029036668289781	0.00734616143173359	-0.0002514188814033466
Ar	0.00016041005603384045	-4.411784136980966e-05	0.0027586033690559695	-0.01230639393247671	0.003715511071865506	0.00026686878096497636
2
268200
Ar	-0.0003703964999458978	0.00010852065080648856	0.003200761303722973	0.01019474442059982	0.0025744015815308743	-0.0029774027776518124
Ar	6.975417904193022e-06	7.027714680224175e-07	0.002773027663385898	-0.017046157002562935	0.004878619687007086	0.0023295158153951038
2
268400
Ar	-0.00019090001538688768	0.00010652084188613206	0.0031760256899525607	0.02404106425499807	-0.0028070267750623466	-0.0007150632104239486
Ar	-0.00014922201195501233	4.425510350480775e-05	0.0027925489902486363	-0.012679152319156985	0.003356959931164246	0.0005199729520497155
2
268600
Ar	8.107378937031887e-05	5.623485147860983e-05	0.0031940547997522067	0.028296340423942128	-0.006972564019437984	0.0031503345026755495
Ar	-0.00023061121907762294	6.272046984745834e-05	0.0027770630484114265	-0.0030005103290519446	0.0003102710296665742	-0.0026249448860155267
2
268800
Ar	0.0003217213029222313	-2.219542666130334e-05	0.0032175537063261293	0.017381718393409816	-0.00795639515295903	0.0009850633890522834
Ar	-0.00020025291796596135	5.067276737187765e-05	0.0027574831485128464	0.008865690797649565	-0.002637576838446879	-0.0008666321959607957
2
269000
Ar	0.0003973244412183801	-8.813032469832605e-05	0.003210185246677347	-0.0028313458256046145	-0.004667915764977133	-0.0023010845246318502
Ar	-6.871883570099745e-05	1.4416203251564202e-05	0.002762416933243508	0.01633338971052418	-0.004302486724130773	0.0017468498703769215
2
269200
Ar	0.000274926336566244	-0.0001084118123180971	0.0031816062542427428	-0.020186938970763145	0.0006363544174502617	-0.0024717059849120337
Ar	9.822605605573584e-05	-2.878014500928145e-05	0.002785237487370103	0.015414855016897946	-0.003897370090867787	0.002067208274914604
2
269400
Ar	2.50292116644719e-05	-7.855068094900808e-05	0.0031821593566164915	-0.028374172290961744	0.005183563550642445	0.0025662193909662305
Ar	0.000213443342261872	-5.568114408154141e-05	0.0027855897202334044	0.00704375839038248	-0.0013249778691656819	-0.0020117542509436952
2
269600
Ar	-0.0002468248207053016	-1.1253335764536909e-05	0.003210772505209128	-0.023229961192660013	0.007675870274517884	0.0022084548635557485
Ar	0.0002268750245936226	-5.476371623213631e-05	0.00276380485855509	-0.0047092180220584465	0.0014880267396816208	-0.00163385390599386
2
269800
Ar	-0.00039471001173643186	6.091041748478237e-05	0.0032164838405607994	-0.005014079122235351	0.006072692901221416	-0.001174678597189373
Ar	0.00012640368510638856	-2.8192535101795106e-05	0.002760079576505284	-0.014500900405192259	0.003626749381255614	0.0009149473948981097
2
270000
Ar	-0.00034175492917489766	0.0001003343518653968	0.003192241688870237	0.014803531858395553	0.0015277365538756977	-0.0030625115416036603
Ar	-3.84479116496536e-05	1.2003702305047752e-05	0.002778778699110373	-0.01698954383325601	0.004077684552218455	0.0024186332885574617
2
270200
Ar	-0.00012845901077533495	9.167698488510727e-05	0.0031761240136622703	0.026339248445160994	-0.003063726919775931	0.0009281607984702425
Ar	-0.00018150700777814713	4.508974439990379e-05	0.002791462245882306	-0.01049520828280367	0.0021730237938527037	-0.0008336607334523287
2
270400
Ar	0.0001517875816059336	4.190724460900978e-05	0.003202304502745383	0.027112767487024157	-0.006577574433783073	0.003008281249205105
Ar	-0.00023616241206499215	5.384667418305057e-05	0.002769563865124337	0.00025323589339056106	-0.000435228381712255	-0.0024250224166991376
2
270600
Ar	0.00036143235953025167	-2.848451864702642e-05	0.003219643210067196	0.012750276208549722	-0.006835405421120229	8.58322412770706e-05
Ar	-0.00017397533027759004	3.72749646503234e-05	0.0027558199606681493	0.011627057682254808	-0.0027488008189762744	-9.848035384791899e-05
2
270800
Ar	0.00038503811017045244	-8.256399845537402e-05	0.0032040942037135822	-0.008022571422970045	-0.0035129375849126984	-0.0028534707424711474
Ar	-2.354817967976423e-05	3.0722301555057627e-06	0.002767803919663466	0.01716806689788399	-0.0038210697936937456	0.0022666374659623353
2
271000
Ar	0.00022116792069685765	-9.445203481265499e-05	0.003177228367049385	-0.023112895144188517	0.001054181555522308	-0.001320292078331886
Ar	0.00013834480373176193	-3.2503764998050906e-05	0.0027898560067737698	0.013584694352937304	-0.0029223958810317627	0.0011348660367088326
2
271200
Ar	-4.7416690181125475e-05	-6.34340498444501e-05	0.0031904027237143703	-0.028788496017326765	0.005033793661921988	0.0030648772465394383
Ar	0.00022964661842855803	-4.981935254248223e-05	0.002779483190794356	0.004108393074037135	-0.0005310713017586632	-0.0024278917901870596
2
271400
Ar	-0.0003019290364249287	-1.4064737034743867e-06	0.003215957323958744	-0.01951937254852537	0.006802230184279405	0.0013589239619703599
Ar	0.0002102580871061852	-4.299392355186729e-05	0.0027598910328627073	-0.007914573468189353	0.0018695994255254465	-0.0009830381031789683
2
271600
Ar	-0.00040179283913439916	6.0158929963882664e-05	0.00321246259748265	0.0003639487800054207	0.004950548741243154	-0.001979248587482888
Ar	8.465722696315668e-05	-1.5816510895100303e-05	0.0027633084102128835	-0.016118276405061426	0.0033610133275195886	0.001604562101357852
2
271800
Ar	-0.0002997763789789654	8.988045914163529e-05	0.003184864631544188	0.018739235037671078	0.0008108316351113671	-0.0026836507015355823
Ar	-8.458030926598507e-05	1.880860074482785e-05	0.002785308403725435	-0.01608356678865277	0.003247238304680426	0.002146107232269407
2
272000
Ar	-5.876163175589118e-05	7.772782717696979e-05	0.0031812426496260564	0.028124015689027018	-0.003141177387847718	0.0022667761572784414
Ar	-0.00020833577500700524	4.221885235552442e-05	0.002787708473765045	-0.00800674979896116	0.0012547821081038768	-0.001953161221533491
2
272200
Ar	0.00022001975687033679	2.9961270831155232e-05	0.0032102966331944184	0.024809727940228104	-0.0060639423964459075	0.002440099229668097
Ar	-0.00023242495598852072	4.3640407375048885e-05	0.0027635470811890567	0.0036608550583844854	-0.0009773807343576048	-0.002026540660013573
2
272400
Ar	0.0003896786212750457	-3.2525159345624956e-05	0.003218572084526912	0.0075383170159964135	-0.005830775271530798	-0.0009328937933110145
Ar	-0.00014025167550787884	2.4537598307372432e-05	0.0027558764302262687	0.013952882972924959	-0.002716430894574344	0.0006139014090934409
2
272600
Ar	0.00035978844287816523	-7.66324582647328e-05	0.003195578458408693	-0.012920584563754984	-0.002640044223848558	-0.003138017483745133
Ar	2.341860367496912e-05	-6.485762624405692e-06	0.0027733535589287623	0.017309307164982576	-0.003203668721033606	0.0025174634184215697
2
272800
Ar	0.0001589836975209079	-8.301831762531461e-05	0.0031751932162553506	-0.025643631857367073	0.0013084997588396912	0.00025481511173326655
Ar	0.00017403360167296046	-3.349941054651603e-05	0.0027904833199604378	0.011482441089956335	-0.0018939265728884851	-0.0001192979045788405
2
273000
Ar	-0.00012215319427697434	-5.201349601932283e-05	0.0031983412087050263	-0.028139982690930862	0.004751469731883037	0.0030761143953964816
Ar	0.000239216916157929	-4.190554370196908e-05	0.0027730146644255006	0.0009180977598686983	0.0001694529272205777	-0.002260378950865362
2
273200
Ar	-0.00034925492746413535	4.4890675646012126e-06	0.0032183624703874597	-0.015063743815974877	0.006003716807200718	0.0004994015644859334
Ar	0.0001872251535456911	-3.079612992193435e-05	0.002759182820283052	-0.010866271802797117	0.001944863454745743	-0.00021457877240736394
2
273400
Ar	-0.0003968159994252639	5.7539226363472975e-05	0.003206513428308066	0.005803815051121585	0.004139005389401969	-0.0026058450680811677
Ar	4.042376616943265e-05	-5.598421258923026e-06	0.0027693039593969433	-0.01724268453354836	0.0029028953620545243	0.0020510717810338325
2
273600
Ar	-0.00024959138444151607	8.099989234945156e-05	0.003179053363519451	0.022064387074011194	0.00047019913865690034	-0.001749960400672682
Ar	-0.00012698155142596692	2.2354186778584457e-05	0.002790502060097168	-0.014555274206932183	0.0023558672954229094	0.0012811364001711165
2
273800
Ar	1.4106042211709554e-05	6.787569921355119e-05	0.0031883934052695795	0.02905659984582939	-0.003093991324487176	0.0029703139882352736
Ar	-0.00022863971307611334	3.67073588360292e-05	0.0027807370034612982	-0.005239803150853797	0.0005028876871932155	-0.0026544326408731445
2
274000
Ar	0.00028065909103618255	2.269473233337998e-05	0.00321534148564164	0.021529622439307502	-0.005561371600940412	0.0016430708059556314
Ar	-0.00022027253405386836	3.267754275436046e-05	0.0027573410616478587	0.006969954228056699	-0.001254943675932838	-0.0014237779488554933
2
274200
Ar	0.0004043228710402332	-3.3230970593639394e-05	0.0032146950693953016	0.0021054118466287677	-0.005080103208715963	-0.0017576991946781164
Ar	-0.00010064915342510876	1.3396298998816835e-05	0.002757048812255846	0.015910519491015095	-0.0024345613074861876	0.0013632759092006357
2
274400
Ar	0.00032325963175769445	-7.078295217202604e-05	0.0031872757106389885	-0.017231837166449004	-0.0021451360244559223	-0.0029304471384594983
Ar	7.098034655346801e-05	-1.2323376969101807e-05	0.0027792384359967216	0.01679957561977885	-0.0024886079884261876	0.002521737480350711
2
274600
Ar	9.130297856914488e-05	-7.481767842568627e-05	0.0031782295559745805	-0.02779844685862221	0.0012975511499810166	0.0017991910968555003
Ar	0.00020464459415299528	-3.07747096548703e-05	0.002788708366772797	0.009067545232222297	-0.0010111752056911826	-0.0012444859741670986
2
274800
Ar	-0.00019322827752816978	-4.498484964595428e-05	0.003206431014755711	-0.026297560445536883	0.004505422605172055	0.002652907011758131
Ar	0.0002401263706443863	-3.243417776031136e-05	0.0027684864897877777	-0.0025176608593291206	0.0006061194325603748	-0.001870852534782163
2
275000
Ar	-0.0003840982524965147	7.454116070359069e-06	0.003218172443800992	-0.01001594552684299	0.005495360225789613	-0.0005320104006781971
Ar	0.00015665764473411024	-1.9597740928313412e-05	0.002760526894839281	-0.01342589146497926	0.001892386705154418	0.000436059438219451
2
275200
Ar	-0.00037776767099721546	5.5082898196440895e-05	0.00319819597590242	0.010964234969364044	0.003620602544624203	-0.003030229353352064
Ar	-5.905840445661598e-06	2.439883302838793e-06	0.0027757349207540825	-0.01765155948547282	0.0023358960395181852	0.0023071553259436045
2
275400
Ar	-0.00019029408615601955	7.537582117902325e-05	0.0031754028529445244	0.024901339479391528	0.0003975906073377897	-0.0002469549757815848
Ar	-0.00016390247896805037	2.255167902927525e-05	0.0027927601418150263	-0.01245159612510037	0.0014448759203846077	2.1875708210071293e-05
2
275600
Ar	8.990039912180962e-05	6.252799950801778e-05	0.003196384565136428	0.02892999472756926	-0.002978289627357339	0.003171958901098948
Ar	-0.0002398705298775106	2.8799149556495125e-05	0.0027736772530156956	-0.0021285255141465244	-0.00013609190716684132	-0.0027345087096294764
2
275800
Ar	0.00033325826321273943	1.95018792648182e-05	0.003218625639150851	0.017298556758210248	-0.0052266686564268125	0.0007411439925488247
Ar	-0.00019923849077033257	2.1036567511013402e-05	0.0027546903609913394	0.009931227979510023	-0.0013618970384964688	-0.0006929483686768989
2
276000
Ar	0.0004048723056712647	-3.2410730602334534e-05	0.0032086561240286344	-0.0034746589585431297	-0.004659420194976693	-0.0025398484321700215
Ar	-5.790688401113532e-05	3.658179925912041e-06	0.0027617624084872593	0.017146278695980077	-0.0019685229181128764	0.001987505679148049
2
276200
Ar	0.0002751242246155467	-6.6025922657608e-05	0.0031797664103774413	-0.020935405719831574	-0.0018826425911917003	-0.0021958815417648108
Ar	0.00011360513853096214	-1.5163118337391763e-05	0.002786000095105556	0.01544023030879097	-0.001600080210096562	0.002027792011338196
2
276400
Ar	1.7166102607133013e-05	-6.950776319189813e-05	0.0031844332846731873	-0.029166389751676545	0.001254896873608604	0.0028703212437461356
Ar	0.00022558755354736937	-2.4396727080517912e-05	0.002784709775287107	0.006408124584150303	-0.00020736389818172522	-0.00206155379193368
2
276600
Ar	-0.00025951651694537133	-4.113822256755565e-05	0.0032135886646931615	-0.023327530521938703	0.004212772751869797	0.002044526004761056
Ar	0.00022986524711540675	-2.093472349109688e-05	0.0027640845946114846	-0.005811805969787421	0.0008345557826396428	-0.0013770117895882858
2
276800
Ar	-0.00040498483876256325	7.452492424971355e-06	0.003216745724631218	-0.004456289307522413	0.005058853137348195	-0.0014400349687085112
Ar	0.00011883193005320902	-8.77604827092751e-06	0.002762636600909283	-0.01541422356057567	0.0015084278807432209	0.0011027666212779833
2
277000
Ar	-0.0003446133105336104	5.091105954131428e-05	0.003190691862915767	0.015632552043855448	0.0033117990050759317	-0.0030922927994522322
Ar	-5.2799160289643104e-05	7.011252918279421e-06	0.00278228850015635	-0.017317425313540552	0.0015599194441587715	0.0023296985549426225
2
277200
Ar	-0.00012303162829129942	6.978970969139686e-05	0.0031770423103884204	0.027209250702767345	0.0004372466897182517	0.001322269535005656
Ar	-0.00019516114778273915	1.846932843364137e-05	0.0027914066320958906	-0.010100106686374333	0.0005509163206951947	-0.0013320485170287637
2
277400
Ar	0.00016406112276006528	5.801385735790321e-05	0.0032043307933888477	0.027497362232186132	-0.002803147003930007	0.002839941951038349
Ar	-0.00024296750593761908	1.8462668055750863e-05	0.0027668572158993524	0.0012047287447885706	-0.0004638524356556813	-0.0024938792984417913
2
277600
Ar	0.00037342607888986556	1.7862908409869387e-05	0.003218949776249788	0.012332221595327323	-0.004853070120696243	-0.0002261953989089872
Ar	-0.00017063381110528987	1.0260608837089856e-05	0.002753595004781422	0.012607698786595982	-0.001115530802377095	6.044046889509004e-05
2
277800
Ar	0.00039040633578282563	-3.0040258762007393e-05	0.0032008557558167996	-0.00885675435536472	-0.004298706063063756	-0.0030140407383729296
Ar	-1.1740067188590391e-05	-2.087456142788261e-06	0.0027677738929525633	0.017802395728604925	-0.00126176267502962	0.0024966985366916177
2
278000
Ar	0.000218231507413464	-6.188335088270525e-05	0.0031747457490516394	-0.023912088064436576	-0.0019203797505256146	-0.0009313626665564804
Ar	0.0001527753438049577	-1.3040156146965636e-05	0.0027906402014263856	0.013454455863715445	-0.0007462918548397747	0.0010076104277597635
2
278200
Ar	-5.7978386905969956e-05	-6.674334197725032e-05	0.0031917131819976068	-0.029359168196322998	0.0010838616310047283	0.0032261922180095645
Ar	0.0002401357035385379	-1.5074673682602466e-05	0.0027792137101902373	0.003422334382907796	0.0002407770008143866	-0.0023510688326886364
2
278400
Ar	-0.0003145890367212658	-4.0335855064039063e-05	0.0032171573893835796	-0.0193675707090713	0.0040010904969023636	0.0012291811597114873
Ar	0.00021186029378061452	-9.987781530651367e-06	0.002761355375991441	-0.008917317575693874	0.0007412763559143552	-0.0007643876051843676
2
278600
Ar	-0.00040981061417052085	5.7035928792441395e-06	0.003211993898180564	0.0010802849513552213	0.004773352145111547	-0.002135237213124157
Ar	7.67452117110432e-05	-1.2361429436682155e-06	0.0027662895552327377	-0.0169446855648733	0.000965802275994952	0.0016487714334549178
2
278800
Ar	-0.00029991699017029207	4.705988085054938e-05	0.0031836963280653	0.019524744307855706	0.003209981755408579	-0.0025585222237761098
Ar	-9.761425931815465e-05	7.878048036598411e-06	0.00278771537623905	-0.016224092281221777	0.0007410284649377151	0.0019264023063056777
2
279000
Ar	-5.1189071464899e-05	6.694960398521129e-05	0.003182656297171895	0.02882867451353979	0.0006551883868407476	0.0024491680965300403
Ar	-0.00021970101543294105	1.1036901160657629e-05	0.0027863107180918765	-0.007571741756043669	-0.00013689689344821435	-0.0022679747683405117
2
279200
Ar	0.00023154550020787465	5.729010193417788e-05	0.0032106709151038786	0.024862147218964074	-0.0025782408537104924	0.0021614322136610446
Ar	-0.00023668719247872213	7.0924511281771985e-06	0.0027613100801993007	0.004542463708204149	-0.0005619953376377906	-0.0019334436960661257
2
279400
Ar	0.0003982181453820375	1.9545648423370336e-05	0.003216013767526649	0.006927332766160291	-0.004596108506554142	-0.0011886882117717245
Ar	-0.0001352931732537894	9.662427368334535e-07	0.0027552290490421225	0.014812458343322017	-0.0006505125765197373	0.0007995423915246748
2
279600
Ar	0.000360602718130246	-2.6587985874444457e-05	0.0031917238627404846	-0.013775557855024578	-0.004208480272989954	-0.0030728425118699684
Ar	3.462499750795594e-05	-5.2797167277447205e-06	0.0027743213199000858	0.01765334846436807	-0.0005600719603365926	0.0026037306740902305
2
279800
Ar	0.0001521752506868204	-5.874562503609212e-05	0.0031749780588286422	-0.0263710182010612	-0.002105857755686949	0.000862222228199
Ar	0.00018485508713941576	-8.775208165805475e-06	0.002790506526910757	0.011153626164095294	-1.9277299793995823e-05	-0.0003981199416058906
2
280000
Ar	-0.00013390468810817099	-6.57155645227105e-05	0.0032017933035597018	-0.028276251563086073	0.0008969647389147667	0.003145507389058009
Ar	0.00024448692609976635	-6.11519782350704e-06	0.0027722150644088825	0.00010982911229685924	0.00044027623508195447	-0.0021870961650177862
2
280200
Ar	-0.00035862258943880783	-4.1335915698651504e-05	0.0032205252345429247	-0.014451837052262065	0.003764712817111047	0.00021815718351612682
Ar	0.00018419701610682108	-1.5193904694359952e-06	0.0027597080850979526	-0.011671898637156532	0.00047709949393337335	-6.319643447317788e-05
2
280400
Ar	-0.0003984292410795778	2.921784897619276e-06	0.0032053773920501724	0.006671467332389147	0.0046601137093245275	-0.002901350339330215
Ar	3.084928761338503e-05	2.8722221179080205e-06	0.0027712266686570177	-0.017683563495402736	0.0003930687319963195	0.0021628661938066104
2
280600
Ar	-0.00024329562698090037	4.431096683805035e-05	0.0031771332415465817	0.022684754777884807	0.0033564780244299923	-0.0015580905250877257
Ar	-0.0001376070495468037	5.602964996516616e-06	0.0027921403080665525	-0.01431443893814063	0.00010865549534378175	0.0010216323728792665
2
280800
Ar	2.5772175578147853e-05	6.684121294359947e-05	0.0031891030217605673	0.029385236344221285	0.0009174308966420421	0.003081798516900043
Ar	-0.00023516311324029543	3.795563884370421e-06	0.002779267822324544	-0.004632621177996039	-0.00039030398257220176	-0.002816722290208235
2
281000
Ar	0.00029172181699516287	5.9013792720104185e-05	0.0032157054890864863	0.021090527292586987	-0.0024753181815250036	0.0015145514246659515
Ar	-0.00021962790562433672	2.136335861015907e-07	0.0027558940982858925	0.00773139714416477	-0.0002862545784976595	-0.001330145057955061
2
281200
Ar	0.00040836935994042	2.1636381683412457e-05	0.0032132986523642627	0.0012261536950851932	-0.004653052156328429	-0.0019357426463204527
Ar	-9.345647557246743e-05	-1.9565047434349317e-06	0.0027569311092125203	0.016400164671478895	-0.0001402942587898287	0.0015090578363905175
2
281400
Ar	0.00031886815011264224	-2.5376815198880858e-05	0.0031853896999701494	-0.017977335908153785	-0.00437172479958938	-0.0028276814494110824
Ar	8.066414315844506e-05	-2.5465412122619404e-06	0.0027805781705522313	0.01677013073362307	1.90738802515586e-05	0.0025707425160765305
2
281600
Ar	8.093959056050659e-05	-6.067501129086842e-05	0.0031793313485146374	-0.02825626691261605	-0.0024929433678387595	0.002085528779936178
Ar	0.00021151207080089457	-1.0578248034975323e-06	0.002788668277551142	0.00861362540450189	0.0003591159434021777	-0.0013932299184763553
2
281800
Ar	-0.00020480667597524274	-6.980410556129782e-05	0.0032079780938403003	-0.026020374462565804	0.0008563778961881474	0.0025022008070559936
Ar	0.0002409675346495243	2.638132836986592e-06	0.0027686306166381236	-0.0032180609755120063	0.0002780643883136422	-0.0017254380335710794
2
282000
Ar	-0.0003892480044708882	-4.448321116278389e-05	0.0032177775171761853	-0.009152614787407504	0.0039692305405404004	-0.0007513649361869832
Ar	0.00015079721049199627	3.7026947759034304e-06	0.0027624645813369795	-0.014018879470673345	-5.919587422413377e-05	0.0006096400295410134
2
282200
Ar	-0.00037410122094559646	2.3590574879636533e-06	0.0031961823022115215	0.011746999814791888	0.004962823308258046	-0.0030589167085322603
Ar	-1.5918267538266544e-05	1.918464915852616e-06	0.0027786136049117427	-0.01781716529741808	-0.00027825817029190496	0.002270432620832757
2
282400
Ar	-0.0001808420957636604	4.740379901228608e-05	0.0031756234668214424	0.025297338169893244	0.0037935731348028375	0.00018047358351008626
Ar	-0.00017228407330328996	-1.2287040385271836e-06	0.0027932241659069006	-0.0120215500839773	-0.0004108549793027084	-0.00042409956701690044
2
282600
Ar	0.00010133176305915214	7.309698489204802e-05	0.003198946772774558	0.02877545008293053	0.001024673307522402	0.0031556439143909636
Ar	-0.00024258488921814395	-6.143392847930134e-06	0.00277104615756286	-0.0013929297045522098	-0.0003935182383724992	-0.0028287466517160527
2
282800
Ar	0.0003397293069671729	6.454348761600008e-05	0.003219586593317432	0.01649523873417638	-0.0026802755075890183	0.0004922922944904985
Ar	-0.00019440818650669252	-7.12287598257276e-06	0.0027522069031661266	0.0106357947751506	0.00018995281853327633	-0.0005832411220579692
2
283000
Ar	0.00040214292456610177	2.4291966406255783e-05	0.0032073831868065002	-0.004411654842187368	-0.004967467552313929	-0.002680827947419941
Ar	-4.790119798104659e-05	-3.160314259064049e-06	0.002761175566313759	0.017435679506295258	0.0005459466389807542	0.0022139138004193303
2
283200
Ar	0.0002656525895798053	-2.615417837872554e-05	0.003178355519629057	-0.021376167085998266	-0.0047286637575059	-0.0020146510337749122
Ar	0.00012337601996168754	2.2291868300423792e-06	0.0027868896410525824	0.015104498661292532	0.0005198929604712296	0.001992326270849766
2
283400
Ar	4.965096306478218e-06	-6.527782038014873e-05	0.0031856465015740573	-0.029206620685478347	-0.002812767297593589	0.00294769532510978
Ar	0.0002304075385708134	8.089560915070146e-06	0.002784055810118034	0.0057779831866738894	0.0005800102437316153	-0.0021270590374663284
2
283600
Ar	-0.00026802407612103196	-7.564699469822865e-05	0.0032136176149262096	-0.022624521535592017	0.0008961852369578076	0.001817437925036055
Ar	0.00022738989695223955	1.0868191783092779e-05	0.002764221693603305	-0.006526997844398679	-6.506346614468933e-05	-0.0012394937054590067
2
283800
Ar	-0.00040472345736542825	-4.844040014865209e-05	0.0032147880467914554	-0.0035210571645580297	0.004283924978611923	-0.0015700830163038679
Ar	0.00011029332974809073	6.915180824915514e-06	0.002764056921868602	-0.015847669742720144	-0.0006755079954577	0.0011936921913709411
2
284000
Ar	-0.0003363875597260791	2.0459263477277374e-06	0.003188408878135439	0.01621281160467884	0.005340746332088272	-0.0029593478958523226
Ar	-6.284013402476e-05	-9.741171099455637e-07	0.0027837737223863697	-0.017148684760505663	-0.0008143953319344416	0.002213739795274743
2
284200
Ar	-0.00011132148531774491	5.0899356059819434e-05	0.0031782826919001055	0.027387804801559584	0.004189880141928064	0.0016926278758560794
Ar	-0.00020083899589055812	-8.717606301225849e-06	0.002789834629711478	-0.009571992587685154	-0.0007543580695135613	-0.0016696001371019303
2
284400
Ar	0.00017379224124549974	7.886842351403515e-05	0.0032064616970042007	0.02689810573631142	0.0010178836125750192	0.002731957283060669
Ar	-0.00024177017843034194	-1.4101131621611951e-05	0.00276447347318433	0.0019681813297348296	-0.0001521469508192685	-0.0023646105110515033
2
284600
Ar	0.00037482530926311345	6.806990474021294e-05	0.0032188903664491096	0.011355990751252015	-0.003072738252442886	-0.0004784074136611632
Ar	-0.00016275711073454358	-1.1246944907653182e-05	0.002753327117264944	0.01311559087865735	0.0006891063112660856	0.00031376530791199584
2
284800
Ar	0.00038229665609422155	2.3386190524346868e-05	0.003198631223305928	-0.00965144978586175	-0.005438567480524637	-0.003120862851881035
Ar	-1.2482084788859679e-06	-1.922145078608061e-06	0.0027693418835359543	0.01777751615517539	0.0010740713138986692	0.0025801570080947805
2
285000
Ar	0.00020548379876783075	-3.112517014574653e-05	0.0031738761924383976	-0.02409220818116152	-0.005111750145126697	-0.0005426729620726293
Ar	0.00015994317609273396	8.333508024313631e-06	0.002791245909117689	0.012896963988765994	0.0009600356314193655	0.0006741023356336003
2
285200
Ar	-7.01439847305584e-05	-7.310865529343438e-05	0.00319374867859229	-0.028929348160941653	-0.002878923085859013	0.0032797082159158994
Ar	0.000240703605406322	1.677820222751835e-05	0.0027774364885989515	0.002642155956524698	0.000591105747038031	-0.0023684159549907896
2
285400
Ar	-0.0003189130877253032	-8.136344903990582e-05	0.0032182136074955054	-0.018324267562298685	0.0013469279138317459	0.001028446560610702
Ar	0.00020480981142094755	1.71626892507149e-05	0.0027604853623923774	-0.009556245255301157	-0.0005313532610237759	-0.0006579203538762984
2
285600
Ar	-0.0004033622659089461	-4.863920475755221e-05	0.003210871155720476	0.0020620120099666636	0.004865324537198983	-0.0023218571481264795
Ar	6.570932534867335e-05	7.686419681012945e-06	0.002766614602225475	-0.017066360243943677	-0.0012769536982517207	0.001774711608599249
2
285800
Ar	-0.00028702123176800327	7.27422904921991e-06	0.0031825175976670375	0.019782033395117086	0.005806001894559067	-0.0023735958259453655
Ar	-0.00010704683298097973	-6.060019326498992e-06	0.002788279608933728	-0.01577714753979991	-0.0013241623866309215	0.0017750766602726497
2
286000
Ar	-3.8128847984385386e-05	6.0308598045469794e-05	0.0031846332074791737	0.028587122337799985	0.004486811974881613	0.002628399709808224
Ar	-0.0002230705988091326	-1.7742558828883386e-05	0.0027845842389802827	-0.0068425884785226635	-0.000988757567176299	-0.0023831438111537352
2
286200
Ar	0.00023847598640457546	8.77715795685875e-05	0.003212363402650093	0.023884758910959796	0.0006586138146663342	0.001979974144005321
Ar	-0.0002318372730915019	-2.2185826770363067e-05	0.002760287103869081	0.005330248052447955	0.00022925919544420923	-0.001739111323522146
2
286400
Ar	0.0003942444142606584	7.141513266883083e-05	0.0032153740719487386	0.00586170996308303	-0.0037427030828531232	-0.0014359263290982674
Ar	-0.0001247221843602685	-1.3698346870923096e-05	0.002756769494849997	0.015141612938628075	0.001360638602733917	0.001057914298645639
2
286600
Ar	0.00034910047153289804	2.0087272286822225e-05	0.0031893791020633495	-0.014156714706203943	-0.006033157521410772	-0.003101138969762972
Ar	4.597633794781054e-05	2.6973967558669437e-06	0.0027773112399993014	0.01742309549875897	0.0017399587105800475	0.0025833619446896552
2
286800
Ar	0.00014007207258405507	-3.974514657341687e-05	0.0031750782753238982	-0.026212842499524106	-0.0056510488402808975	0.0012472437962382568
Ar	0.0001908805065470277	1.825413741165259e-05	0.0027908612623596236	0.010448281694104698	0.001340650876383714	-0.0008102707567366255
2
287000
Ar	-0.00014156986449833793	-8.437034731802337e-05	0.0032033374279422226	-0.02750614502534517	-0.002770926803951122	0.0030921513728578228
Ar	0.00024259234792765682	2.716432862026636e-05	0.002770213322978093	-0.000718352672312247	0.0002482034709032662	-0.0022195242306679076
2
287200
Ar	-0.0003571677556605595	-8.807172359362773e-05	0.003220834308528736	-0.013481531763270712	0.0020631216179192416	6.043271891691014e-05
Ar	0.0001750934733750624	2.1563249875966513e-05	0.0027583703593736498	-0.01220185489624737	-0.0012928353468631257	8.383285676932735e-05
2
287400
Ar	-0.00038845242078040023	-4.745295029392368e-05	0.003204598703089309	0.0072910850530458916	0.0056376794171430385	-0.0029595785751364255
Ar	1.9157773549718648e-05	3.974041478403473e-06	0.0027712807094588576	-0.017636167540381796	-0.0020552544918111706	0.0022587660541609736
2
287600
Ar	-0.00023064170836632506	1.5095812911088763e-05	0.0031771810648451365	0.02265782552091398	0.006409004070712182	-0.0012622420280287247
Ar	-0.00014595342155173557	-1.5694410849269156e-05	0.0027916894075994026	-0.013717765944548656	-0.0017241313080566553	0.0008044037211338068
2
287800
Ar	3.624988153889719e-05	7.281583313088366e-05	0.003190995296818685	0.028866478985920416	0.004646689847087169	0.0030227076139231444
Ar	-0.00023658187179915048	-2.9313886020931515e-05	0.0027778643233592245	-0.0038351042568400477	-0.0008270001299115295	-0.0026599501601255507
2
288000
Ar	0.0002938142198866034	9.778159888722573e-05	0.0032154295349797082	0.020058306561053844	3.6723633652524474e-05	0.0012100740628114956
Ar	-0.0002130904588658575	-2.876860938142484e-05	0.0027567644751883245	0.008422261156337192	0.0009324233684870998	-0.0010532006813717448
2
288200
Ar	0.0004003487577270524	7.339892642511951e-05	0.0032105005532223315	0.00038991217042089936	-0.004653237580993277	-0.0020876819752731024
Ar	-8.246166815439494e-05	-1.2687648980677509e-05	0.002760220301011979	0.016578078947215545	0.002125447528316707	0.0016697840102620721
2
288400
Ar	0.0003058381305502802	1.3833874412522057e-05	0.00318276016751566	-0.01803463702116426	-0.006732374828096287	-0.0025607538225170252
Ar	9.052895974351796e-05	1.0312323902387903e-05	0.002783714500737317	0.016328023326148234	0.0022446275420135208	0.002288973877564518
2
288600
Ar	6.987782151893037e-05	-5.254624047197905e-05	0.0031812889075201354	-0.02782945248782198	-0.006177792246186728	0.002487679328646061
Ar	0.00021490646613195265	2.9184516118983045e-05	0.002787053634607932	0.007843028423645846	0.0014559052415171734	-0.0018131893956980462
2
288800
Ar	-0.00020843706143405756	-9.823806557213185e-05	0.003211070670579929	-0.025051477123976245	-0.0024077619092441375	0.002425800851476892
Ar	0.00023586337018947033	3.540708770878648e-05	0.002765013079837187	-0.004063002930689741	-0.0003408325874397003	-0.0017557922096512661
2
289000
Ar	-0.00038267256128103795	-9.531905828195748e-05	0.0032187648761908185	-0.008187770839632869	0.002967208049141871	-0.0009936260110854247
Ar	0.0001394751420261502	2.248127977760258e-05	0.00275958372959452	-0.014346706935352298	-0.0020732528458607857	0.0007578179149327638
2
289200
Ar	-0.000360588985254119	-4.494538971652092e-05	0.003194933573996181	0.012098451505572748	0.006604697920224051	-0.0032063555322512797
Ar	-2.742878808950445e-05	-2.402518553015652e-06	0.0027774388638566634	-0.01755825706336456	-0.002677141194344099	0.0024265921430418422
2
289400
Ar	-0.0001673448494976309	2.574051418772361e-05	0.0031751909577727054	0.02502788394589633	0.00713270612383088	0.00045497969139156335
Ar	-0.00017842782442135575	-2.6132115580811953e-05	0.002791813639078108	-0.011350121608628473	-0.0019724173090040283	-0.000574445637484382
2
289600
Ar	0.00010978117988285745	8.826873605587324e-05	0.0031993699814587945	0.027937546846249675	0.004705399143856846	0.003069054606260769
Ar	-0.00024134130489437725	-3.9329751146811325e-05	0.0027706234630480095	-0.0005930445410911471	-0.00042177422557159144	-0.0025365129284837897
2
289800
Ar	0.00033778150108143394	0.00010929153167724778	0.0032184479282396975	0.01543601842943151	-0.0007497451892816738	0.0003430234851312544
Ar	-0.00018616133867981866	-3.209139597550837e-05	0.0027551151105380334	0.011171205147170795	0.0017892325958679639	-0.0002630130409390353
2
290000
Ar	0.0003914078705682626	7.502199928374409e-05	0.0032051411184377985	-0.005013590000608834	-0.005712015260340996	-0.0027370743905997656
Ar	-3.694758434627399e-05	-6.931747653723043e-06	0.0027662733078383053	0.0173837501658775	0.0030014117456377853	0.0022700171963273242
2
290200
Ar	0.00025268645178053547	5.529543737930645e-06	0.0031777024345861567	-0.021173455752762946	-0.007583287077929122	-0.0015669284951880349
Ar	0.00013079139611482942	2.2181404834772652e-05	0.00278981736479854	0.01445031871649149	0.0025454859852304243	0.001477959465335389
2
290400
Ar	-3.843280118646371e-06	-6.798403056732766e-05	0.003189142426391859	-0.028508089595605256	-0.006589731465039559	0.003059542318053789
Ar	0.0002305934537931147	4.1386889719729816e-05	0.0027818496114879647	0.004975811772725489	0.0011593457258940135	-0.002397807855810194
2
290600
Ar	-0.0002672909687966522	-0.00011240387735210405	0.003216006857561593	-0.02152607973278874	-0.0017904871796633971	0.0015839051196221473
Ar	0.00021943982306248255	4.1302229794282546e-05	0.002761144058115232	-0.007220020438022559	-0.0012334250583417301	-0.0011708835560196465
2
290800
Ar	-0.00039419969120675744	-0.000100190003510723	0.0032139504717528483	-0.0027821657470415008	0.004091883995853579	-0.0019408027511027492
Ar	9.832701361827903e-05	1.9036694840231812e-05	0.002762533766209039	-0.01596483720164523	-0.0029958568165998557	0.001424583826048271
2
291000
Ar	-0.00032200203051107397	-3.878822035738419e-05	0.003185635784024775	0.016193020938273982	0.007569783033480572	-0.002923335809921264
Ar	-7.310551139671428e-05	-1.3387913948320945e-05	0.0027842106444975873	-0.0166565095797132	-0.0031545653935922367	0.002287854291421514
2
291200
Ar	-0.00010032443387594655	4.022613744958943e-05	0.0031784724872236532	0.026860836485832686	0.007817935456347378	0.002049283399996542
Ar	-0.00020425062515185124	-3.945867573906662e-05	0.002789177519449566	-0.00877421878315386	-0.0019554236893914775	-0.00179016843360932
2
291400
Ar	0.00017691221143177572	0.00010481750669295828	0.0032078272871532186	0.02586348916504501	0.004322790784661941	0.0026711735184582292
Ar	-0.0002365667847368282	-4.830042375784262e-05	0.0027645909007818705	0.0027970307365311996	0.0003755619459086145	-0.002140198617434545
2
291600
Ar	0.00036733513065681256	0.00011775327307609141	0.003219042294554056	0.010408977419102275	-0.0018569846739526327	-0.0006335318926949279
Ar	-0.00015137466307867228	-3.208005307116038e-05	0.002755503406401311	0.01345413372516203	0.002706306146548638	0.00045943356098360807
2
291800
Ar	0.00036869821513488835	7.177519140856091e-05	0.0031981179609841784	-0.009863250596527817	-0.0068590597203740545	-0.003084850177558226
Ar	1.0241151056911924e-05	8.620099267875613e-07	0.0027718919470811586	0.017459149082159765	0.003603542519326904	0.002475867485477037
2
292000
Ar	0.00019347823279212346	-7.304075245377284e-06	0.003175693167088291	-0.023659850193118222	-0.008415588356615048	-0.0001555926749351515
Ar	0.00016536270359757217	3.332149600929432e-05	0.00279105599331032	0.012098735216669529	0.002660351033153727	0.00024007530491391085
2
292200
Ar	-7.576425731827633e-05	-8.60594580738847e-05	0.003196568596756702	-0.028022446870111017	-0.006598734063852671	0.0030727510891458646
Ar	0.00023783112942062293	5.1336957321800965e-05	0.0027749081859643576	0.0017853302783336713	0.0006687621126285336	-0.002375116454735857
2
292400
Ar	-0.00031424990989038326	-0.0001253067013926405	0.0032175312607468994	-0.0172696980219782	-0.0008126148910369583	0.0006581741927245563
Ar	0.00019470232559942163	4.381519819592296e-05	0.0027591617209126464	-0.010064309891492745	-0.002105396271017605	-0.00044511943980998087
2
292600
Ar	-0.00039037688659888996	-0.00010096268576496344	0.003207303192147678	0.0025782580883308105	0.005406476974300474	-0.0024878857860966067
Ar	5.370739285226618e-05	1.3200460583252938e-05	0.0027675111851947595	-0.016933947633664164	-0.0037562641939476254	0.0019533127325940557
2
292800
Ar	-0.0002729015073373305	-2.7993969104316185e-05	0.003179638978926849	0.019509654550673324	0.008524877349641014	-0.0019875253217652
Ar	-0.00011432000832722407	-2.4252859732106986e-05	0.0027895401437331656	-0.014982260168002212	-0.003351839873460746	0.0016098041479821249
2
293000
Ar	-2.901705424639357e-05	5.883758546913756e-05	0.0031868560214368263	0.02787738103093844	0.008268600628906731	0.0029868834216664805
Ar	-0.00022167836550898712	-4.978763044125151e-05	0.0027834012435053227	-0.005955581170368039	-0.0016385907213018495	-0.0024729238691178074
2
293200
Ar	0.0002380428947000178	0.00012156283690083856	0.003215676984233856	0.022827216155462973	0.0035667883034446505	0.001901328522624767
Ar	-0.00022218707941787968	-5.200668750869006e-05	0.0027597105089301986	0.006019508722353216	0.0012727735410302864	-0.0015845432084956735
2
293400
Ar	0.0003841862546163213	0.0001229322567443262	0.0032170198481717414	0.005087143337685112	-0.003290517151115432	-0.0016279004046749889
Ar	-0.00011106137518429762	-2.664894047964599e-05	0.002757777357202189	0.015229814392718555	0.0035543784472915046	0.0012080194720672861
2
293600
Ar	0.0003346286107361754	6.273600189305481e-05	0.003189522200690125	-0.014186291419742236	-0.00812912055910981	-0.003148364926727558
Ar	5.717749743166554e-05	1.297360351282706e-05	0.0027790263303450725	0.01685937779822076	0.003975025573899851	0.0025429833247714168
2
293800
Ar	0.00012837837615087462	-2.6680344435955115e-05	0.0031763851709983395	-0.025723242393433324	-0.009230185335768597	0.0014010749914102685
Ar	0.000193973454225363	4.5836691601786304e-05	0.002790291400601627	0.00953147307159204	0.002470092303839393	-0.0011065912249524164
2
294000
Ar	-0.00014586294070778816	-0.00010818714730682363	0.0032039288902393666	-0.026512493105040648	-0.006198200330678454	0.00284005419269031
Ar	0.0002362355018520916	5.862821768412527e-05	0.002768853461477224	-0.0016220694646755397	-0.00019428317754869312	-0.0021596922487709218
2
294200
Ar	-0.0003507069692521789	-0.00013738158284405146	0.0032185672051616428	-0.01246594601604245	0.0006347511581378626	-0.0002114707869498264
Ar	0.00016210212873386297	4.122959007512285e-05	0.002758168641818647	-0.012526114623518644	-0.0031378153696624313	0.00022172987189576082
2
294400
Ar	-0.00037459361888116344	-9.726562086546071e-05	0.00320100044142409	0.00768146737218971	0.006917304421582023	-0.002910866597586481
Ar	6.590290634360839e-06	1.6111182874532593e-06	0.002772130773499647	-0.017233346352118456	-0.004435151065534208	0.0022831742914081635
2
294600
Ar	-0.00021695095464099637	-1.1494467790879778e-05	0.003176839952553417	0.022300482968954455	0.009559280287936999	-0.0006826931193084157
Ar	-0.0001511701942294897	-3.900572113903049e-05	0.002791415720588824	-0.012736449096855049	-0.0033647085019986914	0.000510679123994573
2
294800
Ar	4.3865642828461964e-05	8.2447355909493e-05	0.003194584777591594	0.02798189759654781	0.008413695558790055	0.003099763531195395
Ar	-0.00023204794342227938	-6.21371763838472e-05	0.002775883170182803	-0.002855864468010203	-0.0010002603442341258	-0.002597202139047351
2
295000
Ar	0.0002905708886488668	0.00013954567799276258	0.003217658977337785	0.018890944967941404	0.0023920002162564407	0.0009420667711056579
Ar	-0.00020033662716537626	-5.508830444495617e-05	0.0027568332225082824	0.008979381458831733	0.002358018651919815	-0.0008225957454428514
2
295200
Ar	0.00038712986901591186	0.00012574442973021868	0.0032096658755514556	-0.00034505626771021234	-0.004970849327251354	-0.0023694637728783434
Ar	-6.787472861832347e-05	-1.9147541260148146e-05	0.0027623128625169926	0.016366177195483524	0.004521288436833935	0.0018208211417648386
2
295400
Ar	0.0002897550511858376	5.0425108195229644e-05	0.0031808271869218025	-0.017898717181384874	-0.009357330540844323	-0.0024194233527392874
Ar	9.883128486883031e-05	2.703946422062541e-05	0.0027856377962582257	0.015333856634331473	0.0042618028705138904	0.002101229035391207
2
295600
Ar	5.81166744836841e-05	-4.868632694301854e-05	0.0031825866431325982	-0.02712923711402781	-0.00987682925272767	0.0027323306555122294
Ar	0.0002122993660501973	6.0044292822210276e-05	0.0027855288495109145	0.006781160338782895	0.0022082711452474373	-0.002096727830886101
2
295800
Ar	-0.00021008840535783038	-0.0001295018378066654	0.0032126596420398003	-0.023794423696661852	-0.0053943870239785635	0.002292337719750411
Ar	0.00022359951091181364	6.541616048272792e-05	0.0027629806032135637	-0.004793940942084455	-0.0012915085597378457	-0.0016418513938228022
2
296000
Ar	-0.0003726695001008475	-0.00014560328696156801	0.0032184642561060278	-0.007190531506543774	0.002309826739461833	-0.0012385509782710546
Ar	0.00012334327255288986	3.635131844203229e-05	0.0027594284412292428	-0.014350803187214838	-0.004234353750277556	0.0009811385114945905
2
296200
Ar	-0.0003444518403956011	-8.832566887853503e-05	0.003193001327031725	0.012242900927156337	0.00854799509849455	-0.003215023864063917
Ar	-3.943264190839311e-05	-1.1873653505504673e-05	0.00277903043607777	-0.01673130053543603	-0.00495558849484448	0.002478715823637761
2
296400
Ar	-0.00015413870170625306	1.0189898236832755e-05	0.003175627947541459	0.02443530877972762	0.010581403104487625	0.0008610438880076731
Ar	-0.0001796551581309745	-5.3716091885050165e-05	0.0027917339678833744	-0.01014976825283248	-0.0031943693775647523	-0.0008926450397479242
2
296600
Ar	0.00011400934375361136	0.00010888778813288135	0.003201490610697028	0.02677323679812922	0.008125305070604614	0.002994194587955292
Ar	-0.00023135803508667822	-7.152732885996261e-05	0.0027691897551513156	0.00041244668814971214	-5.2218093272374315e-05	-0.0024900598255310703
2
296800
Ar	0.00032958953416626757	0.00015614884609573416	0.0032188430114732914	0.014246509436181618	0.0008315691290396958	0.0001318172103605929
Ar	-0.00016971132431269545	-5.308107811876017e-05	0.0027551524360135467	0.011398115357059983	0.0035526970319217496	-5.75046813161466e-05
2
297000
Ar	0.0003743170258672927	0.00012424853709225758	0.003203867136469715	-0.0055163996321538	-0.006833775812105371	-0.002819420219647739
Ar	-2.2332804161867988e-05	-6.602491389496322e-06	0.0027677057383879962	0.016798203104536485	0.005321129624731761	0.002329857759577557
2
297200
Ar	0.00023556765600441372	3.282791806648891e-05	0.0031774599850578674	-0.020752507514918965	-0.010644729937404108	-0.0012751337502400484
Ar	0.0001360612187435522	4.333863266278904e-05	0.002790376993371577	0.013260128092047439	0.004215513888248571	0.0012236698679609398
2
297400
Ar	-1.370420395298559e-05	-7.605896171323221e-05	0.0031910789893129514	-0.027451227865880588	-0.010311635077593041	0.0030693477833477804
Ar	0.00022432257305471677	7.321511258890879e-05	0.002780200808338868	0.003852477514199683	0.001504168812117888	-0.002440459987299837
2
297600
Ar	-0.0002642611970163449	-0.00015274625767005217	0.0032162111938029226	-0.020138660067975447	-0.004190721882982713	0.0012795283872696454
Ar	0.00020426152835722544	6.806377700103315e-05	0.0027604799628623733	-0.007754710921656989	-0.002537262242021982	-0.0010003780271415506
2
297800
Ar	-0.0003790773860050756	-0.00015195256161212116	0.0032119219873783093	-0.001868113846007357	0.004296031352240653	-0.0020452146679497377
Ar	8.192016013443736e-05	2.7297316638957224e-05	0.00276348928088498	-0.015658105694207117	-0.005264367521438512	0.001548153966375144
2
298000
Ar	-0.0003028918327666746	-7.6267685696506e-05	0.003184227993144918	0.016047483399009865	0.010067557493280971	-0.0026601427369298556
Ar	-8.207978759966588e-05	-2.773559040980487e-05	0.0027851600516929425	-0.01556450407620405	-0.005223992100534973	0.0021343604581469944
2
298200
Ar	-8.636454242293906e-05	3.446296937808268e-05	0.0031809415357577746	0.026028616874771062	0.011483761977451065	0.002349294287106051
Ar	-0.0002014361165955149	-6.897145712313728e-05	0.0027873325531521343	-0.007613695420744573	-0.0028215944471793888	-0.0019723730460612546
2
298400
Ar	0.00017928726431817952	0.00013452516995398345	0.003210388356630247	0.024468147394907512	0.007418630584702823	0.002464951091417512
Ar	-0.0002235275263945398	-7.850836220897015e-05	0.002763361447795205	0.003580804793003237	0.001148423628603741	-0.001987263557857587
2
298600
Ar	0.00035623437530012223	0.00016791108861827767	0.0032191659877441044	0.009230392576706943	-0.001079409259818773	-0.0008486530039619985
Ar	-0.00013440389132243316	-4.727478568910052e-05	0.002756154838631176	0.01343639297480843	0.004786646464554019	0.0006679895158378008
2
298800
Ar	0.00034980757338608676	0.00011623484365868699	0.0031965020521043446	-0.010153514456705317	-0.00866087595919237	-0.0031770899038066013
Ar	2.27378586038798e-05	9.096937786446207e-06	0.0027741741956381796	0.016614357029455684	0.005953309437699993	0.002534106037192115
2
299000
Ar	0.00017663558623548978	1.0487143382891551e-05	0.003175476398744457	-0.023097451870363092	-0.01177752633756792	0.00019133674478598767
Ar	0.00016666861684810997	6.0799104825845526e-05	0.002791193175469218	0.010863771591474624	0.0040151109521730476	-0.0001645702566096497
2
299200
Ar	-8.358580453595047e-05	-0.0001046725439670736	0.0031978405359527396	-0.026740017940521506	-0.010130246511162495	0.0029783319189521243
Ar	0.00022753533642658598	8.497521170327148e-05	0.0027730269261946184	0.0007334125396347368	0.0004617499219098993	-0.0023785513391244547
2
299400
Ar	-0.0003075871937519952	-0.00017127066021563222	0.003216917161608397	-0.015854856334447543	-0.002540829467170801	0.000419156831009155
Ar	0.00017761713102923169	6.726510154034892e-05	0.0027580274849759796	-0.010299717549323979	-0.0038329233434668494	-0.00031351954066644955
2
299600
Ar	-0.0003725614509793363	-0.00015084120642972596	0.00320467729030424	0.003278724204775328	0.0063486870837179375	-0.0026047961970397803
Ar	3.888312985068137e-05	1.4936312603356404e-05	0.002767848327255888	-0.016263261150648384	-0.006187281814345365	0.002103540304355198
2
299800
Ar	-0.00025376548510893537	-5.746440272866392e-05	0.003177759912766235	0.019098993056026307	0.011447246677489755	-0.001675239441405215
Ar	-0.00011921202015737929	-4.522584774559977e-05	0.002790166844378714	-0.01373338397693091	-0.005241363926096755	0.0014186690118568347
