2
0
Ar	6.269020704472098e-12	4.0771544048735664e-11	0.0032248049484361278	2.507608281788839e-07	1.6308617619494268e-06	-4.452599391668349e-07
Ar	3.719383585501203e-11	-5.1097616311615815e-12	0.0027427471528931754	1.487753434200481e-06	-2.0439046524646328e-07	1.8692045746781836e-06
2
200
Ar	-1.1270965408116999e-07	6.689584834521734e-08	0.0032247920907960063	-1.8994640244455713e-05	2.9664745769942118e-05	2.2754026891456945e-06
Ar	-1.6905548220157476e-08	3.90974816494308e-08	0.002742692442444159	-1.5463295413011847e-05	1.725950105597584e-05	-1.1650268650205304e-05
2
400
Ar	-2.0375464249096604e-07	3.735634407831223e-07	0.0032248330038726096	-3.760266311085632e-06	1.67833668489954e-05	1.0293387452365975e-05
Ar	-1.2351288567130258e-07	9.35669455692425e-08	0.002742629935153234	-2.2119483259538763e-05	-1.1466710684639923e-05	7.534506639836889e-06
2
600
Ar	-2.7137157124256383e-07	6.483102660627121e-07	0.0032246955953218965	3.1741861613625806e-06	2.4467418795993677e-05	-2.8239310555943942e-05
Ar	-3.225191705315477e-07	1.1479758435126652e-07	0.0027426156878245303	-1.9477188455525476e-06	5.533698842613448e-06	1.1206998851170667e-05
2
800
Ar	-1.7261677531498357e-08	7.674916984215835e-07	0.0032245454160284956	1.9018536259990644e-05	-5.5964418772861875e-06	-2.2032737936182726e-05
Ar	-3.6567737980964523e-07	1.1696141729219111e-07	0.002742845582681671	-6.855036143289294e-06	2.4447806171656912e-05	2.36526304609332e-05
2
1000
Ar	2.0601566208799368e-08	6.112806607975925e-07	0.00322463520511114	-2.2371612399399923e-06	-3.6082722848562234e-05	4.0944787042095904e-05
Ar	-4.466027356802336e-07	1.9118125950671187e-07	0.0027430242502327314	-1.0117651920456163e-05	-1.4774872881385862e-05	-1.9556409446505276e-05
2
1200
Ar	-9.554892378427305e-08	2.0832700404559234e-07	0.0032250581646517877	-2.8766145998390222e-05	-3.992613916791927e-05	3.1686437456308185e-05
Ar	-4.611194696715335e-07	1.6356233347321633e-07	0.002742711097393879	-9.241303611767683e-06	8.120790462841782e-06	-1.265947349540177e-05
2
1400
Ar	-3.118098772027634e-07	-1.64117805088382e-07	0.0032251425390008004	-7.719587777755748e-06	-4.740570858988907e-05	-1.3863542300500166e-05
Ar	-5.688207046787654e-07	1.6042271713640509e-07	0.0027428184276038813	-1.1596665969973568e-06	-1.0729864783510103e-05	-1.2490608775022887e-05
2
1600
Ar	-1.8681066940921436e-07	-5.976206523682494e-07	0.0032250360409483317	2.3216882658779355e-05	-3.945162193112499e-05	-3.1604260075553515e-06
Ar	-4.887326646920281e-07	-1.3551129910072199e-07	0.002742794423225325	3.163129350539002e-05	-3.254494873836125e-05	-2.151912326696126e-05
2
1800
Ar	-1.3968432201272003e-09	-7.475702658247628e-07	0.003224881566417776	2.6313090564931558e-05	1.8520680660131355e-05	-2.1598634668452483e-05
Ar	-3.703703256682386e-09	-3.095063227226801e-07	0.002742810862989238	5.469570803084201e-05	1.4285475984998421e-05	-3.417994310807701e-06
2
2000
Ar	4.5095153150391715e-07	-2.737035649781093e-07	0.0032246446348628208	7.65238865814325e-05	7.086559227730957e-05	-6.635043026435655e-05
Ar	5.691021368972423e-07	-4.436856504505574e-07	0.0027428380957701063	4.9887870473643035e-05	-2.1946996961142015e-05	-1.113953793543363e-07
2
2200
Ar	1.1888205238204191e-06	5.563951882042295e-07	0.0032241552399080455	7.139766645008459e-05	9.271750226112833e-05	-2.719307242562492e-05
Ar	8.104071805417849e-07	-4.022783064623896e-07	0.0027427398032357597	2.2688985611306122e-05	4.687407523364408e-05	-3.85977461820795e-05
2
2400
Ar	1.4921992515605122e-06	1.1302817401658682e-06	0.00322426925748837	-1.2667724659400683e-05	3.374567638799306e-05	7.199389936432462e-05
Ar	7.787735535417532e-07	7.802775497445218e-08	0.002742528444259503	-3.071556476287427e-05	5.223563024891629e-05	-3.841945954369513e-07
2
2600
Ar	1.1117750833357546e-06	1.1131206545225756e-06	0.0032250659784406246	-6.975508638962633e-05	-3.894333502158572e-05	8.095832596136557e-05
Ar	4.0371717757157365e-07	5.906692403708853e-07	0.0027424506540420163	-3.937374533168465e-05	4.538288061337527e-05	1.9445357141396075e-05
2
2800
Ar	1.526856126144934e-07	1.939552664454626e-07	0.0032256814719261867	-0.00012051444555814319	-0.0001144607354115188	3.200313063956896e-05
Ar	-3.108233327377108e-08	8.369071840668234e-07	0.0027426164283548566	-3.7144072377719014e-05	-3.9696539621152295e-06	1.2063376158914922e-05
2
3000
Ar	-1.1065318782795623e-06	-8.586463757490955e-07	0.0032258553814186347	-0.00011694706691577636	-8.09073620490129e-05	-3.94127020443256e-05
Ar	-3.971928775396384e-07	6.515500563175023e-07	0.0027428096069904415	-2.201367989101284e-05	-4.72648300519629e-05	3.53266924708324e-05
2
3200
Ar	-2.0609905873346632e-06	-1.4404110977669853e-06	0.003225013303092298	-4.410366422931846e-05	-3.6953503937060264e-05	-0.00012110328494825913
Ar	-5.168041398910527e-07	1.2071103139617884e-07	0.00274340925007009	1.808933534577244e-05	-3.6637126982072496e-05	5.590355492514567e-05
2
3400
Ar	-2.0426139386837857e-06	-1.4136353533071237e-06	0.0032237576257520637	4.4191505840535024e-05	4.032402458176172e-05	-0.000101675362992211
Ar	-1.9578708213274154e-07	-2.2927333283812645e-07	0.0027436836165585705	1.8562807217689884e-05	-2.3634617513038402e-05	-4.042352308780974e-06
2
3600
Ar	-8.739344369105197e-07	-6.659670848123836e-07	0.0032234079814922306	0.00016343638885365583	7.070952777295777e-05	1.9946877959092202e-05
Ar	3.0697054795150436e-08	-5.665272540068222e-07	0.0027432146312531217	1.866784156898948e-05	-4.3852341375723296e-05	-0.00010044452056963837
2
3800
Ar	8.630797841658352e-07	2.9655275707432363e-08	0.0032244532430777866	0.0001410016675054147	6.683590183587728e-05	0.0001474452457050469
Ar	1.3762910145346604e-07	-4.0893085302714467e-07	0.002742156970062701	5.110770904789114e-06	5.88074265662209e-05	-0.00010336673084060777
2
4000
Ar	1.8837940164521913e-06	7.020666458761554e-07	0.0032256502309091478	2.520048600779555e-05	3.874258394918952e-05	6.816597945754129e-05
Ar	1.1934725623898205e-07	2.675770207306682e-07	0.0027412541834657216	6.225506372298146e-06	7.008895101310243e-05	-5.661622385900845e-05
2
4200
Ar	1.5473337120682201e-06	8.113346875596118e-07	0.003225559293732217	-8.552282449079745e-05	3.818732407287684e-06	-6.917230502654707e-05
Ar	2.1476917848455128e-07	7.50105514792105e-07	0.00274142186414918	3.068238010908462e-05	3.652033964024677e-05	0.0001078628861379533
2
4400
Ar	3.764057229026499e-07	6.155858635645326e-07	0.0032245451406155276	-0.00012255103739113884	-2.955475737401579e-05	-0.00012474198519387192
Ar	5.395839761495084e-07	9.575919094141685e-07	0.002742692815182806	1.80476705713337e-05	-1.7629793080575282e-06	0.00016088220761354823
2
4600
Ar	-7.897682371769625e-07	5.511454229414475e-08	0.003223601496588851	-0.00010350639541191173	-6.276504783349152e-05	-4.521252143026873e-05
Ar	7.863572322188847e-07	6.767609623530983e-07	0.0027438827478377015	2.2236742223161138e-05	-6.357494890154158e-05	6.265529342285459e-05
2
4800
Ar	-1.5906844323305668e-06	-6.684579070283089e-07	0.003223648146168612	-5.355824551657812e-05	-8.117985892790844e-05	5.352867161123541e-05
Ar	5.843740187881717e-07	-1.0499529479224679e-07	0.0027440682380637468	-5.3469528665137484e-05	-0.00011648190833843683	-4.422199697318421e-05
2
5000
Ar	-1.7507676300517092e-06	-1.0694485163140058e-06	0.003224555038087341	2.1038992818618324e-05	1.493424793833109e-05	0.00010911245278130844
Ar	1.9742346923736618e-08	-1.3178921336827925e-06	0.002743138732767596	-8.10750034486146e-05	-0.00010473597658913441	-0.0001409625179590501
2
5200
Ar	-1.1876771154702856e-06	-8.850785419613839e-07	0.0032256516282436233	9.181232860476342e-05	3.996100501634815e-05	8.105563801529782e-05
Ar	-8.792256156170968e-07	-2.0038086233227477e-06	0.0027418713249921	-7.696420434372969e-05	-1.610395649047057e-05	-0.00012762147117749526
2
5400
Ar	-1.7742835829049002e-07	-4.855565254803621e-07	0.003225849574971695	0.00010996903739438403	5.663412501710962e-05	-3.766951953023692e-05
Ar	-1.3700828676513372e-06	-1.7058025799069419e-06	0.0027411716560895804	-4.762593257302848e-06	9.402336835558061e-05	-6.837211018060447e-06
2
5600
Ar	9.236596972692128e-07	1.836453054204571e-07	0.003225236664280534	0.00010155557707783781	6.338123121464436e-05	-0.00011081879795331904
Ar	-1.0199671863027196e-06	-5.133522350474237e-07	0.0027417385893525425	4.5326936897592784e-05	0.00014550642331912482	0.00010926339211705814
2
5800
Ar	1.7006260667791943e-06	9.524089867247971e-07	0.0032239629553510096	4.425157491900075e-05	7.206232195253976e-05	-0.00013223157110368996
Ar	-5.518992969933485e-07	5.856569779653115e-07	0.0027430080809381554	5.5711254208804366e-05	7.390349128317362e-05	0.00013539380168800448
2
6000
Ar	1.8197713146457917e-06	1.2757409949744989e-06	0.0032233985321269906	-1.3441333969424022e-05	-1.6409148767365636e-05	9.189955606199041e-06
Ar	3.2949416906505293e-07	1.0959923028288537e-06	0.002743861032593423	0.0001119802930381838	8.393739131302693e-06	5.070986513312499e-05
2
6200
Ar	1.2328965715772682e-06	8.219568923617378e-07	0.0032239949767146835	-8.480915487209814e-05	-6.175433328661772e-05	0.00010658152148265079
Ar	1.109080245429722e-06	6.355132672228893e-07	0.002743686575828112	4.401420390796783e-05	-7.859432458707561e-05	-7.783808826287387e-05
2
6400
Ar	-1.7885164588019363e-07	4.2679935217128245e-08	0.0032255093371788765	-0.0001597871255388224	-8.43145341822796e-05	0.00015753757978096238
Ar	1.2236872143411637e-06	-1.3689650849809754e-07	0.0027424317669930702	4.865347306679821e-06	-7.445630229163806e-05	-0.00011674415377968399
2
6600
Ar	-1.6468068839594418e-06	-6.039081303279017e-07	0.0032264369642824873	-0.00013012317746542698	-6.355781825835355e-05	1.2561630991940702e-05
Ar	1.0114945074361037e-06	-7.72473703315305e-07	0.0027415718213562573	-4.0350556987347254e-05	-6.412711144419327e-05	-4.450316733178269e-05
2
6800
Ar	-2.406520056798601e-06	-9.178938200427797e-07	0.00322595180110663	-2.6286010573967062e-06	-1.4786619263842583e-05	-0.00013586596892045997
Ar	5.930809542913291e-07	-1.2230023420806335e-06	0.002741785803993268	-6.537136125269006e-05	-4.547063105318101e-06	8.079862752436355e-05
2
7000
Ar	-2.02152868213935e-06	-6.709008188409744e-07	0.0032244893370219282	7.568393871214206e-05	6.610937796361627e-05	-0.0001489304911030604
Ar	-2.877307210930894e-07	-9.607022180437573e-07	0.0027428893097699194	-0.00011174597595967341	6.003163087382117e-05	0.0001364307267844648
2
7200
Ar	-9.295220858307034e-07	2.8706488412177423e-07	0.003223439554000642	0.00014292159365737308	0.00011113000555055587	-5.1707344863804754e-05
Ar	-1.4271677212963493e-06	-1.1366768805350924e-07	0.002744102222902918	-9.05080471500077e-05	0.00010308706047210761	9.687500669799063e-05
2
7400
Ar	7.354790798696504e-07	1.1441202441479086e-06	0.0032236199634967226	0.00017935895205173455	5.771461914129098e-05	9.906488054507114e-05
Ar	-1.8826783948042118e-06	8.582032393877805e-07	0.0027443640388451966	-3.2842155637963012e-06	9.004725084880062e-05	-4.5218995999773636e-05
2
7600
Ar	2.0076125310392167e-06	1.2938932004712147e-06	0.0032251537270989636	8.72347602677845e-05	-1.4436187708299029e-05	0.0001667364934594469
Ar	-1.4150848052924507e-06	1.540498069612504e-06	0.0027435567387919736	9.441448751928497e-05	2.542545070626158e-05	-0.00012456556984136055
2
7800
Ar	2.3152788634673675e-06	7.336238556179632e-07	0.0032265032083972807	-2.7622426588452812e-05	-0.00010246764882163781	9.284673042904815e-05
Ar	-2.612183426670351e-07	1.4188042512529585e-06	0.0027421536404419965	0.0001475075831402685	-3.093954333514002e-05	-0.00013251740685812813
2
8000
Ar	1.4833616594330223e-06	-4.1201351608998094e-07	0.003226487093659595	-0.00011054515957650307	-0.00011936093744472406	-9.275113148330332e-05
Ar	1.134975583235098e-06	8.746198346475807e-07	0.0027413361718278116	0.00011328564307792722	-8.45152295927731e-05	-2.3735842875935845e-05
2
8200
Ar	1.0802334309325261e-07	-1.3197795939899401e-06	0.0032250484004291463	-0.00016307451331499362	-7.2586748900774e-05	-0.0002100858606410696
Ar	2.0133593514038442e-06	1.6827503728141854e-07	0.002741694080957608	3.504219231130941e-05	-6.259333017681521e-05	8.222954147656958e-05
2
8400
Ar	-1.4349733402289486e-06	-1.666665215493868e-06	0.0032228526363878695	-0.00013888686460344937	2.0508503079078905e-05	-0.00018442631492167314
Ar	1.989685318803453e-06	-1.481517146039101e-07	0.0027427004993190503	-2.937278161085417e-05	-1.671443509699204e-05	9.482341909415822e-05
2
8600
Ar	-2.4942601396850005e-06	-1.0700822181771546e-06	0.0032220492740962703	-4.887356256739024e-05	8.936130178163713e-05	3.315067723580258e-05
Ar	8.914731164230125e-07	-2.564326591649877e-07	0.0027432209096103525	-0.00016110369655790048	-1.3996194473567896e-06	2.2231058687758478e-05
2
8800
Ar	-2.5826166117951084e-06	-1.7456075660226773e-07	0.0032236174751735466	5.27347229478851e-05	9.93458385961892e-05	0.0002671979685038854
Ar	-7.123786876198996e-07	-1.7085564010574152e-07	0.0027431505727858433	-0.00014300532661976604	6.956057183040167e-06	-3.636523594228217e-05
2
9000
Ar	-1.5184924734898752e-06	7.843259049360455e-07	0.003226544345540817	0.00016791762499406484	6.162821163174574e-05	0.0002716820906503162
Ar	-1.9061002815083734e-06	4.965565613669352e-08	0.002742657230443861	-8.739368516738859e-05	1.8811170411117106e-05	-5.36274992251123e-05
2
9200
Ar	4.447728656277382e-08	1.2109383782216548e-06	0.0032281079226121243	0.00015349590628145084	-2.032510877984834e-06	1.1979536884887075e-06
Ar	-2.232883281806096e-06	3.1396427474418624e-07	0.002742316207787721	1.946462944005354e-05	2.4431529804007984e-05	-1.0509494602444827e-05
2
9400
Ar	1.4150491014333263e-06	7.388083308601756e-07	0.0032268139751237893	0.00011335167082447127	-8.251329063062756e-05	-0.00023343499813321839
Ar	-1.4656201887872716e-06	7.096484510058677e-07	0.002742584102445938	0.0001509701126948688	2.5573972802396638e-05	6.845127082478131e-05
2
9600
Ar	2.1993114503600484e-06	-2.3696418988011935e-07	0.0032240102844434664	3.480370269465781e-05	-9.46002366242645e-05	-0.0002736579625544918
Ar	2.3071828851858454e-07	7.117117564428967e-07	0.0027431774135118926	0.00017933066235059205	-2.6058063335259275e-05	3.8663892587803324e-05
2
9800
Ar	1.980176168114945e-06	-9.024703605859152e-07	0.0032223768516777317	-7.832883655295839e-05	-2.400139926288248e-05	-2.5525978905397992e-05
Ar	1.6753401226392354e-06	2.697777246472891e-07	0.0027435412734724556	8.881698353389178e-05	-8.215359751885161e-05	7.339851132341847e-06
2
10000
Ar	7.347408341611792e-07	-1.0619679274867826e-06	0.0032232808865273006	-0.00016129029365781572	1.913106583978575e-06	0.00019260935749468877
Ar	2.020365212619052e-06	-5.129962161291306e-07	0.002743072319725971	-3.445694078234109e-05	-5.4612219573648006e-05	-9.746328139689548e-05
2
10200
Ar	-1.0783414522371863e-06	-9.446787473664329e-07	0.003225448513879096	-0.00019017950451522672	3.271536308131098e-05	0.00021458683851486953
Ar	1.1279233622538861e-06	-8.443844304580607e-07	0.002742310948420241	-0.0001268938495076592	2.8504982681568207e-06	-4.859732761102359e-05
2
10400
Ar	-2.5383278023245146e-06	-5.121600014763306e-07	0.0032271423386243813	-9.007826329280555e-05	6.189869476584384e-05	8.149954952584207e-05
Ar	-2.5817645082888213e-07	-7.964950413188882e-07	0.0027423174046266696	-0.00012171942357240612	6.525026003381288e-06	3.929421175227148e-05
2
10600
Ar	-3.0494868426001556e-06	2.619712603478029e-07	0.0032268435305659172	1.2193361017292112e-05	8.562457064464469e-05	-0.00010970996659975163
Ar	-1.3111074024374476e-06	-6.741286548495102e-07	0.0027429417054380856	-8.572920447211939e-05	2.4893245697001522e-05	6.19954096292718e-05
2
10800
Ar	-2.2812965284318756e-06	1.2379285301187377e-06	0.0032250531305301868	0.00015681375357567384	6.434986104874313e-05	-0.00019669423802573337
Ar	-1.986628126551635e-06	-2.969593048212141e-07	0.0027434766193444853	-4.4678379322316594e-05	5.038797808023585e-05	4.2394175098577565e-05
2
11000
Ar	-1.6680806897367216e-07	1.5622564174521195e-06	0.003223297878029563	0.00026215488161104064	-1.4017539929685253e-05	-0.00013145843362950458
Ar	-1.960926160272224e-06	2.745656531735908e-07	0.002743485418356523	6.602439053365315e-05	7.098617118982695e-05	-4.4898873189568404e-05
2
11200
Ar	2.409752013338263e-06	1.0867042761576358e-06	0.00322294529758593	0.00022371023928083027	-7.179707470536848e-05	4.844654678864106e-05
Ar	-1.0572536846873818e-06	7.312123302938405e-07	0.0027425249807787964	0.00010267678075203357	2.5088353238865354e-05	-0.00013173723294282013
2
11400
Ar	4.029902402182494e-06	2.440101221596138e-07	0.0032238023590027837	8.282162262577022e-05	-0.00010003936835055983	0.00011437988111798513
Ar	6.308198758513164e-08	1.003115942848476e-06	0.0027415083335993067	0.00013848133722660217	-1.0193768659910889e-05	-7.343177357242435e-05
2
11600
Ar	3.7519067833466166e-06	-7.58967570614684e-07	0.003224917640266364	-0.00011016565413300419	-8.276215838193966e-05	7.988074143714818e-05
Ar	1.438024955000599e-06	7.72881841181689e-07	0.002741473570724953	0.0001313173602770158	-1.8651450353323605e-05	5.246125276502379e-05
2
11800
Ar	1.7639798064372172e-06	-1.3296867469187094e-06	0.003225434440499797	-0.00026977669243408387	-7.839873936271875e-06	1.4887057256295288e-05
Ar	2.400882538478987e-06	4.524624610217535e-07	0.0027423024451404985	4.926566193596746e-05	-6.140751994086282e-05	0.00013043605478434259
2
12000
Ar	-1.2114393396703423e-06	-1.0325041827126476e-06	0.003225557148154549	-0.0002972239789209367	5.300720991161494e-05	1.665064382389236e-06
Ar	2.5590402513662803e-06	-2.577074338281844e-07	0.0027436140490719385	-1.9608745902818907e-05	-5.037477096129309e-05	0.00011024971260641579
2
12200
Ar	-3.8125510974081196e-06	-4.192450597055023e-07	0.003225129629758785	-0.00019323261170880286	6.127760187842331e-05	-5.428470811573352e-05
Ar	1.6554869382546923e-06	-6.208569647041129e-07	0.002744542044970713	-0.00013438117702716998	-1.4332615311206415e-05	3.802842646858701e-05
2
12400
Ar	-4.8749696672825694e-06	4.926574536442891e-07	0.00322471422694598	-3.5448701273459485e-06	0.00010818125873157393	-2.0939157279074205e-05
Ar	1.0875960270466941e-07	-5.874240796758918e-07	0.002744485906770914	-0.00015437393785805597	3.721949158497388e-05	-7.115639531663833e-05
2
12600
Ar	-3.846762270712325e-06	1.199880722985255e-06	0.0032248600995438215	0.00021547892300643933	4.9583422856491456e-05	3.8273488548376475e-05
Ar	-1.4625397391798687e-06	1.5598026465142174e-08	0.0027433629570978173	-0.00013668123335727048	6.977468046125517e-05	-0.0001380118358452413
2
12800
Ar	-1.0602439371645584e-06	1.3434209148705997e-06	0.003225336011967983	0.00033924777410396467	-2.1752381864527812e-06	3.640084426592039e-05
Ar	-2.422754466457709e-06	5.761175847832872e-07	0.002742109222485593	-4.717746938013293e-05	2.426868899030377e-05	-9.717139444872346e-05
2
13000
Ar	2.2611908513333185e-06	7.751001090796591e-07	0.0032252571374479302	0.0003141815466935878	-8.542379931118703e-05	-3.880219406184266e-05
Ar	-2.4397600594806577e-06	7.352055606897405e-07	0.0027415169201703716	6.595596759325366e-05	-1.2763096732574665e-05	-9.407321766684696e-06
2
13200
Ar	4.581196305631402e-06	-2.1771138259627521e-07	0.0032245052954742877	0.00013158397479799068	-8.916440984667993e-05	-0.00011523278220738976
Ar	-1.2588803314256574e-06	6.552335583515743e-07	0.0027415692665802016	0.0001594313842498286	-1.6109586942140365e-05	1.602571852008606e-05
2
13400
Ar	4.782698156582066e-06	-1.1852763166559971e-06	0.003223553415052197	-9.888800336164587e-05	-9.41577990993093e-05	-5.39064201732587e-05
Ar	5.682349713389877e-07	2.7099801942476404e-07	0.002742052596497293	0.0001748021266650923	-3.855906574401243e-05	5.55912190999349e-05
2
13600
Ar	2.8249683046278207e-06	-1.751871836333393e-06	0.0032235554127131956	-0.000286776278774013	6.732051298574068e-06	4.3150204260081056e-05
Ar	2.157082450865904e-06	-3.4413786325595333e-07	0.002742573475578953	0.00011917878920697815	-8.199940809903991e-05	5.974290995361044e-05
2
13800
Ar	-6.1998591974022e-07	-1.2573660020808766e-06	0.003224548624206722	-0.00039528799493735123	9.795708249073337e-05	0.0001368616418964148
Ar	2.7955914439670384e-06	-9.955948536801218e-07	0.002743150581208016	-2.438030515659145e-06	-4.209148369244752e-05	5.122255283983448e-05
2
14000
Ar	-4.258933927370809e-06	-9.236503584009342e-08	0.003226085773177399	-0.00030809479545047195	0.00012345760323258492	0.00015744317995896752
Ar	1.6701333589833902e-06	-1.0015214905825127e-06	0.002743441220210312	-0.00020373623915120377	2.1524969750679724e-05	4.183764227259347e-05
2
14200
Ar	-6.3109119219946474e-06	8.207397030002906e-07	0.0032269361739131535	-6.358650964978067e-05	4.8509670345493896e-05	-1.909692419938603e-06
Ar	-5.075844533187789e-07	-5.073580330886311e-07	0.0027437853510514664	-0.00023338502834828462	6.697251923520374e-05	4.868171493553087e-05
2
14400
Ar	-5.507498873289564e-06	1.2501062814764123e-06	0.0032261657372891165	0.00023872155519651843	1.5828473117976547e-05	-0.0001544837458560276
Ar	-2.209858074580481e-06	3.278252390938617e-07	0.0027439539630433555	-0.00011034275469765154	0.00010570277944582562	-4.312565822162009e-05
2
14600
Ar	-1.6664730738461716e-06	1.0322965076006268e-06	0.0032245373809160743	0.0004887564685647015	-7.554295315180472e-05	-0.00014606510359093769
Ar	-2.684987800581287e-06	1.2327402567005708e-06	0.002743177811830111	1.702506274609748e-05	5.4005429349437204e-05	-9.737879436942998e-05
2
14800
Ar	3.3397684122486575e-06	-1.1313480536752341e-07	0.0032236809718581634	0.0004695179123824312	-0.00012888112883810632	-1.3867900164833318e-05
Ar	-1.6919415180933181e-06	1.4067186065544074e-06	0.0027422731556533135	0.00016413482840953435	-1.536367733599524e-05	-8.567752204422016e-05
2
15000
Ar	6.92267438377661e-06	-1.101385983797499e-06	0.0032240036524559933	0.00017991880056662663	-6.876625260207154e-05	7.210217215192087e-05
Ar	1.9881476591457246e-07	7.398543301174588e-07	0.002741746357821452	0.00020468811744527027	-0.00013238630644219583	-3.3141283471937784e-05
2
15200
Ar	7.12079968123348e-06	-1.4883917549462918e-06	0.003224783308224662	-0.0001501162826063615	-1.1061684770604345e-05	7.89213592001002e-05
Ar	2.052114189843425e-06	-7.1121696129186e-07	0.0027419497132946152	0.00014147805493494372	-0.00012981063970859892	7.259379945623847e-05
2
15400
Ar	4.073339181315539e-06	-1.0466509643625386e-06	0.0032254619944247463	-0.0004325618848922164	8.417699187193036e-05	3.2510495578002706e-05
Ar	3.1551084860199177e-06	-1.79196354037637e-06	0.0027428456173739	6.896920484822251e-05	-6.656108047230796e-05	0.00010748936481514038
2
15600
Ar	-8.231257755580752e-07	2.481571131070708e-07	0.003225321038831906	-0.00048584334575832303	0.00015948321355928606	-2.8439544999582143e-05
Ar	3.0080506140524837e-06	-2.0425589409790115e-06	0.0027436646017066943	-8.915693517371109e-05	2.0687002252827682e-05	4.983601570572394e-05
2
15800
Ar	-5.0373840826726804e-06	1.8625213359044505e-06	0.0032249800374305874	-0.0003229075453580624	0.0001508240740988038	-3.8478729501619383e-05
Ar	1.254811652695639e-06	-1.520682584286883e-06	0.002743951456327601	-0.0002556216251876243	8.493422855155386e-05	2.812852261977483e-06
2
16000
Ar	-6.773504336973141e-06	3.135041912953479e-06	0.003224689599007647	-6.734997938047575e-06	9.912857292809161e-05	-6.236495549251046e-06
Ar	-1.3941874003332896e-06	-2.65983141837365e-07	0.0027437330532714584	-0.00023791871292369696	0.00015959721389955343	-5.232843210156922e-05
2
16200
Ar	-5.250704849609591e-06	3.3011593069951708e-06	0.0032248436821367484	0.0002890737993628791	-8.304567339941829e-05	2.0513491008010958e-05
Ar	-3.1444757592822174e-06	1.1020700451544057e-06	0.002743167661546099	-8.135605243974523e-05	0.00010486826588928073	-5.170944493170748e-05
2
16400
Ar	-1.2201922518828628e-06	2.010732457491687e-06	0.0032247538708826285	0.00048310771981013807	-0.0002060711719493461	-1.0478783410303126e-05
Ar	-3.2183087680942297e-06	1.8383064645818667e-06	0.0027426413736091173	3.606879908100264e-05	2.6490509621810056e-05	-4.3121127458159176e-05
2
16600
Ar	3.864488645301656e-06	-1.68873270355329e-07	0.003224574471833421	0.0004945726951681091	-0.00021881148631770154	-1.973284648266594e-05
Ar	-2.0939737864350854e-06	1.644033546916506e-06	0.0027425870563429562	0.00020513996020415484	-8.012512854450379e-05	1.0607260187105036e-05
2
16800
Ar	7.640576098188793e-06	-2.292718395940608e-06	0.0032243089462364164	0.00024390538510545804	-0.0001983738947631333	-2.268658044366576e-05
Ar	3.563972241538651e-07	6.547361567971892e-07	0.002742852190535795	0.00025185275816748235	-0.00011934571055182128	1.8003694544696936e-05
2
17000
Ar	8.104158639586103e-06	-3.6942481486575905e-06	0.0032244895738420265	-0.00014406225789457893	-8.15324142167114e-05	1.9398640242698165e-05
Ar	2.7633079451375287e-06	-6.647492825086666e-07	0.002743104884614798	0.00021263090156795796	-0.0001459410229973628	1.9198645671758475e-05
2
17200
Ar	4.755923340828646e-06	-3.7419533337052692e-06	0.003224778765519805	-0.0004893932746020801	8.55546858158203e-05	3.5659987005552096e-05
Ar	4.020835989105919e-06	-1.8206515908484229e-06	0.00274295516259075	1.8411840375107804e-05	-8.186282853115868e-05	-2.752414094020012e-05
2
17400
Ar	-9.293089514037214e-07	-2.1275423874002464e-06	0.003225229280578987	-0.0006121150562305558	0.00022092709625082745	3.9117003625185565e-05
Ar	3.1681929834889913e-06	-2.251620524668605e-06	0.0027427153166740374	-0.00019626745506493736	-6.321652912030249e-06	-1.7636257378426347e-05
2
17600
Ar	-6.24422722740948e-06	4.548080074870966e-07	0.0032253042594847796	-0.0004333572686668194	0.0002592884989058879	-1.6224218607062898e-05
Ar	4.850029023183727e-07	-1.700240354792052e-06	0.0027428284559564285	-0.00031124071792397885	0.0001127719280248682	2.793727313846483e-05
2
17800
Ar	-8.861948471957057e-06	2.745854848264107e-06	0.0032248862414570876	-6.887663332938909e-05	0.00016852695310874623	-4.823226354930265e-05
Ar	-2.6435374369703428e-06	-3.81392644592897e-07	0.0027431471113581267	-0.0002675869689008062	0.00016712655822807542	1.2247692593475047e-05
2
18000
Ar	-7.407917925101471e-06	3.7952666712245715e-06	0.0032244528851035513	0.0003546793413143539	4.7257037279174883e-07	-2.6987862597760328e-05
Ar	-4.47427299202445e-06	1.1072916446366545e-06	0.002743016963716001	-7.940863117498105e-05	0.0001428107524772662	-3.0615661590908465e-05
2
18200
Ar	-2.348017447710352e-06	2.854153329242944e-06	0.003224385806049847	0.0006279793852218207	-0.000174180068553334	1.8673933439255407e-05
Ar	-4.120378822351979e-06	2.068649862323563e-06	0.002742571446664883	0.0001372015773449676	2.9724823255016538e-05	-4.5205618711426905e-05
2
18400
Ar	3.731363053396938e-06	4.5141903767163355e-07	0.0032244689190789274	0.0005586473649296683	-0.0002669998608397373	-5.645197491534146e-06
Ar	-2.037903833979598e-06	1.7909594400727156e-06	0.0027421243193051803	0.0002748097518796683	-7.203178193286644e-05	-4.133197318828828e-05
2
18600
Ar	8.023246315844406e-06	-2.104730622909888e-06	0.003224309241942845	0.0002514634505256367	-0.00022077687077191345	-2.5871270402870217e-05
Ar	1.0191658848572533e-06	8.937609334244195e-07	0.0027417737888989777	0.0003376960982435632	-9.093788792607795e-05	-9.23361289007138e-06
2
18800
Ar	8.497016284728821e-06	-3.349706433352647e-06	0.0032243657821503786	-0.0001768827072483114	-2.0992534272875403e-05	3.928037697259035e-05
Ar	3.8614594477575754e-06	-8.818736390551438e-08	0.002741702188750739	0.00021189454114761046	-8.668861847304994e-05	2.9449852942376764e-05
2
19000
Ar	4.841256915526215e-06	-2.7909808019191766e-06	0.0032245764429306664	-0.000517840855794408	0.00010611212656983407	-4.667116905803411e-06
Ar	4.778581960987057e-06	-6.710899516384969e-07	0.0027422321351885937	-5.264577057355292e-06	-3.605320330961306e-05	7.312834551596662e-05
2
19200
Ar	-9.988822103508014e-07	-1.2461314392830323e-06	0.0032246642485858697	-0.0005895789150639624	0.00017919275495446087	2.2447718107673108e-05
Ar	3.7072705117461813e-06	-8.35762998517438e-07	0.002743100794615953	-0.0001905714732072891	3.9005518834664525e-05	7.853633879720609e-05
2
19400
Ar	-6.244843582373508e-06	7.230453115900393e-07	0.0032251069641994414	-0.00040853990090012704	0.00018478341900546365	7.091347939917683e-05
Ar	1.162351352696128e-06	-4.852660648751207e-07	0.0027437241612036805	-0.0003154819878073338	3.967054092196252e-05	4.9308390578515564e-05
2
19600
Ar	-8.703103960284372e-06	2.0649032920248553e-06	0.003225544761325407	-3.9977576929751355e-05	9.82737181003993e-05	-5.520080757774116e-06
Ar	-1.8286143400925848e-06	-1.1023439885417064e-07	0.0027440266340781456	-0.0002754220007550622	4.879775577689175e-05	-7.994029447888147e-07
2
19800
Ar	-6.879281534194355e-06	2.3428283814121838e-06	0.003225034404480161	0.00039819579175491397	-4.017873368601633e-05	-9.249290821612373e-05
Ar	-3.918775666704328e-06	1.825428529648028e-07	0.0027435719602821483	-0.00012762708178320115	3.1348430537424666e-05	-6.324879982262103e-05
2
20000
Ar	-1.6752613604583186e-06	1.3824855274664308e-06	0.0032241472305416102	0.0005902050206536828	-0.00014015592287348308	-7.54802444917632e-05
Ar	-4.2597559567007615e-06	4.682311231590841e-07	0.0027427218110596123	6.133714180828884e-05	2.717678506895113e-05	-8.796870192366269e-05
2
20200
Ar	4.183218697858891e-06	-4.5101372225319314e-07	0.0032239230023781555	0.0005337069253051814	-0.00022443311422368721	1.398454641909785e-05
Ar	-2.4258938975092685e-06	7.873425740545002e-07	0.002741748492522016	0.00029181742047929514	2.517572140106926e-05	-8.85954562715874e-05
2
20400
Ar	8.345735880676882e-06	-2.6727965230105933e-06	0.003224299843195577	0.00025295930807965464	-0.00017434106787608234	3.155472431496175e-05
Ar	8.987381577909446e-07	7.682401507039825e-07	0.002741257026359688	0.00033580294554238946	-2.233418938362002e-05	-1.2878728542227424e-05
2
20600
Ar	8.641734696526064e-06	-3.4943023173371682e-06	0.0032244561469577365	-0.0002074647411212631	1.7112509934086224e-05	1.9237396958469834e-05
Ar	3.5899937309613344e-06	4.835772189040444e-07	0.0027416859926594913	0.00018806002406617132	-2.827700968795648e-05	9.103662602832685e-05
2
20800
Ar	4.885406142586161e-06	-2.5510206440889623e-06	0.0032249230997350464	-0.0005058651949774288	0.0001416681077954134	7.876169011723135e-05
Ar	4.533414260032899e-06	1.5642775273826886e-08	0.0027426155199583115	-1.0233588957784782e-05	-4.441334707274614e-05	9.617573738538189e-05
2
21000
Ar	-1.0487815649207492e-06	-7.739120531661809e-07	0.003225671940652175	-0.0006295605466445191	0.00019796198018365535	6.083131414255785e-05
Ar	3.4461463174954216e-06	-3.625166430459245e-07	0.0027435497877669117	-0.00020118374268226306	-9.047462679714798e-06	9.292751699457218e-05
2
21200
Ar	-6.6902226110835715e-06	1.2794226447454097e-06	0.0032260074476087516	-0.0004436660378441429	0.00018056808836865396	1.3083763286917949e-05
Ar	8.778886092977478e-07	-4.327581379697861e-07	0.002744375587391605	-0.0002924236264837386	-1.556485124349939e-05	4.752653079151152e-05
2
21400
Ar	-9.357962647127937e-06	2.719463408711069e-06	0.003226004369409605	-5.559789579178056e-05	7.585715379549586e-05	-3.409729454048712e-05
Ar	-1.933552933161442e-06	-3.163378314543922e-07	0.002744476600733678	-0.00024807468511494577	3.0816570048309654e-05	-5.9489636928833825e-05
2
21600
Ar	-7.601667840859959e-06	2.7146312749396886e-06	0.003225495246936186	0.00040112214139881145	-7.375909309006259e-05	-9.994822268556905e-05
Ar	-3.923698188165176e-06	1.0405930207736208e-08	0.002743628272522997	-0.00010743192606057136	3.188503188798927e-05	-0.00011778642906923443
2
21800
Ar	-2.033034563495767e-06	1.1940672940624976e-06	0.0032245148598154215	0.0006944341821363083	-0.00018823125215855282	-0.00010660067375885821
Ar	-3.898642111981629e-06	5.990624134970698e-07	0.0027423357487023274	0.00012877843245828353	5.7297755111546706e-05	-0.00014433739769234655
2
22000
Ar	4.582837116476045e-06	-7.099811353386986e-07	0.0032237357027537594	0.0005832476020882459	-0.0002037702345242215	-4.941975963978015e-05
Ar	-1.7003394394987451e-06	1.0558134494626722e-06	0.0027411681626476093	0.00029813547658631885	3.154375914289749e-05	-5.8770536724618087e-05
2
22200
Ar	9.084635313509452e-06	-2.5507063178934804e-06	0.0032235605520059634	0.0002685413935510661	-0.0001556022894461795	4.163753664301563e-05
Ar	1.3535334651037372e-06	1.1583923143284413e-06	0.002741001230049772	0.0002928625416077371	-2.500094963083714e-05	1.8695176088963814e-05
2
22400
Ar	9.344770367195495e-06	-3.5050725828306627e-06	0.0032240190376453203	-0.00018610573072918866	-4.243295197194081e-05	5.179539197059749e-05
Ar	3.7052824969095096e-06	4.1555046720112775e-07	0.0027417820135200864	0.00015268478352398448	-0.00011133622679317654	9.476745315749242e-05
2
22600
Ar	5.564184597044193e-06	-3.141609817363956e-06	0.0032247350453202643	-0.0005483232211284533	0.00012557067254218268	7.510563724474443e-05
Ar	4.2888162226994655e-06	-6.889894748486564e-07	0.0027428630317596265	-2.51824200142191e-05	-0.00010719216383857702	0.00012412190170396688
2
22800
Ar	-8.312744320959794e-07	-1.313571402249307e-06	0.003225631098046005	-0.0006660889767787914	0.00023826336263995616	8.861914234936015e-05
Ar	3.242265359829911e-06	-1.4065229060739655e-06	0.0027440571073219454	-0.00017895703172410925	-6.274488590958887e-05	8.705356174118415e-05
2
23000
Ar	-6.863537488191271e-06	1.393476955712499e-06	0.0032261140973694293	-0.000472624529613918	0.00026581132536059894	1.1981276846482928e-06
Ar	7.637653154004669e-07	-1.75817682318877e-06	0.0027445164155907153	-0.0002914082686258011	4.841561704734395e-06	-1.2784403590178225e-06
2
23200
Ar	-9.49713902223335e-06	3.50674492951052e-06	0.003225617484888722	-3.611826492828685e-05	0.00014952057700744594	-6.93510825396483e-05
Ar	-1.9009151177856374e-06	-1.6037687869107e-06	0.002744440027113362	-0.00022501094097047142	6.903339038250157e-05	-2.6883023946342152e-05
2
23400
Ar	-7.4738628359849465e-06	4.205275814005216e-06	0.003224716764311727	0.00042912033221759513	-1.8241861982579238e-05	-8.627243511013727e-05
Ar	-3.743438531663599e-06	-3.762817607513808e-07	0.002743562466319224	-0.00012245531769781529	0.0001552077205071358	-0.0001365030138647943
2
23600
Ar	-1.68500536061479e-06	3.01275230876075e-06	0.003223925079500761	0.0006763469243258313	-0.00019036471483240304	-6.0963974939378997e-05
Ar	-3.7878561717167264e-06	1.17087914602901e-06	0.002742009451794541	0.00010114621624599303	0.00015736591189704528	-0.00016925586124154064
2
23800
Ar	5.453723774473746e-06	5.868784037637409e-07	0.0032236811980623356	0.0006718068058875812	-0.00027362684007155395	2.1899604781292522e-05
Ar	-1.9944991151332226e-06	2.3798773061446714e-06	0.002740697128644539	0.00024251261480656784	7.008269947162436e-05	-8.21263573151344e-05
2
24000
Ar	1.0368418239397572e-05	-2.1706969926032957e-06	0.0032240457620437884	0.00025739065526627383	-0.00026075683266097414	3.1591266309308355e-05
Ar	9.240789904318485e-07	2.503184001076905e-06	0.0027406021481081056	0.00030464188292377985	-3.8118842137482466e-05	4.5877125279474614e-05
2
24200
Ar	1.0222110831833499e-05	-4.107510707181071e-06	0.0032244901038144735	-0.00028107686892118414	-0.00010894513542733702	6.877745852638912e-05
Ar	3.6882740407662478e-06	1.620759032429717e-06	0.002741852781261497	0.00023346440995990404	-0.0001364385719100143	0.0001685761320271356
2
24400
Ar	5.113298820293178e-06	-4.023508219671987e-06	0.0032254180006832957	-0.0006951323599467179	0.00011442738819647958	8.673507342771253e-05
Ar	4.697895546353515e-06	2.9626341473479956e-08	0.0027435703288711073	-3.0440957986344146e-05	-0.000150387200750222	0.0001350550636299041
2
24600
Ar	-2.679009393771033e-06	-1.991907326384725e-06	0.003225921616429294	-0.0007921652253010411	0.0002761868113494982	2.794037028023533e-05
Ar	3.205053761216731e-06	-1.5022121834300296e-06	0.002744524304539889	-0.0002542552595029153	-0.0001256313767137461	5.8916019523403e-05
2
24800
Ar	-9.502871293842427e-06	1.18543627643593e-06	0.0032259189025271957	-0.0005416453151750219	0.00033503113723645664	-4.2434406448645445e-05
Ar	1.6800463365815476e-07	-2.195987120079535e-06	0.0027446735463006015	-0.00034328463077369956	-3.3770822177603938e-06	-4.1727282333788166e-05
2
25000
Ar	-1.2204073458174677e-05	4.044101295984167e-06	0.003225186972113243	2.4520603652486364e-05	0.00021108385980584023	-8.111455662497105e-05
Ar	-3.096718867231036e-06	-1.4974960476425088e-06	0.0027436298685379946	-0.00026584385552021043	0.00013788483447399987	-0.00012817577384124714
2
25200
Ar	-8.994622411194174e-06	4.937299219839125e-06	0.003224292151543129	0.0005938495886016428	-5.6717622776917566e-05	-9.103741247911237e-05
Ar	-4.981083618698678e-06	7.397830292624978e-08	0.002742025522877983	-8.638268134874755e-05	0.00014796946221410357	-0.0001729671336662481
2
25400
Ar	-1.5071967409292919e-06	3.2314864672875783e-06	0.0032235406857323845	0.0008625343292268812	-0.00025604988011414286	-5.2691355628966706e-05
Ar	-4.427709644321703e-06	1.4772250074474657e-06	0.0027406081087959664	0.00018191361540121785	0.000126930809053654	-7.723817013131242e-05
2
25600
Ar	6.6195239197846235e-06	1.7820628143006546e-07	0.003223083549391692	0.0007345405552858225	-0.0003518447478442969	-2.81195487646783e-05
Ar	-1.6519472681488556e-06	2.5113305936899366e-06	0.002740441075710772	0.0003495664713105597	4.290447057524828e-05	4.382886633005062e-05
2
25800
Ar	1.1535045975189432e-05	-3.305403372376547e-06	0.0032233150210391024	0.000225774728131728	-0.0003100350933214654	7.468422431676756e-05
Ar	1.96748730045866e-06	2.1593641533019265e-06	0.0027414190522664643	0.00034363579997042406	-0.000125423881964317	0.00013798255070245554
2
26000
Ar	1.0934394226642513e-05	-5.297220049419437e-06	0.0032244406606571126	-0.00035595705645006376	-7.634831896566398e-05	0.00016204103074960756
Ar	4.552203980829437e-06	3.644832855834797e-07	0.0027430648305050986	0.00015025845358835347	-0.00022366611719796362	0.00015657377215166335
2
26200
Ar	4.978494519069047e-06	-4.8916975462105075e-06	0.0032258555870962147	-0.0007913303957314048	0.0001735323656345359	0.0001131598325853448
Ar	4.753562648792471e-06	-1.874609497125298e-06	0.002744396044542929	-9.552098521615507e-05	-0.00019534386485104235	8.102612893604467e-05
2
26400
Ar	-3.4137690909079737e-06	-2.1316015790600605e-06	0.0032265813916214177	-0.0008160645995546524	0.00037348511397089734	3.3190154155943326e-05
Ar	2.4676048891640615e-06	-3.129357842245717e-06	0.00274465483949676	-0.00031599248696385576	-6.563257730352745e-05	-3.552417192065317e-05
2
26600
Ar	-9.856640815232607e-06	1.8506990372816636e-06	0.003226060084846725	-0.0004375673289649968	0.0003935627466735406	-0.00013721542044368916
Ar	-1.2089150598160115e-06	-3.0391531534795954e-06	0.002743814209073304	-0.000388316800783729	9.738447662337145e-05	-0.00011385876097742707
2
26800
Ar	-1.1480685632802053e-05	5.093886940058347e-06	0.003224415162078927	0.00014373401476761998	0.00023018274959330033	-0.00015724614390388164
Ar	-4.502366542909888e-06	-1.3567412067963038e-06	0.002742460012708971	-0.00022138155911180876	0.00022144658114913593	-0.00014545119835682858
2
27000
Ar	-7.3688696636781655e-06	6.198904652048936e-06	0.0032230094311351868	0.0006274913862423755	-1.811085667604831e-05	-9.20403523088684e-05
Ar	-5.564323887315843e-06	8.330252722160968e-07	0.0027412546795788474	4.2685667615731306e-06	0.0001872030516893925	-9.276770000550976e-05
2
27200
Ar	2.945013771140622e-07	4.410646781860309e-06	0.0032228646064812595	0.0008137074269715302	-0.0003305529430552983	3.825963457591569e-05
Ar	-4.318259986851355e-06	2.575999204057256e-06	0.0027405200726216424	0.0002573598488724771	0.00014510984187380478	-3.220969068720531e-05
2
27400
Ar	7.567406874153587e-06	8.838589673776486e-08	0.0032235813272832314	0.0005879417433339022	-0.0004870865029739853	0.00011504631943005871
Ar	-9.292987738771502e-07	3.2007258961930007e-06	0.002740829810622949	0.00040543547368361745	-2.6352951279699535e-05	8.313154304774103e-05
2
27600
Ar	1.1229029660305914e-05	-4.449277389129038e-06	0.0032250638696042907	0.00012613221600017244	-0.0003737897923612674	0.00014865500183903018
Ar	3.1264219285147044e-06	2.194906070519472e-06	0.002742125293803157	0.00037797095573205024	-0.00017825002718831667	0.0001595058304468913
2
27800
Ar	9.608502008717885e-06	-7.022707264189098e-06	0.0032259845586323113	-0.0004341970720498954	-0.00010610972925048251	5.650327096112429e-05
Ar	5.692565952623645e-06	3.2831489736714266e-09	0.0027437766102781256	0.0001448074148311129	-0.0002610861588529645	0.00016678666997541042
2
28000
Ar	3.281847805141358e-06	-6.523660764481731e-06	0.003226120985641329	-0.0007807400070113884	0.0002202824701604927	-3.1621233566556064e-05
Ar	5.779856252358932e-06	-2.259361578148439e-06	0.002745128483687913	-0.00011139519565167855	-0.00018425830205506339	0.00011859946664580633
2
28200
Ar	-4.794294876275877e-06	-3.1451015307514135e-06	0.003225459847599944	-0.0007878850688484646	0.00044267328885461095	-8.365566525850121e-05
Ar	3.29971354872705e-06	-3.4641979459553065e-06	0.0027453897409698965	-0.000386442566109834	-3.9275851894312375e-05	-4.819492436580541e-05
2
28400
Ar	-1.0967589028077848e-05	1.812861449880577e-06	0.0032249580172306336	-0.00038758574837245095	0.0005004835601859154	-1.9938257583852446e-05
Ar	-1.2598129688401106e-06	-2.8831531118018607e-06	0.002744367527882082	-0.0004684661592361083	0.00014485366037883245	-0.0001537680700451872
2
28600
Ar	-1.1689046826943986e-05	6.357857925696129e-06	0.003224960334988188	0.00026392728294512264	0.0003615194771181033	-1.2927528854818404e-05
Ar	-5.2589931465540945e-06	-9.25054615597066e-07	0.0027427480817343248	-0.00030220074683699516	0.0002557784572124471	-0.00015395100854893325
2
28800
Ar	-6.224505499099e-06	8.276777244112433e-06	0.003224708536528744	0.000787019731561299	-2.0624712603384664e-06	-4.5598173952759836e-05
Ar	-7.029575755950035e-06	1.7405366383603617e-06	0.0027413912612146577	-1.6391400835529783e-05	0.00024657442041412214	-0.00010122765663922798
2
29000
Ar	2.584965157634422e-06	6.300000275316515e-06	0.003224235621880829	0.0008982031753986672	-0.00038243239378196677	-6.726393407844348e-05
Ar	-5.649743992185194e-06	3.6899666652395133e-06	0.0027409367612680037	0.0002747285272064407	0.00013552081339604114	1.4225372383821507e-05
2
29200
Ar	1.0453963673338988e-05	1.1754661638075902e-06	0.0032239127105323424	0.0006027610918725656	-0.0005888084135244621	4.262350285445114e-06
Ar	-1.6433775429483075e-06	4.110943290075081e-06	0.0027416794073783566	0.0004972334211085328	-6.154065026641484e-05	0.0001350166949734847
2
29400
Ar	1.3631021311996535e-05	-4.612383033568959e-06	0.0032243232914784185	1.0075741750176246e-06	-0.0005172583696637625	5.9791825188934454e-05
Ar	3.314037548414615e-06	2.5998242617766774e-06	0.002742916039370916	0.0004462055826769167	-0.00025906678464392244	0.0001345184196140215
2
29600
Ar	1.0518321352064648e-05	-8.52637930376279e-06	0.003225102012831163	-0.0006046011606119589	-0.0001918639496019201	7.1499982122001e-05
Ar	6.672411985193162e-06	-3.8623524711626466e-07	0.0027439438719273714	0.00020323016407373034	-0.00033694544895337513	6.381915520213304e-05
2
29800
Ar	2.3586326788592793e-06	-8.402627251621119e-06	0.0032258102249498543	-0.0009643960000142398	0.00022631943077405212	5.711995591446089e-05
Ar	6.819183564213921e-06	-3.625048077633472e-06	0.002744124180681831	-0.0001490126105065216	-0.0002609634452127544	-4.6161423489296664e-05
2
30000
Ar	-7.412154106071911e-06	-4.088166557525639e-06	0.0032259294299504465	-0.0008913489443210409	0.0005997321185311464	-1.8386396120054967e-05
Ar	3.7451727651558942e-06	-5.212885051943951e-06	0.002743374992751988	-0.00043959605049542067	-2.6106411723526746e-05	-9.989102002427462e-05
2
30200
Ar	-1.4088517340310414e-05	2.4108745435790577e-06	0.003224997049341998	-0.0003900439003737364	0.0006477059380311722	-0.00015887835792409254
Ar	-1.233693797035169e-06	-4.138200720601338e-06	0.0027423056859130048	-0.0005152483105786178	0.0002339334660606283	-8.100583221854688e-05
2
30400
Ar	-1.4173780010364836e-05	7.752324167932846e-06	0.0032234468032349205	0.0003747874436986182	0.00038053188726291096	-0.0001176053349719102
Ar	-5.676104508279362e-06	-1.2120705297410468e-06	0.0027417278428889863	-0.00035458524645388343	0.0003428738270862099	-4.1356442161872154e-05
2
30600
Ar	-7.3464478480260315e-06	9.459035353273896e-06	0.0032230112184885597	0.0009704347419056491	-4.2227558188161024e-05	3.655713808137881e-05
Ar	-7.743951460279896e-06	2.35172580950803e-06	0.0027416857212971	-2.748071460574278e-05	0.00033936943035912324	-2.7933787901263457e-05
2
30800
Ar	3.596730385693996e-06	6.9407469126636785e-06	0.0032239338799163898	0.0011168009248423553	-0.0004456566222246672	0.0001410872577411129
Ar	-6.303402383766179e-06	4.865567588347462e-06	0.00274190870626758	0.00031866870463575494	0.00016391066552679887	5.244761919729367e-05
2
31000
Ar	1.3079549901745693e-05	1.151161984664734e-06	0.0032252375545786293	0.0007112905987333942	-0.00066434107018264	9.742198852103041e-05
Ar	-1.9709715787749567e-06	5.03770828078805e-06	0.002742407332907844	0.0005114099668886863	-0.0001056119914635705	4.170338494733738e-05
2
31200
Ar	1.6673564231501183e-05	-5.50075618360579e-06	0.0032258332857608607	-5.183966511607843e-05	-0.0006037014193796402	3.7399672835457135e-05
Ar	3.3504710085804478e-06	3.0321008648441364e-06	0.002743062672116153	0.0005056751510762024	-0.0002610848603289575	9.089500647926748e-05
2
31400
Ar	1.2145095036623666e-05	-1.000072653527125e-05	0.003225538161443922	-0.0008081317538219047	-0.00026490725763893654	-7.79975772045909e-05
Ar	6.969456480153217e-06	2.0065967676667823e-07	0.002744031000688271	0.0002272910315978932	-0.0003133460718020349	5.850330072853069e-05
2
31600
Ar	1.5057971934763715e-06	-1.0138915196320614e-05	0.003224750336690923	-0.0012158932133917886	0.000262040925896144	-7.012356981621157e-05
Ar	7.432464728804247e-06	-2.816546610690651e-06	0.0027439186663116445	-0.00013674758860547756	-0.0002761029910453311	-6.479293553429543e-05
2
31800
Ar	-1.0342477201964893e-05	-5.452432849791786e-06	0.003224492517067709	-0.0010576375164557052	0.0006384345213584176	-9.286770304355155e-06
Ar	4.439311136551311e-06	-4.705777641961825e-06	0.0027430850331349632	-0.00046459168296980857	-6.941197724280567e-05	-0.00011892762680376363
2
32000
Ar	-1.7727350608190204e-05	1.8966835017211422e-06	0.0032247024279542743	-0.00034494909845939514	0.0007752569504881685	4.423948441601736e-05
Ar	-8.684815588300016e-07	-4.305005375439732e-06	0.0027421366025285098	-0.0005677364052033612	0.00015936916125635606	-6.514208295472235e-05
2
32200
Ar	-1.659485325123282e-05	8.511542120787769e-06	0.0032251391887066594	0.0005457345237788869	0.0005281269216175686	2.7689635049062136e-05
Ar	-6.1381643512750425e-06	-1.7492217326409045e-06	0.002741835682173803	-0.0004286056141064285	0.00032510430907931547	1.0327736305907803e-05
2
32400
Ar	-7.492567963006201e-06	1.1573682554659718e-05	0.0032253350751751926	0.0012007769862107307	6.0949408632954496e-05	-7.88861867051446e-06
Ar	-8.780253560170064e-06	1.5148186187862017e-06	0.002742033829334004	-6.160542894907463e-05	0.0003258764925952122	4.667614911629238e-05
2
32600
Ar	5.5669499918622615e-06	9.572264176181193e-06	0.0032250487424472273	0.0012804039105536928	-0.00044747377844398813	-2.432130236522671e-05
Ar	-6.8224863140475995e-06	4.254189225482879e-06	0.002742628208119657	0.0004183853439757356	0.00021214192776459193	8.168586320447174e-05
2
32800
Ar	1.6111896875210565e-05	3.031122037064038e-06	0.0032247927415528115	0.0007482149225568104	-0.000800162811544074	-7.272292323255828e-06
Ar	-1.1310116301470586e-06	5.527432637639538e-06	0.0027432230222181513	0.0006791891864383016	9.79970742872217e-06	3.4193167261943936e-05
2
33000
Ar	1.8904279427340028e-05	-5.282426203900889e-06	0.0032247943424434096	-0.00018802154373067409	-0.0008112704053485644	-8.390192946943327e-06
Ar	5.369324163349114e-06	4.396367112430588e-06	0.002743015834095459	0.0005599768687813675	-0.00023627992695929602	-5.262894090059739e-05
2
33200
Ar	1.2570950119602357e-05	-1.1595854817875848e-05	0.003224879393348825	-0.0010115119522291955	-0.0004026564120176591	8.312873023407465e-06
Ar	9.383672388746672e-06	1.145344184784771e-06	0.0027425810842795022	0.00021700622085886587	-0.00038562322054625756	-3.000495890677447e-05
2
33400
Ar	2.8085978534559837e-08	-1.271296023047506e-05	0.003224842617830735	-0.0013946453520275826	0.00019884590080736797	-1.7575396973910555e-05
Ar	9.063581085230765e-06	-3.030922199913706e-06	0.002742697450397253	-0.0002826030941791121	-0.00039259499728797916	5.7840341984141e-05
2
33600
Ar	-1.2804629598238902e-05	-7.992161939143573e-06	0.003224680503449779	-0.0010664164305229607	0.000706372659243702	-2.0970975062072985e-05
Ar	4.122538337785733e-06	-5.725483166649712e-06	0.0027430818697975635	-0.0006272734739094033	-0.00013906779897212895	1.9885417794360736e-05
2
33800
Ar	-2.000363118477066e-05	8.134604459486783e-07	0.0032244551055123603	-0.0002960728979066397	0.0009573717452890028	-1.4526388899156854e-05
Ar	-2.661625698229642e-06	-5.645471527766793e-06	0.002743061107301095	-0.0006693631296097375	0.00014996399554466884	-4.918347778068674e-05
2
34000
Ar	-1.803920691955248e-05	9.577582052684772e-06	0.003224168581891671	0.0006764152601809676	0.0007382007649058819	-3.0259615801866296e-05
Ar	-8.172949824121441e-06	-2.91020429778213e-06	0.002742476653086457	-0.0003979636056424405	0.00038377911490888406	-7.087251991650859e-05
2
34200
Ar	-7.430581608714174e-06	1.4227545063322733e-05	0.0032243218316060107	0.0013610983309307765	0.0001442757747835558	3.502631430648427e-05
Ar	-1.0015275964537734e-05	1.2935548009126254e-06	0.0027421338154598007	2.5364239437875695e-05	0.000441409933024434	-1.4659912896746066e-05
2
34400
Ar	7.233823441895096e-06	1.2080903864153922e-05	0.0032245810466136164	0.0014325940444741528	-0.0005439657135855408	3.0237456178103676e-05
Ar	-7.585280728763088e-06	5.272032635944839e-06	0.002742416315488383	0.00045795347597747443	0.00031298552632572855	5.3786173103627416e-05
2
34600
Ar	1.8732469221463895e-05	4.3557603902111056e-06	0.003224732238647814	0.0008120075912137375	-0.000950787758194149	-1.1057346376261743e-05
Ar	-1.5385611727505474e-06	6.953057137310545e-06	0.002742863467941017	0.0007034807757063239	-6.864352366223267e-06	5.213936862375577e-05
2
34800
Ar	2.18406048903855e-05	-5.860222066052141e-06	0.003224502870433618	-0.0002132226879562222	-0.000989062526767668	-4.0895346525835676e-05
Ar	5.54579915472606e-06	5.260442958641857e-06	0.0027431150619222334	0.0006491016500372322	-0.0003377035507912929	2.3595741963672715e-05
2
35000
Ar	1.4741682741498584e-05	-1.385073161445443e-05	0.0032245239801959955	-0.0011584643466210805	-0.000519548821999031	4.372408857323011e-05
Ar	1.0314645478608904e-05	8.463137848524899e-07	0.0027431956532894073	0.0002824979799165789	-0.0005213847640565109	-8.656047527078108e-06
2
35200
Ar	3.957096073463359e-07	-1.5461649245661163e-05	0.003224952908235543	-0.001598710307705348	0.00021899304297147253	3.952075090168664e-05
Ar	1.0632187861006213e-05	-4.3349110476671305e-06	0.00274313490527101	-0.00023587497510629582	-0.0004749223311889362	-9.260580491291863e-06
2
35400
Ar	-1.4515573741553869e-05	-9.780198062352248e-06	0.0032252758617356604	-0.0012479545834075498	0.0008816073093058265	1.244307561265983e-05
Ar	5.882990678040823e-06	-7.431613125149476e-06	0.0027430012340598975	-0.0006743135837664974	-0.00014030751429480439	-1.9408905907391695e-05
2
35600
Ar	-2.2828770780931633e-05	8.91410757873516e-07	0.0032248366374604174	-0.000346933802125683	0.0011761508849097145	-7.945054256858368e-05
Ar	-1.7962205117267202e-06	-6.89309591420668e-06	0.002742633976177132	-0.0008222416603052569	0.00023919462304746418	-4.761886976351587e-05
2
35800
Ar	-2.0723421906919565e-05	1.159078042322348e-05	0.0032240359507292337	0.0007512484795610038	0.0008914731729211221	-8.648905935618295e-05
Ar	-8.961393583435897e-06	-2.9193261509978386e-06	0.0027422716903381782	-0.0005573148869532353	0.0005140304304506857	-1.564300157600154e-05
2
36000
Ar	-8.695732603661524e-06	1.7174023972056204e-05	0.0032235227794389985	0.0015614780148432822	0.00015370900476501835	1.0236579955384392e-07
Ar	-1.1861152097589135e-05	2.5077069213546164e-06	0.0027423743753289148	-9.68449653147408e-06	0.000529539251742627	3.357428623139126e-05
2
36200
Ar	8.084924702875678e-06	1.4584938087376077e-05	0.003224067452143381	0.0016703409794146576	-0.0006611245845001186	7.990243218092376e-05
Ar	-9.145352384789647e-06	6.726082378287491e-06	0.002742790809457933	0.0005427883416111663	0.00027869712757069175	5.453191972524414e-05
2
36400
Ar	2.1691755872119134e-05	4.892336816515568e-06	0.0032250457981446543	0.0009324713743305376	-0.001168179400558008	9.266619759316433e-05
Ar	-2.114164659699042e-06	7.78651084531082e-06	0.0027431370559009793	0.0008110653430355026	-8.351466834484171e-05	3.5739649116789506e-05
2
36600
Ar	2.5130820108098783e-05	-7.07290979433326e-06	0.0032257955994079174	-0.00025315804102444574	-0.0011028453971756804	4.2995994901763476e-05
Ar	6.1589022746807096e-06	4.8972285493108674e-06	0.002743200246559092	0.0007674509682241806	-0.00046304770792186296	-1.246280424666561e-05
2
36800
Ar	1.6825709196159863e-05	-1.548077811130898e-05	0.003225894360179475	-0.0013359462387500512	-0.0004999996214618738	-5.94839026985059e-05
Ar	1.1851593665673049e-05	-6.134646847449214e-07	0.00274310521584522	0.0003193099032517688	-0.0006104554645536725	-2.0811747584990435e-05
2
37000
Ar	8.614934559200944e-08	-1.6566766424976612e-05	0.0032249857079552865	-0.0018518440698845244	0.0003094243342670087	-0.0001076564525798292
Ar	1.2049675317050366e-05	-6.191963796048254e-06	0.002742974427101044	-0.0003042377906953913	-0.00046037091999943887	2.744928901858534e-06
2
37200
Ar	-1.723489862446176e-05	-9.673700455272374e-06	0.00322397976412845	-0.0014774899069294578	0.0010212195676892533	-6.792041368180394e-05
Ar	6.266259402085216e-06	-8.925456438304738e-06	0.002743040786925522	-0.0008067358035939878	-5.075376262573321e-05	-1.443432764666691e-05
2
37400
Ar	-2.6827452484146163e-05	2.244037732304306e-06	0.0032234837457997987	-0.0003528164314277639	0.0012771051893801096	-3.1567241673526946e-05
Ar	-2.8802449217752064e-06	-7.406192510925004e-06	0.002742701284443747	-0.0009611986316175377	0.00036378457418935256	-2.5450387974217245e-05
2
37600
Ar	-2.358724980438191e-05	1.3650429299648186e-05	0.0032236669996444883	0.0009669984783101809	0.0009074116360932947	6.403226709312115e-05
Ar	-1.1225578050652138e-05	-1.9331454100508537e-06	0.002742317598978069	-0.000624947781194698	0.0006735449365705949	-3.775162461245963e-05
2
37800
Ar	-8.895779561388534e-06	1.8786770199378385e-05	0.0032246327368932993	0.0018577932221944503	7.109474879387164e-05	0.0001083853129497246
Ar	-1.4425091019693584e-05	5.0018774344712015e-06	0.0027420245949343683	2.2896807047723916e-05	0.0006418854373226947	7.209251139498662e-06
2
38000
Ar	1.0507737784013326e-05	1.5079618843911749e-05	0.0032255946518804928	0.0018576473753626607	-0.0007931289222145138	8.108909746610422e-05
Ar	-1.0688097028255717e-05	9.745876543120675e-06	0.0027422924695795206	0.0006933090043844181	0.0002799667594556763	6.49809341708607e-05
2
38200
Ar	2.5467227125120207e-05	3.975965742842448e-06	0.003225692027138654	0.0010145642137937138	-0.0013304530315433121	-6.321202516198467e-05
Ar	-1.7656773030014383e-06	1.0188113854321873e-05	0.002743346111376633	0.001017888386131962	-0.0002229025128278485	0.00015046507921303632
2
38400
Ar	2.8740994951397623e-05	-9.613074084227798e-06	0.0032247837508221507	-0.0003839344664075883	-0.0012697614161793524	-0.00010738398631350122
Ar	8.221403047127406e-06	5.7661198740429865e-06	0.0027447101891419287	0.000914494490359256	-0.0006267368306249359	0.00010652448782132697
2
38600
Ar	1.8271287025309663e-05	-1.895164158563903e-05	0.0032240758803464644	-0.001632505134415198	-0.0004910636556869335	-5.287937655423942e-05
Ar	1.458707688481206e-05	-1.6187363911728642e-06	0.0027450874168793286	0.0003186362306835295	-0.0007915970301518631	-3.848649630616568e-05
2
38800
Ar	-1.4560964465249416e-06	-1.9001512834082288e-05	0.0032239622189903826	-0.002155281515998913	0.0005025832751462805	3.8585974351472874e-05
Ar	1.4068210032598857e-05	-8.543533383232094e-06	0.0027439461213926287	-0.0004268082039234721	-0.0005321324665109668	-0.00017152992301479507
2
39000
Ar	-2.138215780174807e-05	-9.443372566833188e-06	0.003224482861124347	-0.0016534820260555186	0.0013144962355884846	5.379459417132762e-05
Ar	6.896978534090721e-06	-1.1770655828954253e-05	0.0027420300559969396	-0.000953097526167124	-6.310129761490065e-05	-0.00020377186746401934
2
39200
Ar	-3.1803926555950624e-05	5.183088174464027e-06	0.003224940895881121	-0.0003323150839477184	0.0015061417162673591	9.140840252104271e-06
Ar	-3.505127208352699e-06	-9.90867661172509e-06	0.0027405596843381877	-0.0010506556114019887	0.0004297357392692278	-8.814830751689983e-05
2
39400
Ar	-2.7511782841369462e-05	1.8048375492848268e-05	0.0032249477773289292	0.0011758978017381546	0.0009650080754712419	-3.4178815157093597e-05
Ar	-1.2424357000863867e-05	-3.4522504476068427e-06	0.0027405529976803934	-0.0006500376136121506	0.000811989865211749	0.00010285762964022468
2
39600
Ar	-1.0109641707191771e-05	2.2786513725083078e-05	0.0032242728751621665	0.0021927661554066217	-5.1488392241856175e-05	-6.359307020188167e-05
Ar	-1.566504530500104e-05	4.919926506007699e-06	0.002742009336927539	4.100160010748555e-05	0.0007654645591080944	0.0001758685812120346
2
39800
Ar	1.2800819448739053e-05	1.7000668811392864e-05	0.0032238488833396563	0.0022291084484181755	-0.001040522564525898	-3.6547004055927585e-05
Ar	-1.1635185477356907e-05	1.0848524388758274e-05	0.0027439515192850647	0.0007324221974352592	0.0003772424052197579	0.00017168657043083302
2
40000
Ar	3.065774362549537e-05	3.048305063509062e-06	0.003223805422091591	0.0011944348877310652	-0.0016378621773824916	5.884753131379894e-05
Ar	-2.0744946836213424e-06	1.1738257883145021e-05	0.002745330838799468	0.0011133462451736094	-0.00022753161288108033	6.018861516624672e-05
2
40200
Ar	3.4544396595494265e-05	-1.3140419080646514e-05	0.0032247641606977795	-0.0004658455367234768	-0.0014555844981735452	0.0001225506057628042
Ar	8.824564463972146e-06	7.05016390325945e-06	0.0027450646677874236	0.0009752953766509694	-0.0006951422070182368	-0.0001126701992176392
2
40400
Ar	2.170542583504267e-05	-2.3794744639007308e-05	0.003225829149644005	-0.0019969417770871207	-0.0005791398268281768	6.670283914897176e-05
Ar	1.5902082701898557e-05	-1.2002540668406948e-06	0.002743633352754599	0.0003858594982254135	-0.0008819464346680938	-0.0001553509564167344
2
40600
Ar	-2.0029457992036552e-06	-2.3509797798093435e-05	0.0032257899648528484	-0.002566415283400309	0.0006317222915521646	-4.9765002587490215e-05
Ar	1.5576739795420153e-05	-9.355327134543065e-06	0.002742264138614459	-0.0004206550472980723	-0.0006732032117843778	-0.00010981240784578427
2
40800
Ar	-2.5640860515114922e-05	-1.2052816507333778e-05	0.00322462350780117	-0.00194755792174569	0.0015519953530885784	-0.00016804602521390552
Ar	7.856119283086635e-06	-1.3342896310059844e-05	0.002741670035395299	-0.0010653974047507085	-9.188779747580205e-05	-1.1861378366461543e-05
2
41000
Ar	-3.769755407090211e-05	5.456407781396662e-06	0.003223026018466145	-0.0003561647088099351	0.0018100809944462807	-0.00013646811133017297
Ar	-4.1349927152850115e-06	-1.1167483108356264e-05	0.0027421476221450992	-0.0012510403335801988	0.0005103075133724785	0.00011671667364751425
2
41200
Ar	-3.218365644738454e-05	2.1319320185526588e-05	0.0032223434933137435	0.0014349147825569021	0.0011988990542448315	1.9348849501922235e-05
Ar	-1.48954256749229e-05	-3.904480533707764e-06	0.002743341495507898	-0.0007936715122904308	0.0008757361637411138	0.00011226811485554546
2
41400
Ar	-1.1245067655991618e-05	2.735105883254842e-05	0.0032235160007995653	0.0025966347364249024	-4.1615355758563336e-05	0.0002070462134240454
Ar	-1.864737420473904e-05	5.456817022011961e-06	0.0027439308178252293	7.872286550028128e-05	0.0009240828043855307	1.2846452113140317e-05
2
41600
Ar	1.569759098871358e-05	2.0449553595058968e-05	0.003225933756610295	0.0025731897373255847	-0.0012752081686938585	0.00022682752516896645
Ar	-1.3399629574749033e-05	1.2855206674930697e-05	0.002743499703632343	0.0009282406808571462	0.00046847964715186085	-6.988434500148145e-05
2
41800
Ar	3.618094965626725e-05	3.712627390784415e-06	0.003227381050857093	0.0013579834053244109	-0.0019238949500894494	3.3848223461120646e-05
Ar	-1.5754930219816201e-06	1.38906965188533e-05	0.002742997051245035	0.0013824157012888641	-0.0002651647983485924	-1.761640336645483e-05
2
42000
Ar	4.041689231311786e-05	-1.5260496907461927e-05	0.003226195175687385	-0.0005493016839987774	-0.001706531052892314	-0.00024038063613730096
Ar	1.194006909444223e-05	8.31128428044339e-06	0.0027433669695628962	0.0012099534227423166	-0.0008082628087289458	7.355773133753009e-05
2
42200
Ar	2.5705923574592108e-05	-2.7620990384658327e-05	0.003223585395915109	-0.0022793457157387702	-0.000651119061814442	-0.00023454628732394572
Ar	2.0423190780017493e-05	-1.3534841261050633e-06	0.0027440478349993283	0.00040016120957379203	-0.0010344399932933732	4.2320173370694755e-05
2
42400
Ar	-1.8039532163030355e-06	-2.7099179419522333e-05	0.003222265413504082	-0.003006009463451036	0.0007462282384672645	-1.591878854559256e-05
Ar	1.910844073387814e-05	-1.0871150446718842e-05	0.00274397069229341	-0.0006365278135474408	-0.0007822989999612041	-7.533977336831117e-05
2
42600
Ar	-2.9499818385759042e-05	-1.3741825639261406e-05	0.00322313589683552	-0.0022912964584774933	0.0018176564856429262	0.00015744364390208354
Ar	8.562871204530848e-06	-1.5519023731154955e-05	0.002742750389196632	-0.0013729961050332894	-9.779700266715026e-05	-0.00012137736300397063
2
42800
Ar	-4.3844465494673585e-05	6.713216057133562e-06	0.003224754839982084	-0.0004620209738481542	0.0021101612690067263	0.00013406564103626907
Ar	-6.498334435152897e-06	-1.2536053758178812e-05	0.0027416865134028377	-0.0015198780694951274	0.0006565304228532044	-7.030922514030868e-05
2
43000
Ar	-3.7604019636379424e-05	2.4853367934355374e-05	0.0032257379363306504	0.00166307787258968	0.001360299739883122	4.644113295056161e-05
Ar	-1.9122463371289937e-05	-3.5099404216067827e-06	0.002741872875201338	-0.0009135347687206821	0.0010960709843017534	0.00010473415570562602
2
43200
Ar	-1.3193268853759929e-05	3.181563625019943e-05	0.0032257528637979864	0.003039440056225612	-2.8780789298672427e-05	-5.2348233790494154e-05
Ar	-2.3116648311600222e-05	7.675564195586826e-06	0.0027433878560413584	0.0001615616724736943	0.001047885968414989	0.0001782607830774899
2
43400
Ar	1.8379389033461388e-05	2.404434039689513e-05	0.0032248478414744794	0.0030371295975225978	-0.0014835617000206651	-0.00010166177623883048
Ar	-1.6187750524443052e-05	1.5528125778571617e-05	0.002744860689817684	0.0011600511889749093	0.0004674861148587223	8.670151505688512e-05
2
43600
Ar	4.255856782044296e-05	4.227688116684809e-06	0.0032237675843111344	0.0015969691608269663	-0.0023108168885950854	-0.000106509899140986
Ar	-1.7318666304058787e-06	1.625177574061525e-05	0.002745101206999801	0.0016213768806212147	-0.0003284877004847698	-4.0075998928735416e-05
2
43800
Ar	4.72664400897921e-05	-1.857331948908249e-05	0.0032230507138313797	-0.0007088854700212501	-0.0020676740892323162	-1.768359174023031e-05
Ar	1.3968417111261038e-05	9.52032686254768e-06	0.0027441671109473226	0.00136266527412692	-0.0009710767933103428	-0.0001218091822017693
2
44000
Ar	2.9578325435023087e-05	-3.352736470918534e-05	0.0032233818838914097	-0.0026860324658087072	-0.0008099440498909052	7.904343649265977e-05
Ar	2.335991734295933e-05	-1.5890050392320274e-06	0.002742803320808258	0.00044278918906648005	-0.0011830584121101345	-0.00014601432512544756
2
44200
Ar	-2.780169785519445e-06	-3.3125716239639116e-05	0.003224382839377233	-0.0035211286460476725	0.0009004952981218207	0.00010540964817783456
Ar	2.1975023603304582e-05	-1.2466823602642973e-05	0.0027412392557145046	-0.0007163799831733032	-0.0009041718860161175	-0.0001342227528209978
2
44400
Ar	-3.48712313648942e-05	-1.7085148616778995e-05	0.0032249341842785304	-0.0026283952191102785	0.0021900522456575035	1.0264672644880894e-05
Ar	9.994734827184037e-06	-1.7740663843249532e-05	0.0027404588975679526	-0.0015845080049682373	-0.00012341471872990466	-3.2591305925596134e-06
2
44600
Ar	-5.135947403070461e-05	7.586427543075131e-06	0.0032243134461045443	-0.0004980166264347008	0.0025431055706852394	-0.0001065581078353522
Ar	-7.36870743984214e-06	-1.4613354144919194e-05	0.0027415977314365595	-0.0017599763854722716	0.000724259036474241	0.00019002618413728638
2
44800
Ar	-4.395949601296925e-05	2.943260248248634e-05	0.003223328960812147	0.001937568773450897	0.0016456278957148135	-7.867706954811823e-05
Ar	-2.202594457819897e-05	-4.21922654487192e-06	0.0027439475528068867	-0.0010562923518736911	0.0012870778780573683	0.0002414703113962927
2
45000
Ar	-1.5081624341614046e-05	3.7988393351331734e-05	0.003223436784338176	0.0036198876504963816	-3.571806499157784e-05	0.00010140574078964559
Ar	-2.6593234485511558e-05	8.81906486128201e-06	0.002745799849618753	0.00019421480716278207	0.0011991690538208431	0.00010831698549412718
2
45200
Ar	2.236628258679863e-05	2.8432434265235837e-05	0.003225133184203225	0.0035623969617212515	-0.001817536414651143	0.00018965094306222936
Ar	-1.8518514894569755e-05	1.8108340407825304e-05	0.002745643892699149	0.0013565300021457555	0.0005640815602688466	-0.00010372246841308525
2
45400
Ar	5.024634611579212e-05	4.516835628070706e-06	0.0032267672612924267	0.0017873105024904165	-0.002778235437486011	8.213602084111173e-05
Ar	-1.3860445891210529e-06	1.9120364773565828e-05	0.0027442121722655224	0.0019442832426248419	-0.00039147122592226165	-0.00014624270016829066
2
45600
Ar	5.49554449321147e-05	-2.257505251667588e-05	0.0032265141080660355	-0.0009022531048855852	-0.0023854580486854615	-0.0001338781595808596
Ar	1.716325334802578e-05	1.084752046644202e-05	0.0027432984091155565	0.0016097987088876426	-0.0012162738325982808	-3.550873337567836e-05
2
45800
Ar	3.343259240132207e-05	-3.9359251800969114e-05	0.0032246152710912403	-0.003253595649631181	-0.0008157365923025801	-0.00023991758489325799
Ar	2.8083959060155215e-05	-3.017002469123432e-06	0.002743197341568517	0.0004955242993559837	-0.001464641679496587	-2.5881074115361428e-06
2
46000
Ar	-5.016129507805982e-06	-3.79124437660333e-05	0.003222534860521736	-0.004094047337891168	0.0011327030877740932	-0.00015228763400754102
Ar	2.5972370439114026e-05	-1.594136255367437e-05	0.002743124225461233	-0.0008952853972510964	-0.0010098919684627587	-3.1379874343330476e-05
2
46200
Ar	-4.2306744672758676e-05	-1.8169608093221578e-05	0.0032219319242617465	-0.0030380367762107836	0.002688104730208214	2.749398174860423e-05
Ar	1.1386341737870787e-05	-2.1507239106336174e-05	0.0027427458698646846	-0.0018767726507656244	-4.21754682430551e-05	-3.643626707887663e-05
2
46400
Ar	-6.071735851493926e-05	1.1275559506579617e-05	0.003222515298676355	-0.0004616067368778177	0.0029799698296799682	0.0001238424584403253
Ar	-8.891320938037485e-06	-1.7075869103502346e-05	0.002742641205791643	-0.0020180968692349254	0.0008919603969963144	3.831174064976276e-05
2
46600
Ar	-5.0718891467573946e-05	3.662744483239581e-05	0.003223880735269387	0.0024189570069859875	0.0018944922044772702	0.00013613605476709662
Ar	-2.567791017154543e-05	-4.609273298888598e-06	0.0027433253986098565	-0.0011906052766324162	0.0014833882853031869	8.53178878978206e-05
2
46800
Ar	-1.6186099897639505e-05	4.567840915520512e-05	0.003225242464935322	0.004206638990238604	-0.00017068982655825347	0.00011639840784891479
Ar	-3.0434830343808214e-05	1.0178962755071342e-05	0.0027442436325950674	0.00026632216234435903	0.0013578593653264606	8.131902807692163e-05
2
47000
Ar	2.726737754459311e-05	3.318861583390132e-05	0.0032260221393363227	0.004105425788439685	-0.0022337019452075284	2.436570858080286e-05
Ar	-2.0742731309489405e-05	2.0421740863045042e-05	0.0027443995148321307	0.0015935558546719573	0.00060581077161579	-2.6308792873949075e-06
2
47200
Ar	5.914272253932301e-05	4.473781240506056e-06	0.003225435599871343	0.002004066469479103	-0.003284920526294528	-0.00013396334303470767
Ar	-9.064596086606061e-07	2.1242299246616965e-05	0.0027446337867174063	0.002196394937311293	-0.0004542284969067765	3.5209296312168014e-05
2
47400
Ar	6.387468860712898e-05	-2.731268017784225e-05	0.0032237519092827046	-0.0011240721008532618	-0.002804021653397846	-0.0001613262478231625
Ar	1.966460257713683e-05	1.2168260999212114e-05	0.0027449226174004523	0.0017539811130900499	-0.0012968695253542653	2.6428749276410494e-05
2
47600
Ar	3.836019712627407e-05	-4.710801448697744e-05	0.003222484880654292	-0.0037969155271931915	-0.0010015520568924868	-4.08641838941633e-05
Ar	3.154689988645309e-05	-2.6333439258194377e-06	0.00274462683956645	0.0005061302319196379	-0.0015809818528874193	-8.780069244598826e-05
2
47800
Ar	-6.3676815762292166e-06	-4.551293850128892e-05	0.003222932623842239	-0.004764839489812204	0.0013268272283744871	0.00010948006667074521
Ar	2.858177744054074e-05	-1.679134925489609e-05	0.002743249313593242	-0.0010917182418535801	-0.0011383768860184895	-0.00015847871292146975
2
48000
Ar	-4.9222388804179584e-05	-2.230790087076165e-05	0.003223949729252567	-0.003449598920234399	0.003133995209621064	5.670147242114896e-05
Ar	1.1730682520302571e-05	-2.3358407628229635e-05	0.0027419390394078104	-0.002140793446894082	-0.0001173301955987291	-5.1292152754135536e-05
2
48200
Ar	-6.965344131254416e-05	1.2199596287427181e-05	0.003223656728589321	-0.0004621489249730228	0.003510225509583082	-0.00011222588864337021
Ar	-1.0990600868934186e-05	-1.887982198319973e-05	0.00274251973076279	-0.0022168632555271245	0.0010043330018028821	0.00016195541180338805
2
48400
Ar	-5.74853054410427e-05	4.210155977373095e-05	0.0032227486488705277	0.002811706522289126	0.002207500467865052	-4.529897120737894e-05
Ar	-2.918317715024333e-05	-5.094001304739315e-06	0.002744671278085267	-0.001281071662146075	0.0016741845226131366	0.0002181149829483394
2
48600
Ar	-1.7611250755756245e-05	5.288548669574997e-05	0.0032229817038583078	0.004848264557440818	-0.00015363649278384107	9.481476364725294e-05
Ar	-3.38807367233565e-05	1.1603420424671745e-05	0.002746145782162428	0.0003790363529865047	0.0015352253845734387	3.821931081398136e-05
2
48800
Ar	3.185457954715869e-05	3.872892223003269e-05	0.003224610957844232	0.004639846029311849	-0.0025526730866638563	0.00019279784675698246
Ar	-2.217971236604891e-05	2.3471272873198934e-05	0.0027453957548065826	0.0018632385960270978	0.0007145037160104256	-0.0001565673563908663
2
49000
Ar	6.742653093611029e-05	5.673799270224534e-06	0.0032257392804368964	0.0021685490492708197	-0.003792295117851662	2.1912354463909904e-05
Ar	6.950492039964287e-07	2.4579825927417258e-05	0.0027439651277806985	0.0025123703131200805	-0.000524895563201516	-0.00011392367767694555
2
49200
Ar	7.175551575890425e-05	-3.138156440350773e-05	0.003225020233229437	-0.0013548898045378825	-0.0032885132721867764	-0.0001491595446668346
Ar	2.4219581465503232e-05	1.3611012196587196e-05	0.002743373056082334	0.0019766302387767072	-0.001576922340982927	-1.0003395376562643e-06
2
49400
Ar	4.1986688639542967e-05	-5.4450232118064064e-05	0.0032230676353055534	-0.004357067864842432	-0.0011504221627289422	-0.0001948081205798496
Ar	3.6920672987664354e-05	-4.4932859392995724e-06	0.0027436422025308425	0.00043106046321062896	-0.0019000331238368724	4.080400378060693e-05
2
49600
Ar	-8.650135654534332e-06	-5.224151123774317e-05	0.003221891965379459	-0.005386823542308847	0.0015893709432591209	-2.0943093666182313e-05
Ar	3.224154625556786e-05	-2.1100421471304273e-05	0.002743907192011184	-0.001314864311447272	-0.001283620469976526	-2.061395851688452e-05
2
49800
Ar	-5.687339599216632e-05	-2.472881163234522e-05	0.003222558539403539	-0.003846685501556775	0.0036728151070638936	0.00015323814655782427
Ar	1.208739009561974e-05	-2.7896829801503818e-05	0.0027435468771101874	-0.0025428174754358844	-1.6446404960332867e-05	-3.1021267508169935e-06
2
50000
Ar	-7.917785902935426e-05	1.5233918521664074e-05	0.0032240428562073436	-0.0003995787780651372	0.004001885514784781	0.00011050488898075735
Ar	-1.4639070151690975e-05	-2.144180154733115e-05	0.0027438063234814978	-0.002585692192545841	0.0012558266086189927	5.645949913909763e-05
2
50200
Ar	-6.402893546272267e-05	4.883576285379908e-05	0.003224509793463955	0.003337625673349535	0.0024213768272497186	1.2450462090195566e-05
Ar	-3.527048957033593e-05	-4.720916324055216e-06	0.0027449386589352477	-0.0013242276741751372	0.0019542871321310096	0.00015320331382124425
2
50400
Ar	-1.7629299365927525e-05	5.980751653948186e-05	0.0032245810191448357	0.005561057560605002	-0.00031825608072262796	2.1843175039791093e-05
Ar	-3.9212560888252005e-05	1.4819604230380607e-05	0.002746234073217014	0.0005795701200529057	0.0017794102760643922	6.762481780152579e-05
2
50600
Ar	3.871604945037088e-05	4.280089379286373e-05	0.003224586982796334	0.00522181239019066	-0.0029636065334597925	-4.422391599257173e-05
Ar	-2.467355295096087e-05	2.7870583364004227e-05	0.0027460553508989066	0.002217423949948145	0.0007323920692589622	-0.00010295796818645672
2
50800
Ar	7.813368727928061e-05	4.788053368229354e-06	0.0032234535237898577	0.002312436640225487	-0.004317584791038988	-0.00017675973659896096
Ar	1.7807271450329598e-06	2.8076617315210275e-05	0.0027449655127905065	0.00285233918288922	-0.0007141773306364358	-8.351158051400841e-05
2
51000
Ar	8.114373786048722e-05	-3.67188340776655e-05	0.0032215057533826284	-0.0017471105023573184	-0.0036236963732712056	-0.00016890822126754175
Ar	2.791626306885911e-05	1.4861453821350935e-05	0.0027442050133497913	0.002161451219964482	-0.0018269746456554303	-5.9187967547234065e-05
2
51200
Ar	4.5522396008980086e-05	-6.174788473783111e-05	0.0032209657362725947	-0.005073442297690952	-0.0011650256263820529	7.972083727081746e-05
Ar	4.134199853628373e-05	-5.5781395121640425e-06	0.0027437319482259805	0.00040884799811485465	-0.002108278891816346	-5.607786498969379e-05
2
51400
Ar	-1.2551191333155636e-05	-5.813208947072768e-05	0.0032226467861695644	-0.006086968206920701	0.0018603881933197263	0.0002165728721011971
Ar	3.5376631262889734e-05	-2.39345333708825e-05	0.002742870079576506	-0.001568332393551734	-0.001434648322455796	-9.648884326851272e-05
2
51600
Ar	-6.651369614225535e-05	-2.670911738108535e-05	0.003224578917495008	-0.0042331187096644905	0.004163763998099856	0.00011252263957534087
Ar	1.2289562557541775e-05	-3.1561915738417724e-05	0.0027424478994431613	-0.0028869792443922135	-2.2306056705940876e-05	2.23523482844614e-05
2
51800
Ar	-8.999126212498921e-05	1.8536894694761433e-05	0.003224534370060622	-0.00025495509751970023	0.004500472090844408	-0.0001365781264668957
Ar	-1.7548090349635222e-05	-2.4185818867824107e-05	0.002743806669538713	-0.002867544035583589	0.001424536636979649	0.0002215661991327824
2
52000
Ar	-7.095940464872513e-05	5.62967819591693e-05	0.0032226925905607124	0.003926381135515287	0.002707868122303975	-0.00020047082269928726
Ar	-4.0120862238082246e-05	-5.146881276384902e-06	0.0027463156067721707	-0.001467368803005374	0.0022277924350885456	0.00023761570887742624
2
52200
Ar	-1.7408269669412496e-05	6.820712379389544e-05	0.003221624775675269	0.006348679229226711	-0.0004327715372854303	2.4118581558127815e-05
Ar	-4.42194578444761e-05	1.699383022117405e-05	0.0027473789143793855	0.0006819999503572123	0.0019948823399654103	-3.0436700387118417e-05
2
52400
Ar	4.620655089089796e-05	4.7920435248225294e-05	0.0032229248622084555	0.0058363508878120016	-0.0034778423462448007	0.0001920713869740183
Ar	-2.736250697132133e-05	3.138546745521754e-05	0.002746106653726826	0.002576397688799671	0.0007847528636230942	-0.00017438009950524212
2
52600
Ar	8.971757494654237e-05	4.106697381986243e-06	0.0032245288459919917	0.0024824549141270183	-0.004930335684718423	7.107510404771892e-05
Ar	3.185104634027424e-06	3.110995810822708e-05	0.002744434065951054	0.0032903235375740573	-0.0008468397225408519	-0.00012707654354106375
2
52800
Ar	9.139995974287035e-05	-4.259315322365535e-05	0.0032240113681062475	-0.0022016266807373766	-0.004039251907754972	-0.00014480507710332892
Ar	3.330288102409638e-05	1.5691808722525456e-05	0.0027440659772927844	0.0024751207436771827	-0.002117700399777409	3.479115431991212e-05
2
53000
Ar	4.898377401096474e-05	-6.99659090763811e-05	0.0032222844211594742	-0.0059410590063518585	-0.0012281786825529394	-0.00014623236272623673
Ar	4.819318883442352e-05	-7.65113470763158e-06	0.002744631682885324	0.00040181967191384583	-0.002373815962939554	5.232857632507512e-05
2
53200
Ar	-1.82978038365501e-05	-6.487234389319788e-05	0.003221543737001425	-0.006958403465750122	0.0022309728192552235	6.680833882344768e-07
Ar	4.0622709429149796e-05	-2.8206460456126943e-05	0.0027446950832868636	-0.0018683209821963786	-0.0015633636169649654	-3.9266712606460094e-05
2
53400
Ar	-7.886046214439132e-05	-2.8515938722823544e-05	0.00322206076220002	-0.004651374255171413	0.004767545890377822	4.8086978072242825e-05
Ar	1.3469231154627062e-05	-3.595668153912621e-05	0.0027446520126285915	-0.003326378252271251	8.604073770558928e-05	3.9653855656737326e-05
2
53600
Ar	-0.00010365311888784607	2.2862134139713957e-05	0.003221983086212357	-8.155893961631972e-05	0.0050825207530476885	-4.668488543190307e-05
Ar	-2.0886123792739087e-05	-2.6689718193231995e-05	0.00274542575237795	-0.003248256322997517	0.0016902026959765483	0.00010524409206712036
2
53800
Ar	-7.957120802226848e-05	6.487880695976528e-05	0.0032217347239039164	0.0047049249715585845	0.002960646895135499	4.709567367106329e-05
Ar	-4.6231690066332206e-05	-4.687355469684828e-06	0.0027464812758020204	-0.001588648287094288	0.0025373932616274235	6.930056772018163e-05
2
54000
Ar	-1.6744911808178207e-05	7.705642686454518e-05	0.003223061146551788	0.007337667598717684	-0.0006373333407973289	0.0001960769506468758
Ar	-5.029537234297802e-05	2.0118146808403887e-05	0.0027464121331131947	0.0008128803076141374	0.0022006299337853645	-9.553171609627996e-05
2
54200
Ar	5.5678388273983384e-05	5.2938183870247865e-05	0.003225179390367318	0.006533922246653069	-0.0040042200732336814	0.00015667178029246347
Ar	-3.066969613025306e-05	3.5668246949045277e-05	0.0027450557742083152	0.002955423462170676	0.0007874424337454412	-0.00012896868135886216
2
54400
Ar	0.0001033257251391459	2.8244298698154596e-06	0.0032250839933403302	0.002566940084036694	-0.005601355560255649	-0.0001992677408558137
Ar	4.4326700431634145e-06	3.458409892031087e-05	0.0027447501571361667	0.0038025977115252454	-0.0009762609831847406	8.450777978889458e-05
2
54600
Ar	0.0001024162293167228	-5.0058623402186854e-05	0.00322199772835439	-0.002743345781655611	-0.004539411333813533	-0.0003665131502256578
Ar	3.900705734211966e-05	1.7283971304877793e-05	0.00274655611849718	0.0028182135076482025	-0.0023457503420496297	0.00021312693584310755
2
54800
Ar	5.267285948450567e-05	-8.038687032585629e-05	0.0032192464601484513	-0.006828358053540363	-0.0012910020866197232	-0.00010192994444441928
Ar	5.600080312366891e-05	-8.591512586671321e-06	0.0027479947812101358	0.00038580436124780316	-0.002627164488771901	9.639744011121277e-06
2
55000
Ar	-2.386112669254103e-05	-7.352993858408756e-05	0.003220252603808978	-0.007868340861426041	0.002626822359476937	0.00025922571598823054
Ar	4.624075264144513e-05	-3.0954373673805307e-05	0.002746786907529073	-0.00228910581422456	-0.0016609691041962688	-0.00022498822671837256
2
55200
Ar	-9.192438344911925e-05	-3.172451858041416e-05	0.0032233139669795865	-0.005140854963866314	0.005405962712943218	0.0002884880833490023
Ar	1.4138642896109903e-05	-3.919825749510141e-05	0.0027445493846759445	-0.0038896406965504573	0.00010195720878282706	-0.00017931528648088615
2
55400
Ar	-0.00011773879586459579	2.594901348123864e-05	0.003224741148745122	0.00020836555125253647	0.005653735392664458	-4.406596655219412e-05
Ar	-2.568858352586928e-05	-2.906302245404721e-05	0.002744354014295422	-0.0037438550531209017	0.0018808553359971167	0.00010483440565606474
2
55600
Ar	-8.737058179040834e-05	7.227509491452446e-05	0.0032229459641810666	0.0056226927932826135	0.0032264223631826602	-0.00026834527265717794
Ar	-5.461274433734334e-05	-4.5999003450306885e-06	0.0027461517524440602	-0.0017937502438789919	0.0028120540087810644	0.00022810022222783934
2
55800
Ar	-1.398207917277357e-05	8.52699398435683e-05	0.003220764608155043	0.008496149838106403	-0.0007558871525836684	-0.00011382054560399917
Ar	-5.834290895390762e-05	2.2608037494659698e-05	0.002747887105177617	0.0010837045634277784	0.0023920064725709757	9.557121181909064e-05
2
56000
Ar	6.90159206455585e-05	5.772210160161165e-05	0.0032208465883200145	0.007373933176860733	-0.0045250781076748665	8.80380631131811e-05
Ar	-3.430651788609068e-05	3.949592581298004e-05	0.002747923326904472	0.0035344683720500377	0.0008472445433346523	-5.351707649883561e-05
2
56200
Ar	0.00012131078099355668	1.7862924886282215e-06	0.0032215309583724285	0.0026335172878516238	-0.006209686993804468	3.8051688875442684e-05
Ar	6.985369276408934e-06	3.785667043193722e-05	0.0027474680577242953	0.004393221170086515	-0.0011432569606539874	-4.376901082923944e-06
2
56400
Ar	0.00011687979046987653	-5.662247872993139e-05	0.0032213496569808322	-0.0034982892497065795	-0.004976372157893558	-4.3756401645079973e-05
Ar	4.606236935314518e-05	1.836963312541785e-05	0.0027477939870709667	0.0031024933554392037	-0.0026189855657813305	5.0768534402437774e-05
2
56600
Ar	5.6308859743953984e-05	-8.956504485607834e-05	0.0032213589572659294	-0.008149769453652051	-0.0013264268292598773	8.55553935519047e-05
Ar	6.381065349524918e-05	-1.031765782399019e-05	0.002747801113150849	0.00030961140669369305	-0.002892741575685691	-6.548368347242221e-05
2
56800
Ar	-3.339457384399573e-05	-8.08980577684025e-05	0.003222845944641925	-0.009041063833894853	0.003009395042680836	0.00015750295357219195
Ar	5.1549018759213926e-05	-3.5056257407599865e-05	0.0027460710969154007	-0.002674987655313376	-0.001835804743799489	-0.00023086936757899497
2
57000
Ar	-0.00010966936931170701	-3.3596205716338246e-05	0.0032231815662289564	-0.005545038152340777	0.006083862947219806	-0.00012030460761273304
Ar	1.4228173184059256e-05	-4.3952464240612575e-05	0.0027447459269862797	-0.004516226652044226	0.00016636171168681602	2.5927270579728864e-05
2
57200
Ar	-0.00013512511232606638	3.1239419162701954e-05	0.0032206033755606913	0.0007127408636945075	0.006320779755891806	-0.0003517493010152263
Ar	-3.151364723942934e-05	-3.19609372019763e-05	0.0027463048527949425	-0.0042366999975079695	0.0021354546640436818	0.00026001612168963554
2
57400
Ar	-9.624533537320426e-05	8.260844071122102e-05	0.0032176492374508007	0.006742072329899909	0.0035272182456728036	-0.00015809027706297784
Ar	-6.338260070818155e-05	-4.4552778062819846e-06	0.0027488448128110588	-0.0018275207426319223	0.003121070598630481	0.00020075510585146377
2
57600
Ar	-1.0434560766648388e-05	9.629752948504603e-05	0.0032186962028685163	0.009760528179221357	-0.0009341916965306305	0.000342583771964345
Ar	-6.54335145960763e-05	2.566322257219443e-05	0.0027491517212931793	0.0014590465052779372	0.0026447548375057505	-0.00012921034491710816
2
57800
Ar	8.329458756897907e-05	6.477692762519374e-05	0.003223014771688565	0.008190466882676705	-0.005154014331619318	0.00040721984390595283
Ar	-3.640381647226456e-05	4.428385551391982e-05	0.002746986764718917	0.004145518767312661	0.0009012583922036199	-0.00023071114903121492
2
58000
Ar	0.0001395125304600245	1.5568514342572156e-06	0.0032249590049629943	0.0025458163122063704	-0.006983198887385845	-6.612843371682484e-05
Ar	1.0985561519462185e-05	4.1888250933080795e-05	0.0027460292735743117	0.004951033164517886	-0.0013612594778577495	6.87982541505747e-05
2
58200
Ar	0.00012987437984211524	-6.371292634269717e-05	0.003222118173103529	-0.004448819698602608	-0.005525527932420337	-0.0004004522130340031
Ar	5.4495551735719e-05	1.9023838862589435e-05	0.002748053258392349	0.003363980143208652	-0.0030100087638535605	0.00029002332872069046
2
58400
Ar	5.736756499303754e-05	-0.00010033856035673604	0.003218567456685155	-0.009479049913327835	-0.0014637916683369167	-0.00021901633946163628
Ar	7.26339627116087e-05	-1.329545386219548e-05	0.0027501594341207314	0.00011153619242917472	-0.003176234482066582	7.681845375134736e-05
2
58600
Ar	-4.4961172871909094e-05	-9.025137910792195e-05	0.0032185609826736895	-0.010144989305737996	0.003430631837698592	0.00017266388975711535
Ar	5.6695489918132936e-05	-3.9636397656570824e-05	0.0027492173017820373	-0.0032068623982903833	-0.0018587785775672676	-0.00021311582335097398
2
58800
Ar	-0.00012923985395558028	-3.674539211553739e-05	0.0032206151626585624	-0.005921347610958088	0.0068362726741886684	0.0001381117217520401
Ar	1.3402648502210756e-05	-4.77310640785179e-05	0.002747000034825594	-0.005119841695742601	0.0003412602144544903	-0.0001320477671862372
2
59000
Ar	-0.00015354264466653505	3.5744194052303545e-05	0.0032206129288278587	0.001295620102381402	0.007053158854806883	-0.00010926987239534886
Ar	-3.766140601657108e-05	-3.321193121544349e-05	0.002747056158142912	-0.004657709368679634	0.002467363915236527	0.00010598577193962988
2
59200
Ar	-0.00010467533658117139	9.312436810726239e-05	0.0032190997753408345	0.008078928379994329	0.003925677959531632	-9.43460732058792e-05
Ar	-7.226451302132082e-05	-2.2088096108671494e-06	0.002748644583452163	-0.0019575705277549023	0.003459714929258615	0.00015563599059494984
2
59400
Ar	-4.219684701785733e-06	0.00010762695915936889	0.003219670832029248	0.011234359576507966	-0.0011969134751344806	0.00019177260227298972
Ar	-7.339527302777323e-05	3.0368279435579803e-05	0.0027492359469796918	0.0017846976090203361	0.0028011136232272164	-4.529612283078134e-05
2
59600
Ar	0.00010182660394742745	7.063064755208798e-05	0.0032216405808618365	0.009087916858938946	-0.005907108927577519	0.00011182335701478648
Ar	-3.9381277581223646e-05	4.962142852541861e-05	0.0027483847874076824	0.004752371444089975	0.0008818110523283825	-4.507726689122039e-05
2
59800
Ar	0.0001618057768005848	-1.2514274821509736e-06	0.0032209608484061723	0.0023865070079514307	-0.007878508205411663	-0.0002627519670388611
Ar	1.4370910239770359e-05	4.5944600580743014e-05	0.0027491706354012676	0.005534585995242841	-0.0015871553204752854	0.00018879426699996437
2
60000
Ar	0.00014541222454774654	-7.430471173047378e-05	0.0032174077479194692	-0.005533756264425287	-0.006138705827864121	-0.00035730324436632693
Ar	6.235661922831069e-05	2.0336048193536313e-05	0.002751502911722948	0.0036727337063628563	-0.003323013057868588	0.00019028457702833276
2
60200
Ar	5.9340523889375686e-05	-0.00011406881494718968	0.0032162774077821353	-0.011014536608793264	-0.0014622693227530734	0.0001803491309765332
Ar	8.141436097040505e-05	-1.5230702781483134e-05	0.0027513443002507372	-2.7697525600349186e-05	-0.003482206820203247	-0.00023594018811605737
2
60400
Ar	-5.760229019406723e-05	-0.0001006849263073326	0.003220029456101797	-0.011439041109251823	0.004057700182450164	0.00043704298161759695
Ar	6.168142321791974e-05	-4.4089312334596436e-05	0.002747781554381339	-0.0037609756486302235	-0.0020526514841903744	-0.0003855857219003826
2
60600
Ar	-0.000150227032477405	-3.868357491621869e-05	0.0032225691819036655	-0.0062798022340924105	0.007835315665884024	5.475133387085072e-06
Ar	1.17151758266133e-05	-5.297011531292074e-05	0.0027455840317668723	-0.005829042656873569	0.0003670799661620005	7.43518132463817e-06
2
60800
Ar	-0.00017232101932082976	4.3067945142600515e-05	0.003219615962232639	0.0020753686912408473	0.007844281240546855	-0.0005130752104443118
Ar	-4.5663196322270994e-05	-3.719645553984958e-05	0.0027481926872729703	-0.005162598879370389	0.002672174582862677	0.0004445684451057637
2
61000
Ar	-0.00011194978034027435	0.00010580130821500561	0.0032150350700456687	0.009518773385990345	0.0042028184686859075	-0.00025875440642887654
Ar	-8.262241496544091e-05	-3.3886790012200424e-06	0.0027523828795026606	-0.0019289902227486175	0.003780957262672367	0.00031228003856378315
2
61200
Ar	3.575048888937192e-06	0.00012013596675554442	0.0032157919657342516	0.01267132919505489	-0.0014723179144640504	0.00039093041035015636
Ar	-8.097929964394897e-05	3.213822872032537e-05	0.002753037902261798	0.002251007809811635	0.0030343295686519394	-0.0001695113938921087
2
61400
Ar	0.00012140849729180649	7.795209325514134e-05	0.003220435851648406	0.00987153241323084	-0.00666107091189871	0.0004022794139247116
Ar	-4.0862145418965636e-05	5.275271233626699e-05	0.0027503179796351538	0.005462964164858688	0.0009299934651844383	-0.0002756661428059641
2
61600
Ar	0.00018402372073664995	-2.327122786050568e-06	0.003221706769591202	0.0020691792414879494	-0.008716595856970055	-0.000172484138521098
Ar	2.011427310220629e-05	4.922929653297778e-05	0.0027492309364168144	0.006217352973176663	-0.0016349783456703997	8.421184559008039e-05
2
61800
Ar	0.00015920580531201292	-8.25521140832795e-05	0.0032184366947910557	-0.00687192343741818	-0.006660349728354448	-0.00039110825741968917
Ar	7.349856278489207e-05	2.2379769790190573e-05	0.002751158927978239	0.003984720738392465	-0.0035399640918886673	0.00021873834554015617
2
62000
Ar	5.719777659317271e-05	-0.000125230016517302	0.003216081944162896	-0.012717481065030886	-0.0015198486936334095	-3.101381122037299e-05
Ar	9.275759227945423e-05	-1.5754065444666286e-05	0.0027520489252759414	-0.00029341806675422226	-0.0037836606018648087	-6.689788852716114e-05
2
62200
Ar	-7.522072751068917e-05	-0.00010999992282509609	0.0032176193386677316	-0.01266998480325451	0.004497342874861729	0.0002426577706700598
Ar	6.813905477355351e-05	-4.7380677984017916e-05	0.0027503945648315125	-0.00445482698261676	-0.0022532560685158158	-0.00021402819904280037
2
62400
Ar	-0.00017521264622489229	-4.179585678861056e-05	0.0032187817385443034	-0.00642294991003307	0.008590356215260827	-7.093009966952208e-05
Ar	1.0225154905313318e-05	-5.711610636611145e-05	0.0027498946599780858	-0.006682633817291741	0.0003969009774525015	0.00014854443115526017
2
62600
Ar	-0.000192868487468458	4.783601583861661e-05	0.003216077237561512	0.0030630330263034145	0.008618800312168166	-0.0003657243762003158
Ar	-5.457770583591078e-05	-3.998452031923295e-05	0.0027530061342417814	-0.005721132023066665	0.0028838260833984283	0.0003895429805363803
2
62800
Ar	-0.00011863358151245784	0.00011700704293678602	0.003213653671113146	0.011200270755517522	0.004676988552347333	3.806239724664971e-05
Ar	-9.472729117908481e-05	-3.6312591986724233e-06	0.0027558269776371924	-0.0019618700889740995	0.004059854893314975	4.784958941454028e-05
2
63000
Ar	1.4525412676716634e-05	0.00013319162507524914	0.0032172681789110922	0.01435803643580823	-0.001616456079664065	0.00058187268465246
Ar	-9.047353361840375e-05	3.4630982081448843e-05	0.002753692112909737	0.002779437172468877	0.0033013759457687923	-0.0003960491513202656
2
63200
Ar	0.00014464185771064598	8.648615870799335e-05	0.003221774415095758	0.010535815731497786	-0.007377828132448333	0.00017342263252475337
Ar	-4.30185161377803e-05	5.7074023692486594e-05	0.0027500010716172522	0.006363297513818525	0.0010351386855380672	-0.00022774921876228898
2
63400
Ar	0.00020727112161516534	-2.813227111141202e-06	0.0032196427593411763	0.0014405264142175927	-0.009753268862919828	-0.0005734644414363703
Ar	2.7184304426818558e-05	5.319345198868856e-05	0.0027504853061305493	0.007089024238543393	-0.0018007154227352288	0.00031717350867523883
2
63600
Ar	0.0001708316285868468	-9.265358844717922e-05	0.003212976455826286	-0.008435145149222863	-0.0074830383268140194	-0.0005830558538770335
Ar	8.679863861534851e-05	2.3680939407760057e-05	0.0027544939671366787	0.004322865336012793	-0.0038394687612840197	0.00035186302826496914
2
63800
Ar	5.144585377015516e-05	-0.00014094953629032364	0.0032113738728494798	-0.014518343002845666	-0.0017579168644958466	0.0002797972775750884
Ar	0.00010625362321812107	-1.7037535866324922e-05	0.002755536557016249	-0.0006128636055816523	-0.003981716492185161	-0.0001780732644144392
2
64000
Ar	-9.675443737707346e-05	-0.00012405550766504735	0.003216523767527146	-0.013844852700485306	0.005072350147471461	0.0005629688788175403
Ar	7.527647352684679e-05	-4.988269578592331e-05	0.0027522975128414714	-0.005322153651157861	-0.002325622823158778	-0.000325733373442572
2
64200
Ar	-0.0002022043262662729	-4.747835570540974e-05	0.0032194770850193324	-0.0063084242351203745	0.009636334954986845	-6.946952818966347e-05
Ar	7.61480316866619e-06	-5.9965687659392265e-05	0.0027514798985091068	-0.00768186120530761	0.00039908349472571466	0.000198939521674972
2
64400
Ar	-0.00021201954482161887	5.299083663918769e-05	0.003215755902864206	0.004446865633948637	0.00962378194523925	-0.0005404119432567125
Ar	-6.584530206257695e-05	-4.221857386012342e-05	0.0027554990566717678	-0.006355018093020373	0.0030442434493271465	0.00048487501180711676
2
64600
Ar	-0.00012016273706196727	0.0001303318523590554	0.003212150157323136	0.013202352643276734	0.005197918711328157	-4.707410964648794e-05
Ar	-0.00010880799347930787	-4.32341308260132e-06	0.0027586521246751538	-0.0018865445689403963	0.004209551933507235	1.8355499473252952e-05
2
64800
Ar	3.192794388390576e-05	0.00014833472025511452	0.0032149857388640104	0.01596846617058928	-0.00178017232499932	0.000479863739264677
Ar	-0.00010058375028510379	3.5382081672929664e-05	0.002755937418543292	0.003485947211199647	0.0034359619901541626	-0.00046781159985882206
2
65000
Ar	0.00017280976513959543	9.640178476483454e-05	0.0032184004853018145	0.010939216169878557	-0.008211582419128966	7.340946361407026e-05
Ar	-4.4104222897427325e-05	5.9274300804781774e-05	0.0027521620842722557	0.0073818329538319185	0.0011534261929615308	-0.00015133799960159153
2
65200
Ar	0.00023244588490309716	-2.502242356635868e-06	0.0032155236051129867	0.0004813792579167675	-0.0107407482977697	-0.0005791145817513439
Ar	3.5632576460972456e-05	5.619226678793063e-05	0.0027537764183457403	0.007893639073167119	-0.001795243360058693	0.0004247662105882818
2
65400
Ar	0.00018118717913415426	-0.00010122860436607033	0.0032100573426282804	-0.010318794585601422	-0.00824240295575658	-0.0003103630539558849
Ar	0.000100406617991291	2.6163525990166783e-05	0.0027582179220345562	0.004504648369028969	-0.003946359010233197	0.0003217549854190625
2
65600
Ar	4.156114692553053e-05	-0.0001544021541307095	0.0032113415511718932	-0.016488795513091844	-0.0019426754034470525	0.0005552809589388406
Ar	0.00011814161228248539	-1.6207602932924767e-05	0.002758014207059453	-0.0010908717355860584	-0.004166845437290838	-0.000320320936626453
2
65800
Ar	-0.00012238536942605577	-0.00013589627492063033	0.0032176289911106538	-0.0148927622566278	0.005539678840782922	0.0004846477722108825
Ar	7.991341947580696e-05	-5.129625079887564e-05	0.0027540732156664458	-0.0062838291759171674	-0.0025682803009786375	-0.000275067935844974
2
66000
Ar	-0.00023069498867980733	-5.201476544652232e-05	0.0032179026144448348	-0.0057979428001243005	0.010527383736154002	-0.0004424085503529403
Ar	1.7295504277294726e-06	-6.339355474373133e-05	0.0027544678099765047	-0.008714072613117282	0.000283746853126127	0.00038041024285896154
2
66200
Ar	-0.0002288859661147796	5.7779508193798e-05	0.003211063945662456	0.006145648695547965	0.01054756501706151	-0.0007160582480857227
Ar	-7.959265100653113e-05	-4.567933782565501e-05	0.0027599256743749178	-0.006831169963091131	0.003082872494272349	0.000547133332215628
2
66400
Ar	-0.0001172674339819304	0.00014271119076098075	0.0032079308019377847	0.015332730209324037	0.0057631846875027355	0.0002035893920056031
Ar	-0.00012354383880809502	-6.869646706639846e-06	0.0027619427409407327	-0.0015820451921420343	0.004330875135902429	-0.00023638490305826358
2
66600
Ar	5.431145835005511e-05	0.00016319880290915345	0.003213514033733029	0.017573760676271685	-0.0019092424224601225	0.0006904428122292272
Ar	-0.00010897738452112906	3.4592895172265304e-05	0.002756787916227121	0.004417974259204255	0.003663166497710254	-0.000624837242896791
2
66800
Ar	0.000204495869919724	0.00010645060730072098	0.003217552469951243	0.011122290859828311	-0.008984993137237808	-6.42011285792502e-05
Ar	-4.148638918023886e-05	6.0971830935299926e-05	0.0027532221966430313	0.008546756910520112	0.001393505425444134	1.4624975851346515e-05
2
67000
Ar	0.0002574264369569833	-2.1108167650819707e-06	0.0032127405018052965	-0.0009490085867785719	-0.011798537667873286	-0.0007625654584356574
Ar	4.8564638023201896e-05	5.9701054252790896e-05	0.0027570792161486285	0.008688852264833624	-0.001667554721280186	0.0006591683231318817
2
67200
Ar	0.0001875482004210044	-0.0001111236756201236	0.003206684442544125	-0.012486067453252236	-0.00914776619336164	-0.00022225960562870847
Ar	0.00011736406988360603	3.0184101121988347e-05	0.0027624606071481278	0.0044414894124172365	-0.003959839727303496	0.000262573034337138
2
67400
Ar	2.617207507294263e-05	-0.00017085979840431034	0.0032098035759112126	-0.018526029091603776	-0.0022732383543758077	0.0007170317596083021
Ar	0.00013045487339067796	-1.3142212294737627e-05	0.002760796457030953	-0.001910548449513113	-0.004362151047437896	-0.0004809353806337698
2
67600
Ar	-0.0001527619016861931	-0.00015134854491730663	0.003216380525024986	-0.015678101591190378	0.006096571143694725	0.0003596367528125216
Ar	8.164278604474557e-05	-5.085657882223623e-05	0.002756174395000318	-0.007498399138266295	-0.002903003389760245	-0.00025316886200276904
2
67800
Ar	-0.0002604503852311359	-5.849738337559037e-05	0.003214682698450756	-0.004914332792920326	0.011682724155534976	-0.0006636495213460992
Ar	-7.940103837415298e-06	-6.609567805936172e-05	0.002757613598272966	-0.009687643633562695	-5.01163263142445e-06	0.0005158546001223278
2
68000
Ar	-0.00024323510917842296	6.332092980636735e-05	0.0032066212386686168	0.008198417245094328	0.011702844605648778	-0.0006629279359196321
Ar	-9.591019129368374e-05	-5.037777390482916e-05	0.002763803619946408	-0.007135494101260187	0.0030063022327733707	0.0005326954334125774
2
68200
Ar	-0.00010931531735134235	0.00015763470653018074	0.003205729540001133	0.01757811262371863	0.006408486988194582	0.0005146789858111084
Ar	-0.00013841968522843192	-1.1214643367094449e-05	0.0027644046878623953	-0.001038424671117287	0.004478235656653419	-0.00045258050929676644
2
68400
Ar	8.110895410269528e-05	0.00018028569453807294	0.003213640981035507	0.018878013592105464	-0.002166682688708956	0.0007737235081837222
Ar	-0.00011516545295271527	3.27198395301463e-05	0.0027579450177459145	0.0055405939643415345	0.0040017103237165955	-0.0005874635036903728
2
68600
Ar	0.00023628552123614575	0.00011682246231546	0.003216314934633014	0.010747934365489833	-0.010009676614801993	-0.0003246739978189146
Ar	-3.555111500526473e-05	6.293692360573101e-05	0.0027561298799535323	0.009732350568830934	0.0017365773526291173	0.00029299260503773704
2
68800
Ar	0.0002777420465272438	-3.271544706044682e-06	0.0032084297212289906	-0.002777692295207139	-0.013009543251930728	-0.0009974786452635173
Ar	6.386473183721645e-05	6.439566882187522e-05	0.002762374790773351	0.009248553421642538	-0.0014715446621494186	0.0007973964255161698
2
69000
Ar	0.00018581023184512143	-0.0001233467381424329	0.0032022335336594414	-0.014867237671008946	-0.010106839331715077	-4.1642997245356096e-05
Ar	0.00013350653555139517	3.5870101611433264e-05	0.0027675202879171796	0.0040927454963385086	-0.003969234141816678	3.770609035372677e-05
2
69200
Ar	2.4524843464346723e-06	-0.0001893488834171439	0.0032075899999203746	-0.020315813778355854	-0.0024708214895225737	0.0008760277149829358
Ar	0.00013964992109744898	-8.45910121113171e-06	0.0027632403758170022	-0.0028845166639876424	-0.004585177157560727	-0.0006937113372769745
2
69400
Ar	-0.0001865723843100343	-0.00016684578609856148	0.003214341676141983	-0.015813609348738884	0.006839037653156619	0.00023925405508638274
Ar	7.946658587125593e-05	-4.944994412227614e-05	0.0027581912226739233	-0.008684411967991981	-0.003270551193728226	-0.00015826782393575217
2
69600
Ar	-0.00028673484465735125	-6.330808634532913e-05	0.003210811894011628	-0.0033406730188498958	0.012962873188545204	-0.0008335809271923938
Ar	-2.075336809714765e-05	-6.867710399189803e-05	0.002761304406874753	-0.010499091014612523	-0.0003572261072127258	0.0006812829045742321
2
69800
Ar	-0.00024891006791350373	7.180006736283568e-05	0.003202675105831499	0.010544880841226479	0.012964598127153327	-0.0004883609996395018
Ar	-0.00011267148273689122	-5.5307865387771504e-05	0.0027680546060402343	-0.007058319445443856	0.0028740098075966366	0.00039101419979732286
2
70000
Ar	-9.166175666216012e-05	0.00017648688460587724	0.003204385491821631	0.019695412321377503	0.007090830109223365	0.0007823962613707761
Ar	-0.000150716757929885	-1.64352133070592e-05	0.0027666008144945587	-0.0002488073517581468	0.004552561472203135	-0.0006266589864037296
2
70200
Ar	0.00011394033159057116	0.00020065406159866124	0.0032128144597542846	0.019628677858755057	-0.0025631737237454843	0.0005786584563649162
Ar	-0.00011750341639417273	2.987951310710189e-05	0.0027601206331252966	0.0066674526462538065	0.004380493504265728	-0.0004476600550186553
2
70400
Ar	0.0002667263700836593	0.0001282625092230004	0.003212560915079604	0.00958130314871724	-0.011281888475694094	-0.0006476714630594879
Ar	-2.692538190553834e-05	6.436665595067388e-05	0.0027607175227437773	0.010720116330684962	0.0022138289914758183	0.0005694098078293033
2
70600
Ar	0.000290444367931247	-6.3285604006972066e-06	0.0032030443845122688	-0.004969214800852848	-0.01452177525560891	-0.0009717863068118482
Ar	7.873663788817388e-05	6.971282201023927e-05	0.002768914999723374	0.009467575781371262	-0.001221218507583337	0.0008143304051664611
2
70800
Ar	0.0001754581491840865	-0.00014012001219329147	0.0031995172235004424	-0.017146682774761418	-0.01122754050005797	0.00041941361859446004
Ar	0.00014598037423952848	4.244046266550417e-05	0.00277185732413958	0.0034710238184093756	-0.003938759202833647	-0.0003580779026569949
2
71000
Ar	-2.6802826852235886e-05	-0.00021236007675933896	0.0032084331064194246	-0.021630008956965912	-0.002480810286448307	0.0009975520869330216
Ar	0.00014357527800133303	-3.6532246889986554e-06	0.0027641759791102827	-0.0039475968039836655	-0.004954869283783216	-0.0008772409979139106
2
71200
Ar	-0.00022006085554962635	-0.00018379400477290127	0.003213469197711946	-0.015276281472996893	0.008009718073701407	-0.0001539895206857903
Ar	7.22064347481628e-05	-4.9786758847497054e-05	0.0027592770154049834	-0.009773440641097388	-0.0038859365956099294	2.928085992583746e-05
2
71400
Ar	-0.0003062360686812698	-6.595305414411815e-05	0.0032059849627035096	-0.0012783077356291431	0.014531390362020892	-0.0011325194240033273
Ar	-3.6436054607414966e-05	-7.453128658822873e-05	0.0027645539595575865	-0.011005702319939501	-0.0008244838079636411	0.0008742677974990875
2
71600
Ar	-0.0002450068893701038	8.400141164890631e-05	0.003197071600330595	0.012984437215088634	0.014289590595113364	-0.0003212498255238301
Ar	-0.00012842001040985334	-6.467166314763051e-05	0.0027716327740051495	-0.006596997544305643	0.0026736336685462547	0.00025455794227497407
2
71800
Ar	-6.558701726147877e-05	0.0001986638373007583	0.0032015142318706107	0.021519480229164833	0.0076352337315778234	0.0010078183370781258
Ar	-0.000158414960916159	-2.567398884542669e-05	0.0027685849639209224	0.00080752345588222	0.0048608257623907105	-0.0006908921435084641
2
72000
Ar	0.000150014101196774	0.00022183539000044007	0.0032100610989978192	0.019680237828513955	-0.003330098638136561	0.0004237818692402262
Ar	-0.00011329719899649796	2.6127045609059673e-05	0.0027628531752083205	0.007877984284364085	0.005112524940029939	-0.00023162803162511073
2
72200
Ar	0.00029367533076572224	0.00013707748242232847	0.0032078439245725714	0.00783583654109466	-0.012886906570810786	-0.000793499606888055
Ar	-1.2551086858489384e-05	6.82549918723435e-05	0.0027657390873427057	0.011448844362008048	0.0029312309800438668	0.0007580031786378556
2
72400
Ar	0.0002948907597246826	-1.4490713896609925e-05	0.0031986832233919286	-0.007506803467459872	-0.01619987912379614	-0.0006901986214004225
Ar	9.588185333602532e-05	7.912401352062247e-05	0.0027741442826454163	0.009256195183057998	-0.0008434872727573286	0.0006278775956548666
2
72600
Ar	0.00015552621887004016	-0.00016264947536967023	0.0031990644916254107	-0.019343485354462488	-0.012261470479615082	0.0007497026886021809
Ar	0.0001573246909201175	5.3437581317220276e-05	0.002773941933448107	0.0025906333481545505	-0.004045006287720757	-0.0006674722572367283
2
72800
Ar	-6.234906139385129e-05	-0.00023861234537477194	0.0032083601005254156	-0.022355079445449292	-0.0021471647865493352	0.0007346760970510489
Ar	0.0001438067971770695	3.4091356973105937e-06	0.002765493116809168	-0.005217528639501909	-0.0056339464660470715	-0.0007399882071331379
2
73000
Ar	-0.00025245549691626433	-0.00019998826128854306	0.0032090440355090153	-0.013966952823871927	0.009559266913918136	-0.0006415377838354728
Ar	6.039371572903214e-05	-5.099319944430629e-05	0.002763437310418458	-0.010777310714606643	-0.004754477972868807	0.0003728156418136882
2
73200
Ar	-0.000318711260890678	-6.399315751244327e-05	0.0031981872006286104	0.001155602620826429	0.016450409596711547	-0.0012220293164599697
Ar	-5.4161829616930924e-05	-8.337640603523676e-05	0.0027711317775031548	-0.011110721479928273	-0.0014262865470977522	0.0009273436730116221
2
73400
Ar	-0.00023303434239411246	0.00010375591170671196	0.0031921139242403547	0.015298954059741951	0.015852859978151387	0.0002767518759991942
Ar	-0.00014211448025973933	-7.7162405891681e-05	0.0027758849688169275	-0.005728059306640611	0.002537718353477093	-0.00021152554811240093
2
73600
Ar	-3.474910169341817e-05	0.00022808479405627273	0.003201476561480492	0.02277073125540436	0.007853636623169884	0.0012332905778524267
Ar	-0.00016077625271455263	-3.6486692399042835e-05	0.0027690933479932204	0.0021253222495501998	0.005384419106512445	-0.0008668966067512316
2
73800
Ar	0.0001838121459452569	0.00024538713065542595	0.003209768754436209	0.01895291751798142	-0.004645114870087048	0.00017774367262683374
Ar	-0.00010229262648078785	2.319677075797256e-05	0.0027642203579696318	0.009104205555715405	0.00611361319418938	5.8320636339653805e-05
2
74000
Ar	0.00031200551244358937	0.00014301057451565649	0.003204039330505888	0.005623914734471539	-0.014914963774292292	-0.0011427942996086091
Ar	6.890521330996131e-06	7.503201863324322e-05	0.002770550036627325	0.011807648430016625	0.003769992390538342	0.0010658375585245136
2
74200
Ar	0.0002892393689416838	-2.8539961074769066e-05	0.0031938517048013698	-0.00990229257280581	-0.018069602537794136	-0.0004943791048440314
Ar	0.00011329338235278678	9.198970102303466e-05	0.002779882043969908	0.008489861820182524	-0.0005076077431801379	0.00044968322056090486
2
74400
Ar	0.00012893943832536858	-0.00019147868227953715	0.003197430931472668	-0.020982871369299386	-0.013158364837484657	0.0010049368391259665
Ar	0.00016341475551971162	6.679434107543871e-05	0.0027764409038850604	0.0011837725363603618	-0.004333610406501919	-0.0009489145785266071
2
74600
Ar	-9.680618295133395e-05	-0.00026791144736279987	0.0032065817562884316	-0.022157996346908557	-0.0012858711207703857	0.00046308452541306424
Ar	0.0001356572283709597	1.0565543690739432e-05	0.002767605104937741	-0.006567613445630518	-0.006536388876890727	-0.0005438107837222157
2
74800
Ar	-0.0002755071948469427	-0.0002138971171199058	0.0032039918227675843	-0.012009031679736956	0.011613396332705302	-0.0009366564754428354
Ar	4.2155649739330635e-05	-5.3773398229235776e-05	0.0027681280137701447	-0.011385885557089663	-0.005761300819409245	0.0005989240988323475
2
75000
Ar	-0.000318734216787649	-5.59968904201336e-05	0.003192808106011703	0.0035742424405351045	0.018618780689857346	-0.000919575714366412
Ar	-7.290770837707875e-05	-9.442245187736408e-05	0.0027763104083157195	-0.010543619779181435	-0.0020139188908853407	0.0007238508817687505
2
75200
Ar	-0.0002111473940137023	0.0001308820840629057	0.003192216488119733	0.017161731236585674	0.0173352004882631	0.0008549247928077962
Ar	-0.00015086476451403464	-9.125763203764142e-05	0.0027775150393479484	-0.004435216425536167	0.0025840268522728175	-0.0005572208741814039
2
75400
Ar	-9.570411024914766e-07	0.0002616918220995006	0.003203802265808247	0.023136208798762145	0.007524853735117914	0.0010539548954901308
Ar	-0.00015605115801044413	-4.572984869607149e-05	0.00276945442914293	0.0034389157530009336	0.0062483828838074225	-0.0007041518491324654
2
75600
Ar	0.00021137609989293585	0.00026648965574594405	0.0032071170549547974	0.017409984845370336	-0.006654123528166549	-0.00047902271483235917
Ar	-8.67080665365463e-05	2.438013718872797e-05	0.002767902481631261	0.009883332564875398	0.007197937995266883	0.0004421439643175261
2
75800
Ar	0.00031867619891480617	0.00014090597765654373	0.003196441993937552	0.0032260421308147294	-0.017331331685741785	-0.0013083292558717329
Ar	2.561883001864511e-05	8.566144285122873e-05	0.002776803131567683	0.011587943622564418	0.004479394431649819	0.0010832285268102004
2
76000
Ar	0.00027346596703217637	-5.2490750353642976e-05	0.0031887668509534743	-0.011848570172215765	-0.019911111140889434	9.522719874128619e-05
Ar	0.00012429154742187108	0.00010653031869009212	0.0027832664875795127	0.007286106397525125	-0.00042285428329423406	-8.087357258265991e-05
2
76200
Ar	9.859605437717636e-05	-0.00022734193304854946	0.0031975019892397094	-0.021814955878613485	-0.013461400312650201	0.0012697722295476528
Ar	0.0001610392731553183	7.829541605142363e-05	0.0027758226451482597	-0.00015414016189571316	-0.005042070323268513	-0.0010746776809102778
2
76400
Ar	-0.00012645632689544373	-0.000296101393555853	0.00320636939529584	-0.021164760256138757	0.00042799803943077697	0.00023610986462230824
Ar	0.00012133497219429543	1.175048468151225e-05	0.002767961054260634	-0.007507165813985075	-0.007772133507396937	-0.00026051086952280037
2
76600
Ar	-0.0002879712192010583	-0.00021928790308460311	0.0032007845070718423	-0.009794018534768911	0.014207108612148439	-0.001171109147920517
Ar	2.2481215794036686e-05	-6.408546687592646e-05	0.0027716365883259622	-0.011440928551293517	-0.00672488686999892	0.0008763419048147947
2
76800
Ar	-0.00030888655121855677	-3.658946232982695e-05	0.003189426305155603	0.005637045324618863	0.020882954886134838	-0.0006734152670328032
Ar	-8.771153489391158e-05	-0.00011083262328753787	0.0027801686716945146	-0.009563491401983155	-0.002217466722401812	0.0004938791654430914
2
77000
Ar	-0.00018415957808371955	0.00016745304812994724	0.003192393992567718	0.018428316146087382	0.018284005002705876	0.0010750248617289822
Ar	-0.00015326307539523	-0.0001058099938968434	0.0027784424388246627	-0.003090854943561233	0.0031793865128323796	-0.0006925415699082966
2
77200
Ar	3.1115919984035e-05	0.0002967508780335797	0.003203087049393224	0.0227429076328229	0.006288072908592329	0.0006638418266865415
Ar	-0.00014557741066935847	-5.078908660930458e-05	0.0027721172174489674	0.004646389268988168	0.007468502434498378	-0.0003047226809195315
2
77400
Ar	0.00023103847196286748	0.0002811787693437092	0.00320211092115716	0.015480029414911677	-0.009243960547328506	-0.0008515936146648237
Ar	-6.773074419720696e-05	3.203891874071795e-05	0.002774499281873662	0.010294829347066367	0.00833620451089569	0.0007630783266262734
2
77600
Ar	0.00031619168699760535	0.00012853586701338672	0.003190801010108438	0.0010227861195644828	-0.019948965253000373	-0.001002683823152201
Ar	4.310145000419523e-05	0.00010140356981625549	0.0027840408407664393	0.010860988685532418	0.004884516100700183	0.0008384306423098381
2
77800
Ar	0.0002521410836485015	-8.709970435821834e-05	0.00318939445426551	-0.013382204297006936	-0.021540695605913665	0.0008345213543625957
Ar	0.00013017730706410088	0.0001224759813634174	0.002784689613329966	0.005898688475994638	-0.0007712397677142146	-0.0007667879332532093
2
78000
Ar	6.761040569611551e-05	-0.0002676188842958827	0.0032013391366730757	-0.022044968558211576	-0.012840145641695376	0.0010870996935430823
Ar	0.0001532351854869917	8.695292088206005e-05	0.002773641084424491	-0.0014137160837076124	-0.0061740982988233	-0.0010521772158035958
2
78200
Ar	-0.0001510902496385727	-0.00031956041039760445	0.0032048811923182756	-0.019695946516036907	0.002959189126988313	-0.000500301111064794
Ar	0.00010347206166045192	7.254192652549335e-06	0.002768845864575209	-0.008155747071130379	-0.00909324167420162	0.00020162945659138855
2
78400
Ar	-0.00029345181751358587	-0.00021421782711003102	0.003193359242278122	-0.007659494047638093	0.01708733486404349	-0.001508011558049949
Ar	2.823121920513683e-06	-7.937990462860723e-05	0.002776590545710572	-0.011067739675263095	-0.007422489828113722	0.0011147720918810245
2
78600
Ar	-0.00029455291277329256	-6.250532026494823e-06	0.003183697354147303	0.007299995183379058	0.022937490469839877	-2.770148190297155e-05
Ar	-9.818901478215895e-05	-0.0001282278072928443	0.002784563966238132	-0.008212739968710229	-0.0020065746217843286	0.00013462893686086105
2
78800
Ar	-0.0001572795891178607	0.00021050982756761158	0.0031925831762105224	0.019158179537657787	0.01852979027121299	0.0013985650412639812
Ar	-0.0001487239674056014	-0.00011769118662284132	0.0027791268789343756	-0.0015944734281743583	0.004106021268879505	-0.0008725727097816604
2
79000
Ar	5.767008584479203e-05	0.0003299533474476246	0.0032025893813314786	0.021890111749354825	0.004189148247184937	0.00032548049216630435
Ar	-0.00012845177663262572	-5.036630016529389e-05	0.0027734091778372984	0.005515049750292783	0.008850592161036522	-6.019652916082088e-05
2
79200
Ar	0.0002430135450520998	0.00028670444457931286	0.0031979701823971465	0.013551312376549288	-0.01240658845274818	-0.0011169614505096472
Ar	-4.657153352035025e-05	4.4591626368534596e-05	0.002778536380875341	0.010174352405607722	0.009300653318113158	0.0009717817500101828
2
79400
Ar	0.00030869793383172574	0.00010443526602844534	0.0031869189098592955	-0.0007544807253581586	-0.022502571390695447	-0.0006439898087746832
Ar	5.756747289181201e-05	0.0001191586930270762	0.0027879817355241586	0.009680946965435894	0.00495983097576761	0.000512401537683242
2
79600
Ar	0.00023011967686771702	-0.00013023690467581372	0.0031902572855936925	-0.014472411134519624	-0.02256841291065006	0.0011561798993407878
Ar	0.0001303123992840951	0.00013698978275414857	0.002784518295693026	0.004376788227811409	-0.0014998249049460862	-0.0010786664540260815
2
79800
Ar	4.0341481610652745e-05	-0.000308098162144451	0.003201477048769675	-0.021842438978758986	-0.011275544802540718	0.0006885152130186262
Ar	0.00013995995248704675	8.991426501587515e-05	0.0027737370178668994	-0.00253030165357786	-0.007600954512419518	-0.0007391992371806648
2
80000
Ar	-0.00016906691802911586	-0.0003345587728956058	0.003200153279974737	-0.018149925620601453	0.006175739130848441	-0.0009404053608061363
Ar	8.322071270670173e-05	-3.5537242851763873e-06	0.002773079695821377	-0.008367780913760696	-0.010274565242565346	0.0006010796005179813
2
80200
Ar	-0.00029311312057702206	-0.00019667603319207624	0.00318706481775609	-0.005778698477047432	0.020067446417385625	-0.0012538486426518492
Ar	-1.3864263266950725e-05	-9.770064076125507e-05	0.0027826593980796077	-0.010161474459005048	-0.007687211819384667	0.0010001963517478744
2
80400
Ar	-0.0002785464575461619	3.535918886165872e-05	0.003183431304904907	0.008572026241742258	0.024621399773282548	0.0007226426551694864
Ar	-0.00010162852342550893	-0.0001446806101266982	0.0027863131827495125	-0.006618700045361353	-0.0014237149727376794	-0.0004359129419045616
2
80600
Ar	-0.00013265300793945489	0.00025648076989553443	0.0031959531917908337	0.019483450805774693	0.017570989132987554	0.0012855892243939333
Ar	-0.00013773141096267832	-0.00012405120214884296	0.0027781195309846975	-0.0003992037294527786	0.005526933582018246	-0.0008361360673572309
2
80800
Ar	7.847712444344654e-05	0.00035421626258418516	0.003202043127527323	0.020841814927139744	0.001031897236090728	-0.00020314809223682972
Ar	-0.00010917993992882065	-4.1726504789871476e-05	0.002775081166830482	0.005905943192915178	0.01026293033417917	0.00030503647738699643
2
81000
Ar	0.00024886367545973685	0.00027656056713276953	0.0031931688029552307	0.011830735282613688	-0.015746690081675164	-0.0013250032509681735
Ar	-2.8748458904177892e-05	6.38530741799147e-05	0.002782861515232476	0.009493738974107187	0.009911270932694735	0.0010678621747265285
2
81200
Ar	0.00029882125811541685	6.63961201445918e-05	0.00318393160262909	-0.0020727326005573234	-0.02463303967555964	-9.079960243445965e-05
Ar	6.394360821079075e-05	0.000138860539367925	0.002789749287057421	0.008133058655937993	0.0044871454864537155	-2.064162285855121e-05
2
81400
Ar	0.00020994082268867235	-0.0001792448818225804	0.003191610488484385	-0.015154996770695964	-0.022446315577520394	0.0012419383353436879
Ar	0.00012165953849142306	0.00014767582759400618	0.0027825293274097874	0.0030907848272971423	-0.0028151960619538746	-0.0011208803174598825
2
81600
Ar	1.901989693917478e-05	-0.0003419778316535439	0.0032002241757403825	-0.02131712979371549	-0.008525708095640015	0.0002236727796335023
Ar	0.0001218114339053998	8.535449703695731e-05	0.0027742769296459015	-0.0030899877230638213	-0.009195573973054646	-0.00032082271456535774
2
81800
Ar	-0.00017962863460391736	-0.0003349434133993269	0.003194937572612445	-0.016662045239682646	0.009796241092511804	-0.0011632874506944646
Ar	6.44537296696287e-05	-2.1212413178552742e-05	0.002777406220822575	-0.00792556260116479	-0.011176233430170206	0.0008602789601579307
2
82000
Ar	-0.0002886582166512143	-0.00016493229683009532	0.003183105731567981	-0.004429289166401866	0.022694036243534596	-0.0007271501340165473
Ar	-2.3358610632748002e-05	-0.0001184539376596399	0.0027867673953497827	-0.008808987813142268	-0.0073922246742208104	0.0006556461176208751
2
82200
Ar	-0.0002629747216568083	8.456404715754493e-05	0.003186033965220008	0.009459566254808946	0.025310652204544086	0.0012003600733218967
Ar	-9.631239522118291e-05	-0.00015817774717464208	0.0027856833610239553	-0.005244657425928699	-0.0002937573820828832	-0.0007718394794460907
2
82400
Ar	-0.00011193159112316053	0.0002987606363851638	0.003198823432608624	0.01951696388273072	0.015498722743836001	0.000915590952570521
Ar	-0.00012173232299573806	-0.00012278012211910466	0.0027776739232857773	0.0003470893107579344	0.00718419950434589	-0.0005158516443247453
2
82600
Ar	9.373175022627511e-05	0.00036611904518473045	0.0031998828686439786	0.019760337271330135	-0.002600162866214272	-0.0007369645627215484
Ar	-9.005746382731306e-05	-2.5163442299815682e-05	0.002778448216919379	0.0057732504006684894	0.01148040977877209	0.0006604005485506916
2
82800
Ar	0.00025056343091657356	0.00025325439571503166	0.0031879377687503217	0.010410680565876709	-0.018839915749068514	-0.0012667414968386172
Ar	-1.537043529779588e-05	8.699821772168107e-05	0.002787916120568589	0.00851269241024954	0.009897035724788969	0.0009281909548273776
2
83000
Ar	0.0002886105349310015	2.019777216609975e-05	0.003183147587144419	-0.0030156215349385973	-0.026037042395360883	0.000518595076027066
Ar	6.428736781818952e-05	0.00015628840930718142	0.0027905242109609895	0.006700565680168804	0.003461078579101178	-0.0005833508581130763
2
83200
Ar	0.00019215457483110493	-0.0002276307847382284	0.003193794782365471	-0.015621522953356616	-0.021265350142892978	0.0011368975658851007
Ar	0.00010969991418806239	0.00015121227776258056	0.002780112651686588	0.0021359922429258797	-0.004529366833462866	-0.0010969917589754294
2
83400
Ar	1.5796775966075053e-06	-0.00036600332012669143	0.003198985954901703	-0.020751778823868177	-0.005127304962245285	-0.0002509723786597557
Ar	0.00010358838464097361	7.164259399546381e-05	0.0027743142027494027	-0.0032979139205575477	-0.01071797834391176	7.937241629089447e-05
2
83600
Ar	-0.0001873102929221811	-0.00032239969891386115	0.003189988050596077	-0.015446500217548717	0.013336323788038217	-0.0012872507000350134
Ar	4.8353977390322535e-05	-4.548553709411289e-05	0.0027811977105183876	-0.007288364217606612	-0.0116448919809524	0.0010821163074245354
2
83800
Ar	-0.0002847546185995893	-0.0001242343743941645	0.003181327983552125	-0.0034402020892775696	0.024693730304071345	-4.4897453882133315e-05
Ar	-2.888273922701728e-05	-0.00014061439561869428	0.0027896855542596283	-0.007389634183991442	-0.00657884361641654	0.0002923507985941155
2
84000
Ar	-0.0002506342559082037	0.00013521816429218995	0.003189942854219052	0.010142390025603507	0.025084498699148625	0.0013643636199964732
Ar	-8.7791002697157e-05	-0.00016787473415200786	0.0027856680808944485	-0.0040441142406616145	0.0013461168928276404	-0.0008274872288750913
2
84200
Ar	-9.591972086884518e-05	0.0003332286899719734	0.0032000867828355264	0.019459147036679378	0.012631202233000162	0.00034610482145526825
Ar	-0.00010477724603517974	-0.00011407557012540708	0.0027796372372615717	0.0007739608005672739	0.009017506961899487	-0.00017082917042589386
2
84400
Ar	0.00010483921071178026	0.00036592389532554454	0.003195120691077623	0.01892961197191441	-0.006310982077677039	-0.0011927866411752125
Ar	-7.300943003932185e-05	-2.2779064204270027e-06	0.0027832700499704163	0.005341771433400442	0.01236330275283797	0.0008082105484208496
2
84600
Ar	0.00025239809306827567	0.00022056325318903968	0.0031825866646903486	0.0095404402664173	-0.02141599141404304	-0.0008634759615810246
Ar	-6.781291119232319e-06	0.00011156408616851458	0.0027913473903697335	0.007262895454720021	0.00932874117660473	0.00045732952395712934
2
84800
Ar	0.00028303747490748897	-2.9486302159979666e-05	0.003183872575961054	-0.0037493713586931603	-0.026690168996284677	0.0010237655015066915
Ar	5.873337825443819e-05	0.00017005165771028345	0.0027878197234295	0.005356056209328937	0.0019730780699056196	-0.001057948631643905
2
85000
Ar	0.0001802867770963267	-0.00026988104336214566	0.003195372032647109	-0.016012146068326644	-0.019140248831492665	0.0008822254445314266
Ar	9.413925297492329e-05	0.00014731192099866276	0.0027768262765012737	0.001503121907612678	-0.006432657549113442	-0.0008015381296967757
2
85200
Ar	-1.0377510910469395e-05	-0.0003777629047899631	0.003196864724482004	-0.02041055335212165	-0.0015035949779760422	-0.0006151844686941726
Ar	8.621440369655706e-05	5.108006014590352e-05	0.00277533165248152	-0.003042149250442049	-0.011985200071036322	0.0005127048030249976
2
85400
Ar	-0.00019331161663603078	-0.00029931274420873103	0.0031865626333146477	-0.01469763572921241	0.016319495572640123	-0.0011085685737729739
Ar	3.7742278660778824e-05	-7.19595592905288e-05	0.0027844927064091763	-0.006235666021232572	-0.011505714407161303	0.0010554638999594418
2
85600
Ar	-0.00028400730769302516	-7.876616930974191e-05	0.0031826575989225194	-0.002800469737230565	0.02608249435702206	0.000511951693326647
Ar	-2.694520584720279e-05	-0.0001592906638356081	0.0027898732221526205	-0.006083579025641095	-0.005311512504158788	-0.00018878311760970242
2
85800
Ar	-0.00024270668764041564	0.00018264260952796023	0.0031931646617009493	0.010886592253479757	0.023931293696903066	0.0011406133322316586
Ar	-7.567512508270924e-05	-0.00017055154863366567	0.0027837685329789577	-0.0033797700561548232	0.003197067242789127	-0.0006758635846343273
2
86000
Ar	-8.305747487391824e-05	0.0003567559506304388	0.0031986481709842932	0.019600437704279456	0.009272861022110482	-0.00021502717231241294
Ar	-8.965749230506943e-05	-9.89197129096636e-05	0.0027809406578570193	0.0007337321471166425	0.010546539075334399	0.00020953814956098474
2
86200
Ar	0.00011557246195891224	0.0003533047033675768	0.003189679095033622	0.018420101464152624	-0.009777300058981905	-0.0013168324604917185
Ar	-6.184821121209464e-05	2.2817346559274623e-05	0.0027869687007313227	0.0045957264422236705	0.012707028646803318	0.0008471441869964417
2
86400
Ar	0.0002571285467189896	0.00018060461727579751	0.003180149773550384	0.008940455191460335	-0.023322636652585434	-0.00020505319723900477
Ar	-5.731500243057702e-06	0.0001329359423900617	0.002792435259277941	0.0060394039047070806	0.008343476134786353	-5.210786486243522e-05
2
86600
Ar	0.00028096363555620913	-7.856702030180964e-05	0.00318701136412619	-0.004550656813596512	-0.026441041252648873	0.001267111376784397
Ar	4.9145152183580575e-05	0.00017770040317312337	0.002784910156814384	0.004589328419341139	0.00029413847269369543	-0.0011609807797196142
2
86800
Ar	0.00017044371309566704	-0.0003028871903626449	0.003197073391751054	-0.016631612689695742	-0.016322895645151554	0.000431907610087766
Ar	8.054059698007338e-05	0.0001367861228779462	0.002776010214502384	0.0014583559295364991	-0.008196143808657689	-0.00038792893362157
2
87000
Ar	-2.2778043026254706e-05	-0.00037639256342404003	0.0031935703155529416	-0.020300240323214584	0.0021661153777144176	-0.0010100680839716688
Ar	7.547129903087725e-05	2.7062887052984454e-05	0.002778613132715461	-0.002470977304193314	-0.012781211709819107	0.00083116873825917
2
87200
Ar	-0.0002023486353047027	-0.0002663155504013788	0.0031825615923870517	-0.014255322377772689	0.018752800318955425	-0.0007600792813774313
Ar	3.481498121741589e-05	-9.671720550963145e-05	0.0027882045361372378	-0.005240570937463625	-0.010839356056004716	0.0007755630984136203
2
87400
Ar	-0.00028777093712145413	-3.063341189523947e-05	0.00318399095904993	-0.002110927035280765	0.026597941534454942	0.0009989244270579341
Ar	-1.939427607904361e-05	-0.00017202263280329357	0.0027889208951842057	-0.0051757232754877204	-0.003693081955226043	-0.0005611443092104674
2
87600
Ar	-0.00023795724973067485	0.00022306238143673162	0.0031954926906671804	0.011763538308190704	0.021832163455652875	0.0008790627867356645
Ar	-6.256321727410137e-05	-0.00016467455102813235	0.0027821662702408605	-0.003184234988114523	0.005180971818689689	-0.0004995697598634279
2
87800
Ar	-7.165905151111804e-05	0.00036731133315078804	0.003197249338571695	0.019999473289480717	0.005737641797957116	-0.0005691761414261392
Ar	-7.795406070092061e-05	-7.607704534837013e-05	0.0027820889951162865	0.00025779433004550974	0.011789041185238526	0.0004750950661656328
2
88000
Ar	0.00012786062133378495	0.0003303342258199646	0.0031872870971983605	0.01823922540089882	-0.012628994864112826	-0.0011152758658375598
Ar	-5.707905304051752e-05	5.092685279418203e-05	0.0027895613778468925	0.003735203405115324	0.01244855820280875	0.0007827737666311571
2
88200
Ar	0.00026624467420849004	0.00013696371695990346	0.003182336395857114	0.008432165087642694	-0.024533733779168572	0.00035337066293721677
Ar	-1.0727833711970997e-05	0.00015155539949706582	0.0027917661392731297	0.005071545466533374	0.006848373350355986	-0.0005125269376555274
2
88400
Ar	0.0002818066118912088	-0.0001237711640090774	0.003190878610118074	-0.005654132060995224	-0.025351101504579275	0.0009606380024336433
Ar	3.733834474574026e-05	0.00017809352313474734	0.0027822894078507617	0.004269595773596738	-0.0017804857246176576	-0.001045636775516785
2
88600
Ar	0.0001605933658502556	-0.00032556195587706054	0.0031952923205146528	-0.017531112883453943	-0.013174649323125748	-0.00019638320973698473
Ar	6.905612325225763e-05	0.00011786869721294655	0.002775997779182568	0.0017744107840500386	-0.00979589887302687	-3.4905644764582706e-05
2
88800
Ar	-3.7930953007599306e-05	-0.00036544955696250227	0.0031876108820771483	-0.020449524455316035	0.0054166235777942245	-0.0010959617388418426
Ar	6.954245921712261e-05	-1.5809105711650557e-06	0.002781561049990346	-0.00173158629544227	-0.013040101402654247	0.0009946332370471965
2
89000
Ar	-0.00021631697809743825	-0.00022964880201899844	0.00317983004316555	-0.01392098418510302	0.02053998508864524	-9.743820818129157e-05
Ar	3.757452847250166e-05	-0.00011972735611352548	0.0027901721542523657	-0.004309682859517247	-0.009558267525166135	0.0004123435532512956
2
89200
Ar	-0.0002958349096933249	1.4988724642060534e-05	0.003187256752972081	-0.0011936929223653379	0.02647404255669721	0.001300831257045086
Ar	-9.068428737128823e-06	-0.00017816308469388386	0.002787717131121852	-0.004725276937383579	-0.0016835278659591856	-0.000677978839304414
2
89400
Ar	-0.0002345798439389208	0.00025545355228757857	0.003197664098657978	0.012973496802183572	0.019396857563779187	0.000500108502878506
Ar	-5.1315538837267305e-05	-0.00015042228493992492	0.0027824032935524013	-0.0034067951148798858	0.007058219581024349	-0.0001808172345943662
2
89600
Ar	-5.8593847343654247e-05	0.0003693256582891368	0.003194925496406491	0.020622918095576048	0.0024438166832838034	-0.0009554746250605744
Ar	-7.143388721942135e-05	-4.8051747344305606e-05	0.0027854132915634245	-0.0003997524669538837	0.012514914213232892	0.0007074882550979081
2
89800
Ar	0.00014344104782328815	0.0003030535378249424	0.003183681301287707	0.01818095893210433	-0.014959393326157415	-0.0008944414580994059
Ar	-5.810727618179518e-05	7.831507199850927e-05	0.002792624958467137	0.0029024717505569944	0.011609884937599029	0.00041370977036230434
2
90000
Ar	0.0002786421024292221	9.421027149209085e-05	0.0031827807075744423	0.00779416133723255	-0.02524430159798619	0.0007142017344366249
Ar	-1.9487813544656705e-05	0.00016467015358941257	0.002789563832010903	0.004508525627697707	0.0050183668569548775	-0.0009648337945417282
2
90200
Ar	0.00028405842649622696	-0.00016196486705351664	0.003191927702328051	-0.006928284205583197	-0.02370844216642811	0.0007692621816449201
Ar	2.6649280145488288e-05	0.0001712471374057667	0.002778966773736172	0.004417050402035182	-0.0037947182809099415	-0.0008367543776409875
2
90400
Ar	0.00015075600309413193	-0.00033837382548176817	0.0031934360352216724	-0.018530100855062917	-0.010006365439606254	-0.0005214358261277823
Ar	6.245955508072244e-05	9.41956775151475e-05	0.002776423343788216	0.002402530761234088	-0.010968500088087701	0.00038444251354669684
2
90600
Ar	-5.431392012211335e-05	-0.0003471668707590854	0.0031846971291578908	-0.020729978688828914	0.008152696578457793	-0.0009235969736397881
Ar	6.976643313625146e-05	-2.987578851421507e-05	0.0027845392142437733	-0.0010011166740846965	-0.012715918781750829	0.000978504760843414
2
90800
Ar	-0.00023253933626844926	-0.00019119879360146136	0.0031816393202624706	-0.013588043956140423	0.021782874106370018	0.0005143401328422749
Ar	4.501111533670394e-05	-0.00013767405634747295	0.0027901496550832537	-0.003690490619745851	-0.00795292838195159	-4.746074612436572e-05
2
91000
Ar	-0.0003041506663773653	5.62734630630071e-05	0.003191565114509593	5.82800184764118e-05	0.02567238755119992	0.0011003598852997864
Ar	1.3793004833481564e-06	-0.0001777509945047201	0.002785433919139089	-0.00478011540442482	0.00025603781060973486	-0.0006161317947192444
2
91200
Ar	-0.00022913517770636627	0.0002779984704858507	0.003197471038274872	0.01432104623527842	0.01664675842706695	-0.00010079597655004288
Ar	-4.45993391703835e-05	-0.00013201594026848582	0.002782327459596655	-0.003995670656662096	0.008533578844021712	0.00012220770332404401
2
91400
Ar	-4.260229365973847e-05	0.00036132510121134265	0.003190065244676773	0.021309121108848302	-0.000577809159074761	-0.001185369584481884
Ar	-7.13629556567599e-05	-2.084918242426509e-05	0.002787263692790583	-0.001079554732610808	0.012682588356219895	0.0007467314301668621
2
91600
Ar	0.0001626182400585083	0.00027098121177375457	0.0031807067608281515	0.018170272009659746	-0.016625930248159962	-0.0003171274382208981
Ar	-6.450591406398247e-05	9.939559512076485e-05	0.002792578314455747	0.002334853874925102	0.010274740204929526	4.948952578811503e-05
2
91800
Ar	0.00029373911572396557	5.359928731496061e-05	0.0031854076498531877	0.0068853599266867046	-0.02520471648437645	0.001025521478465993
Ar	-2.934235002126364e-05	0.00016887965848620302	0.0027865895106813105	0.004466916319885858	0.003120550279748061	-0.0010346095072643643
2
92000
Ar	0.00028619351342422405	-0.00019193857588134205	0.0031943779037952058	-0.008456972718613778	-0.02169104932735595	0.0004997367068488594
Ar	1.9738697188008137e-05	0.00015666056774936215	0.002777819104918557	0.0049721272241896874	-0.005497381729281632	-0.00047321949815644723
2
92200
Ar	0.00013856237732619194	-0.0003424135778686043	0.003192886993231084	-0.019697084085313933	-0.007106704088676411	-0.0007631838178326939
Ar	6.199371517302725e-05	6.74667198689624e-05	0.002778869056934207	0.003088028561146203	-0.01159488715353214	0.0006427317074156412
2
92400
Ar	-7.430882541346243e-05	-0.0003251913976992034	0.0031837207602371112	-0.0211289612058113	0.010244659720762167	-0.0007319840958986592
Ar	7.591799721965307e-05	-5.5178697895767726e-05	0.0027873513457718742	-0.0004361360643957292	-0.01180807726239136	0.0007518781768063956
2
92600
Ar	-0.00025251711880246934	-0.00015504083722936047	0.0031837744845816004	-0.013119270788408582	0.022521657407636186	0.0007447266592637221
Ar	5.4842542933676046e-05	-0.0001484953143778414	0.0027894781956635407	-0.003571648109712184	-0.006142701111754138	-0.0003529322449683724
2
92800
Ar	-0.0003134059344612604	9.059959668006546e-05	0.0031932362698376283	0.0016186969984173546	0.02447984445205865	0.0007869138874463484
Ar	8.96727596622698e-06	-0.00016931409842290494	0.002784362569554783	-0.00532477259978451	0.002173515267238876	-0.0004073742225413745
2
93000
Ar	-0.0002216807361575638	0.000292150567321576	0.0031949191519863806	0.015892463246406807	0.014035020993125783	-0.0004926178641336622
Ar	-4.367396078547992e-05	-0.00010787440800113925	0.0027842182282739516	-0.004717001524394731	0.009619962853386111	0.000399731099782722
2
93200
Ar	-2.3022449157100657e-05	0.0003491012750863746	0.003186084799409065	0.022127010119783616	-0.0029456348357650712	-0.000991654835714525
Ar	-7.698982923093596e-05	6.687450349075237e-06	0.0027906089324274135	-0.0016487812858219009	0.012265930580465503	0.0006446419471610878
2
93400
Ar	0.00018599431909362447	0.00024083783739058915	0.003181537734044613	0.018116019329165546	-0.017828174961154724	0.0002962303778806746
Ar	-7.446541628057976e-05	0.00011551744817199897	0.0027922917779303214	0.002065607273172391	0.008606728290503044	-0.0004552640073730902
2
93600
Ar	0.0003102326640470549	1.870978231704273e-05	0.00318989305575719	0.005547523657478945	-0.02480950622304272	0.0010272243694998842
Ar	-3.890746785507006e-05	0.00016631150032685898	0.0027835317147257583	0.0048739554651087156	0.0011767804775633006	-0.0010089581763765762
2
93800
Ar	0.00028530402819983386	-0.0002136125446262323	0.0031961913390444272	-0.01035786440068988	-0.019564020945283502	5.8164196313040376e-05
Ar	1.690132703059513e-05	0.0001366664706917417	0.002777423885502709	0.005834839845329857	-0.0069042070129786085	-8.933298983729911e-05
2
94000
Ar	0.00012108667585538419	-0.0003393901962657207	0.003190815163892946	-0.020989861169923223	-0.004597068869545546	-0.0009730215406966992
Ar	6.748825703774124e-05	3.966430894918795e-05	0.0027817715578656514	0.003827420834238853	-0.01164108807119354	0.0008270003403701763
2
94200
Ar	-0.00010004210279921343	-0.0003012211308403283	0.0031823982137174685	-0.02147166908282809	0.011774405620918457	-0.0003506786010542083
Ar	8.644069996882859e-05	-7.596007312591911e-05	0.0027893478106124016	-0.00015005110210601652	-0.01042810678952437	0.0004077120295317707
2
94400
Ar	-0.0002760122586527998	-0.00012198884019802213	0.0031860402661348223	-0.012220765242064922	0.022718223724667277	0.0008793403529425147
Ar	6.564704789880727e-05	-0.00015234764554186047	0.002788193059742511	-0.0038682483817956874	-0.004263154203865171	-0.0004763396924426837
2
94600
Ar	-0.000322256553929262	0.00011703039303592706	0.00319366834128237	0.003511369068964218	0.023011145893861523	0.0004012495743334423
Ar	1.3586356483638896e-05	-0.0001550381861592691	0.0027841417121079975	-0.00615332204472359	0.003776168356640187	-0.00015968366226467833
2
94800
Ar	-0.0002111242582891082	0.00029838724771874493	0.003191788144763486	0.017674859941581782	0.011716299172210377	-0.0007265616650953727
Ar	-4.749756965279225e-05	-8.269741077118524e-05	0.002786242956070403	-0.00550724000357444	0.010086196350258765	0.0005371029384359484
2
95000
Ar	7.20896311677217e-07	0.0003338129460813022	0.0031835185155454637	0.02291600176631994	-0.004710224145638842	-0.0006134728882112046
Ar	-8.675635098262567e-05	2.9401898041361962e-05	0.0027917918166879517	-0.00201559160806421	0.011311747276352927	0.00034242322300946274
2
95200
Ar	0.00021227184696088894	0.0002128161656774563	0.00318414817559903	0.017751021791920903	-0.018569908887187764	0.0007526942852864769
Ar	-8.541004211357695e-05	0.00012411522185768188	0.00278965058365956	0.002261047155821206	0.006901665092427288	-0.0007412978277061512
2
95400
Ar	0.0003254593145997828	-9.762704883028454e-06	0.0031932678288091165	0.003778729015056715	-0.02407424296743759	0.0007481306319904019
Ar	-4.4268142135263076e-05	0.00015771095690443466	0.0027807287329290496	0.005712351529883022	-0.00046841402598030396	-0.000756803971027495
2
95600
Ar	0.0002798464861204241	-0.00022738959505971102	0.0031947212923053255	-0.012486015322113684	-0.017546871548874608	-0.0004722938674275118
Ar	2.0394828408173393e-05	0.00011537613345025036	0.0027780090632844225	0.006661732694497901	-0.007659507933865994	0.0002634412749236914
2
95800
Ar	9.813629247676664e-05	-0.0003325209330875931	0.0031862413029997167	-0.02222434414933314	-0.0026959651250764716	-0.000966641214811831
Ar	7.75416635082844e-05	1.6565348314196413e-05	0.002784209176730049	0.0042335929000359065	-0.011222025195577641	0.0008066763546046682
2
96000
Ar	-0.0001287880499024717	-0.0002794352935240167	0.003181213662118527	-0.021450330278740402	0.012813912010966854	0.00015824415226364173
Ar	9.769345481687576e-05	-8.872117841270217e-05	0.0027893096768215916	-0.00032571585655999196	-0.008966991897872704	4.3368565611205755e-05
2
96200
Ar	-0.00029762493395306606	-9.473497825785288e-05	0.0031882760397303456	-0.010773953441979876	0.02269909230802104	0.0009895812219051334
Ar	7.234088937541986e-05	-0.00014896041639796028	0.0027860847759923254	-0.004605733867876655	-0.002648545091258315	-0.00047049914702745747
2
96400
Ar	-0.00032400816942257913	0.00013694065381196656	0.0031949109400208663	0.005787504010879861	0.021577863074921714	0.00014709486907681703
Ar	1.1369626071390916e-05	-0.00013750799697937456	0.0027832809602606895	-0.007105256783124133	0.004873681113702158	3.1047267297501396e-05
2
96600
Ar	-0.00019231056055798887	0.0003004401507880652	0.003191045255548398	0.01935708493045145	0.009769383738551109	-0.0008103738995945377
Ar	-5.7663875698977795e-05	-5.937215305134661e-05	0.002786801708670932	-0.006086423690884399	0.01009490610397295	0.0005904099482236309
2
96800
Ar	3.054852224080994e-05	0.00031899687350862133	0.003184008206601401	0.02339232713647785	-0.006076071386532547	-0.00033596443103481083
Ar	-9.972536716794485e-05	4.6882069384798935e-05	0.0027912314340459393	-0.0019659047110052483	0.010176620508716056	8.841605166859531e-05
2
97000
Ar	0.00023991023526275353	0.0001882810948476666	0.0031864800562097484	0.01675446455415282	-0.0191051381154694	0.000689242406525374
Ar	-9.469132756603988e-05	0.0001275409010854371	0.0027870390088074594	0.002945695616855437	0.005357109053140477	-0.0008076340260217162
2
97200
Ar	0.00033671318301042207	-3.342253493286769e-05	0.003192772623269312	0.0016477114191698942	-0.02331321112487147	0.00032344532951968135
Ar	-4.405083108954908e-05	0.00014637590827145741	0.0027799338067213577	0.006807741606022002	-0.0017792121393121123	-0.0004258742101214214
2
97400
Ar	0.00026930246958413646	-0.00023819849329353987	0.0031907121279859526	-0.014489117329167847	-0.01585094070918133	-0.0006880171357469258
Ar	3.0542668853107306e-05	9.456868347715665e-05	0.0027804126723992278	0.0074538376814330875	-0.008146952524839	0.00048818489757930224
2
97600
Ar	7.23571542960161e-05	-0.000325853564575919	0.003182970539392923	-0.023214209919959032	-0.0011131671770216265	-0.0005928491099970468
Ar	9.174551328995313e-05	-3.128061383988803e-06	0.0027871250516611963	0.004231772131866116	-0.010476365566873369	0.0006171683287794027
2
97800
Ar	-0.0001588487513217136	-0.0002601743593031967	0.003183562697137793	-0.021220946119793967	0.013745810975936544	0.000701884296720176
Ar	0.00010896631204250066	-9.702282667175586e-05	0.002788887733335393	-0.0008972235505233689	-0.007546904624369136	-0.0003014325597427372
2
98000
Ar	-0.00031718165384857965	-7.1035765022051e-05	0.003192837541365051	-0.008975115441300127	0.022567184154258187	0.0008373417310833228
Ar	7.449124217551275e-05	-0.00014291385679460252	0.0027843048979551174	-0.0058100619903144945	-0.0012792709289127628	-0.0004009677587761992
2
98200
Ar	-0.0003216632795794737	0.00015303212283324972	0.0031961971363864317	0.008107025791367744	0.02029430500244098	-0.00023721538040258694
Ar	1.908496911308348e-06	-0.00012047633276116715	0.0027835678248865478	-0.00808161090346019	0.005618576321389672	0.00029500204279924174
2
98400
Ar	-0.00016972531398468	0.0003010038855790177	0.0031893284980992888	0.020903375989149174	0.008131144247514906	-0.0009042990480352183
Ar	-7.354443488104768e-05	-3.966828208156612e-05	0.002788820711612316	-0.0063183151864653194	0.009819396077900475	0.0005940421434983163
2
98600
Ar	6.203111478351543e-05	0.00030518831688244283	0.0031835571489771427	0.023646159219068152	-0.007283149228891675	-5.0172351295462385e-05
Ar	-0.00011370135887448132	5.861016862239439e-05	0.0027914892460766095	-0.001446836325588299	0.008969442705553669	-0.00018635503048223672
2
98800
Ar	0.0002666260737708323	0.0001661953976084106	0.003187624237895335	0.015504888991119414	-0.0194850980676743	0.0006366720583009382
Ar	-0.00010031429071841279	0.00012623212723491127	0.0027859135157726088	0.004038705028215628	0.004036466364038134	-0.0007410352277559105
2
99000
Ar	0.00034444729706455693	-5.337425180404492e-05	0.0031919215631883214	-0.0006868287619439592	-0.022494784507257608	7.307292294617551e-05
Ar	-3.79184956206448e-05	0.00013315330157423567	0.002780582264273693	0.0079309303987808	-0.0027190228990709837	-0.00017632853030908499
2
99200
Ar	0.00025434824538440013	-0.00024564032913000096	0.0031884432936296133	-0.01646586742319288	-0.014348946146723496	-0.0006349044491774568
Ar	4.5233866865404185e-05	7.608376797030194e-05	0.00278291710697537	0.007956915013925092	-0.008225152128965178	0.0005455285597909211
2
99400
Ar	4.341033718208207e-05	-0.00031862536256211456	0.0031833652860310574	-0.02399566282618848	0.00023400257473081803	-0.0001333969408448856
Ar	0.00010739700727559366	-1.7200742526927715e-05	0.0027879812502835835	0.003929723019693252	-0.009575239365839754	0.000257408210759086
2
99600
Ar	-0.0001886910393866605	-0.00024199674656355888	0.0031871720091464204	-0.02053188138567914	0.01455525488749099	0.0007709931623633081
Ar	0.00011800670769295547	-9.957407028806289e-05	0.0027865253681026063	-0.0019053218912069721	-0.006258255424091377	-0.0004546682831562573
2
99800
Ar	-0.0003325110708942834	-4.9477887281595826e-05	0.0031941622117979116	-0.006885866365385854	0.02229863378696581	0.0003797399645015335
Ar	7.139989506737913e-05	-0.0001334519503112755	0.0027825236694637052	-0.007066464913432928	-0.0002502433546197235	-0.0001969338036904247
2
100000
Ar	-0.00031418580645167175	0.00016671020544280164	0.003192820779618456	0.01033476593271301	0.019043523103453218	-0.0006178819918229831
Ar	-1.1981243209463976e-05	-0.00010365502001117137	0.0027838835010477636	-0.008890197467868687	0.005949970414770256	0.000452062026676868
2
100200
Ar	-0.00014418594265976293	0.0003011197580079148	0.003185332663787545	0.02216361255877379	0.006822780598696991	-0.0006311854432579151
Ar	-9.101063711572502e-05	-2.4198687275137203e-05	0.0027894189094023244	-0.006178667621174863	0.009222305509438042	0.00044369920675264434
2
100400
Ar	9.40979228284679e-05	0.000293808468487693	0.0031840172997184626	0.023639048613390178	-0.00823995355334827	0.00042431228833002493
Ar	-0.0001258564191586547	6.461588625421115e-05	0.0027896746003818794	-0.0005266047583216435	0.007810157290730284	-0.00044012096944639117
2
100600
Ar	0.0002904597341935026	0.00014773931334023812	0.0031906530051217293	0.013861931884153363	-0.019858825381527397	0.00067643763874997
Ar	-0.00010055019727560364	0.00012050412866520178	0.0027837962152397586	0.005428407194258481	0.002930652578538573	-0.0005403384985496689
2
100800
Ar	0.00034670374163199607	-7.019243390662861e-05	0.003193118455984915	-0.0031193768635354325	-0.02184418068919491	-0.0002375020511872559
Ar	-2.5236879484047445e-05	0.00011860886641430238	0.0027814637370105117	0.009004905647270165	-0.0033319618818390966	0.0001218188702761616
2
101000
Ar	0.0002345567350472896	-0.0002527087174125165	0.0031873858859521693	-0.018263045561818913	-0.013171093700954623	-0.0007155593605049136
Ar	6.413828126351115e-05	5.945105642930229e-05	0.0027857304387782873	0.008066595581009571	-0.007981375246188662	0.0005991385160374977
2
101200
Ar	1.1632212201980983e-05	-0.0003144579758025772	0.003183580381178464	-0.024567749223729472	0.0012748007515709272	0.00010508876728982398
Ar	0.00012246803721773687	-2.7035589785701994e-05	0.0027895354592553344	0.0031199209029149724	-0.008527861507679035	1.3629520083711628e-05
2
101400
Ar	-0.00021849215929626315	-0.00022837504102731304	0.003188937938664544	-0.019524935690430366	0.015331706768372554	0.0007398777983540001
Ar	0.000122147520581752	-9.813187867287255e-05	0.0027863148236691553	-0.003181292226739031	-0.005134234555325986	-0.00047745811863944717
2
101600
Ar	-0.00034520765575326255	-3.1930652903708767e-05	0.0031941710239255863	-0.004651710913820319	0.022246759182717128	0.0001232309272536173
Ar	6.27302632289532e-05	-0.00012217014789406158	0.0027832257079764226	-0.008232485347392538	0.0005488106625179686	-2.1611016412633012e-05
2
101800
Ar	-0.00030374542804625606	0.00017920401802467854	0.0031907494388225257	0.012508324780090122	0.018171096051124644	-0.0006943738897929276
Ar	-2.90542220954579e-05	-8.769947736082176e-05	0.0027861192292873457	-0.00930374200580076	0.006056107627359861	0.0004954554215581937
2
102000
Ar	-0.00011731557742447378	0.000302933627907133	0.003184476342791848	0.023220759092582477	0.005679470155524102	-0.00034621858775071417
Ar	-0.0001071733536486543	-1.1505883616949345e-05	0.0027904799372261914	-0.005616490079861026	0.008470366611326496	0.00018163615406821217
2
102200
Ar	0.0001251239676813611	0.00028479733280884205	0.0031860917206409725	0.02330934338621498	-0.009238701798725652	0.0005948908539092379
Ar	-0.00013306736481759034	6.774076161563411e-05	0.0027879657205942708	0.000640495817951799	0.006749504206812511	-0.0006177836737035439
2
102400
Ar	0.0003100226220280761	0.0001311390490427269	0.0031920399468093495	0.01197947692775995	-0.020260922249415877	0.00037989780491113213
Ar	-9.4964044364047e-05	0.00011378211218329498	0.0027818774567512305	0.006721761779527512	0.002084143025238487	-0.0004255381375180367
2
102600
Ar	0.00034371344624285717	-8.641235860937313e-05	0.0031917739692518166	-0.005494932540033375	-0.02133651236395785	-0.00042783992527703653
Ar	-9.055990448736672e-06	0.00010608310511943218	0.0027811980364311015	0.00971139965610148	-0.0035954769451988686	0.0002907957652911109
2
102800
Ar	0.00021113202409202235	-0.0002605694705096545	0.0031859960167385276	-0.01981731864512316	-0.012144271372347951	-0.0005272800514958658
Ar	8.267428940177467e-05	4.7647341673312865e-05	0.002785501268182643	0.00782219218199497	-0.007567079157611345	0.0004209539018842836
2
103000
Ar	-2.11408304942812e-05	-0.0003111097010411372	0.0031851802112543262	-0.024802765604160722	0.002417564066267079	0.0004043529982922893
Ar	0.00013432556880895903	-3.2042247472449375e-05	0.0027869146000276458	0.0021086983133690165	-0.007695342615199204	-0.0001801588518033552
2
103200
Ar	-0.0002453220464793584	-0.00021429250364498662	0.0031911391926303144	-0.018106632464363247	0.016188708938000878	0.0005433930316226496
Ar	0.00012149564921442437	-9.510006395073148e-05	0.002783826081519282	-0.004598243580620423	-0.004418360000954102	-0.0002845902223055604
2
103400
Ar	-0.00035167114087586416	-1.3559040682478442e-05	0.00319288408004798	-0.0022226806324383195	0.022194346529728095	-0.00025431307759867834
Ar	4.920387848009264e-05	-0.00011338134260479203	0.0027835711964439244	-0.009254561429247847	0.0009403720731908489	0.0002817866685113007
2
103600
Ar	-0.000287107939978973	0.00019260388946086495	0.003187246229206614	0.014481533943746159	0.01734032954438896	-0.0006919672857195233
Ar	-4.846067529404324e-05	-7.774013280714017e-05	0.002788421658879721	-0.009411913627929822	0.005878668728591662	0.0005466917248380023
2
103800
Ar	-8.641962431069915e-05	0.0003066026642234804	0.003183260250402014	0.024035788246838743	0.004592064163071176	7.09548906759611e-05
Ar	-0.0001226547805729759	-6.1226314563507345e-06	0.0027911186739390066	-0.004814382577163008	0.007801659172823386	-0.00010053129249369947
2
104000
Ar	0.0001561692947632173	0.00027719458008991477	0.0031881555005301254	0.022469812138563153	-0.010357613642271507	0.0007081444348159685
Ar	-0.0001376821414522574	6.585944111931952e-05	0.0027863922935370987	0.0019323438779467838	0.006069100705360262	-0.0006710949664947506
2
104200
Ar	0.00032492370494803096	0.00011496522256259103	0.003193292143791613	0.00978052674210188	-0.020716508861231123	0.00018030968980325244
Ar	-8.62024955185972e-05	0.00010677407527270664	0.0027814601628675774	0.007981360660412074	0.0017551318665529618	-0.00019834182724647742
2
104400
Ar	0.0003350141747493717	-0.0001024105737998592	0.0031906955278172893	-0.007788814107843977	-0.02087634731818167	-0.0005816045326544775
Ar	8.930673134151101e-06	9.759808427018134e-05	0.0027829463011894676	0.010201413496652212	-0.003527883994829615	0.0004107907319914642
2
104600
Ar	0.00018399828012200518	-0.0002694254650252537	0.003185126225032946	-0.021115447752464305	-0.011229415333962023	-0.0003484047126578642
Ar	0.00010046076832000974	4.208978911286115e-05	0.002787164482269694	0.007298153628306412	-0.0070566048097109625	0.00028385115268831013
2
104800
Ar	-5.44201515319173e-05	-0.0003096060850457759	0.003185998318987954	-0.024659185766946864	0.0035583897383222353	0.0004706665057395398
Ar	0.00014322745609003038	-3.1803613095257126e-05	0.002787000741430598	0.0009298533631002261	-0.007140172335461106	-0.00026885226301360816
2
105000
Ar	-0.00026894178388991584	-0.00020225517559080167	0.0031910402836635345	-0.016342226178829786	0.017039308849125318	0.0003320630611934041
Ar	0.0001171317658948068	-9.006391292347493e-05	0.0027841656151838846	-0.005953654139313139	-0.00403071145827658	-0.00015223456432911806
2
105200
Ar	-0.0003529444350159271	3.054481848754539e-06	0.0031907845670372794	0.00020755033766777683	0.02223873592617015	-0.000374940447033332
Ar	3.3423578153812e-05	-0.00010610250881215793	0.0027851417188963757	-0.010087585938588862	0.000975352722481546	0.00035898020216568855
2
105400
Ar	-0.00026655659264798054	0.00020565475511987935	0.0031856771238514795	0.0162689688086915	0.016634640859322765	-0.0004716468126622778
Ar	-6.720999432913193e-05	-7.18705669834055e-05	0.002789544962859674	-0.009145368874785308	0.005549628137744117	0.00037614596869220266
2
105600
Ar	-5.405722855329616e-05	0.00031086774163754325	0.0031847538202287953	0.02456630422594242	0.0035598225582700463	0.00031956366298153537
Ar	-0.00013443958921179877	-4.761354960842331e-06	0.002790271062501263	-0.003768579000298081	0.007311118466187062	-0.0002982810496678603
2
105800
Ar	0.00018567077957619817	0.00026966354134285293	0.0031900663614139674	0.02132894622103379	-0.011541755564191129	0.0005457874694121999
Ar	-0.00013704139960058127	6.31980426500541e-05	0.002785530800101472	0.003315991555497901	0.005749230200278784	-0.0004825807858056163
2
106000
Ar	0.0003363163086539319	9.8108396866198e-05	0.0031924269876886804	0.007462291860005249	-0.021296165648906715	-0.00012477343870318463
Ar	-7.293160172291001e-05	0.00010155705065538191	0.00278296040596689	0.009008526130358366	0.001590598164136717	2.454130818955835e-05
2
106200
Ar	0.00032315223590165596	-0.00012020222552681701	0.003188033977097893	-0.009879288233640328	-0.020507273953375565	-0.0006066699188017232
Ar	2.804269272069485e-05	9.187485098156796e-05	0.002785734952348929	0.010293617074425561	-0.0034396463814348292	0.0004161550414147523
2
106400
Ar	0.0001561440205246259	-0.0002804566041110437	0.0031840541357370275	-0.022146810217570465	-0.01026399977859687	-5.9611097820013316e-05
Ar	0.00011522876280072894	3.889607504686068e-05	0.002788550131503194	0.006387059703925069	-0.0066869920800755435	4.073953729404927e-05
2
106600
Ar	-8.552859382825974e-05	-0.0003088900701042603	0.003187125374271122	-0.02420417009818441	0.004882013773974842	0.0005347065143110865
Ar	0.00014612477995858218	-3.1065979178909757e-05	0.0027865580233970982	-0.00044744827594876967	-0.006758215529497266	-0.00032614343895142033
2
106800
Ar	-0.00028770194162973807	-0.0001892724969789854	0.003191250308720875	-0.014442547222250288	0.018042318551223586	0.00014378554599610364
Ar	0.00010652677895099674	-8.625701315355176e-05	0.0027840159204311665	-0.0071745784189680955	-0.0038504086809402352	-7.527468154637348e-05
2
107000
Ar	-0.0003498206425355067	2.1805786564311085e-05	0.0031893513812581366	0.002492779588501611	0.022337057952607566	-0.0004720541212917816
Ar	1.438293229318767e-05	-0.00010153742934196789	0.0027859165256521475	-0.010468076733386393	0.0009405379321910101	0.00040241650619834204
2
107200
Ar	-0.00024374849007207188	0.00022120030277266426	0.0031848502622310207	0.01778342245118291	0.015940053204593792	-0.00024675374974527704
Ar	-8.497815683419887e-05	-6.89705322995516e-05	0.0027898039870748637	-0.008520465938495942	0.005280818777154118	0.00022606020954218784
2
107400
Ar	-2.235945797347855e-05	0.0003161648038721006	0.0031861423350338512	0.02473466567291483	0.0022297132580019223	0.00047028336854697294
Ar	-0.0001421344896414167	-4.801100699775816e-06	0.0027887952074987232	-0.002479829907794964	0.007020642877539257	-0.00038531426094992605
2
107600
Ar	0.0002110713762178313	0.00026099670096648266	0.0031911374501722625	0.019928313425724868	-0.012882347159905586	0.0003630845648116424
Ar	-0.00013040795540763316	6.107920215243168e-05	0.002784579439047852	0.00474961376073568	0.00563756187356854	-0.0003340193145799278
2
107800
Ar	0.0003419915240104441	7.948335427197589e-05	0.003191390377276852	0.005166488475715677	-0.0218153299555114	-0.0003308160163674313
Ar	-5.463332604631356e-05	9.890140505704676e-05	0.002783794299920952	0.009778964412838365	0.0015674706865039727	0.00016551084168872423
2
108000
Ar	0.0003072060466764679	-0.00013933530970072652	0.0031866244559791857	-0.01174186611377304	-0.020140310068036443	-0.0004495695523888709
Ar	4.8434466188697045e-05	8.95328088481958e-05	0.0027868066017919316	0.009933296253697939	-0.00334941402475548	0.00031196702960843654
2
108200
Ar	0.00012680865560564392	-0.00029183100853769566	0.003185208935994929	-0.022899440184747093	-0.009124534557984315	0.00021654715603148242
Ar	0.00012735595693601998	3.794329350409409e-05	0.002787859274063158	0.005211409649852275	-0.006526833992838265	-0.00013641807957257202
2
108400
Ar	-0.00011493565599323821	-0.00030642546693702944	0.0031895230698062663	-0.02341484130525593	0.006393557453643767	0.00047156438421215477
Ar	0.00014476525032001075	-3.096880665289102e-05	0.0027850750641477138	-0.001891944530631277	-0.006720706064137874	-0.00029752616573693454
2
108600
Ar	-0.00030181442655008125	-0.00017350030439148344	0.003191856586555205	-0.012335540828306119	0.019051877229614947	-6.40336764232781e-05
Ar	9.203495507164217e-05	-8.593415137429287e-05	0.0027839472510231044	-0.008232851905395914	-0.0038177200690101354	0.000138207374817558
2
108800
Ar	-0.00034216938838350165	4.2843283080793164e-05	0.0031882087841897467	0.0045615649363983145	0.022374941068676067	-0.0005378011077807196
Ar	-6.369909398776699e-06	-0.00010070268353749521	0.002787192999676059	-0.01056603790148981	0.001019071511707641	0.00042311557553520825
2
109000
Ar	-0.00021904447417896944	0.00023807292267395027	0.003184670141637012	0.019008447781608647	0.015117745102950872	-5.702830643720646e-05
Ar	-0.00010119117938474607	-6.735704669762243e-05	0.002789721512698513	-0.007592468143164462	0.00529693921186158	-5.179846196759591e-06
2
109200
Ar	8.219766173330221e-06	0.0003213030076623308	0.0031875356002002337	0.024601616793492976	0.0007958105517986672	0.0005122632045515457
Ar	-0.00014646418894762923	-3.2574649327065407e-06	0.002786728200993666	-0.0011104250356958412	0.007026531624077616	-0.0004934524944330164
2
109400
Ar	0.00023245004702478786	0.0002513182680039765	0.0031914571371717045	0.018287898256923722	-0.014227953684063724	0.00016833070787228738
Ar	-0.00012120478510500399	6.280511305518172e-05	0.002782846274469567	0.005972797125009916	0.005625801027109967	-0.00016862521377089066
2
109600
Ar	0.0003435060449934767	6.003046990079068e-05	0.0031899899142049373	0.0030231803133700815	-0.02236902740929439	-0.00040389553055173
Ar	-3.648123655348215e-05	0.00010006678869027429	0.002783771167077393	0.01023207621791812	0.0014641384768912637	0.00033200041266608765
2
109800
Ar	0.0002889840445511482	-0.0001594723466931389	0.003185861575467196	-0.01341979126385843	-0.019727727961234356	-0.00024358949847163978
Ar	6.60178485996075e-05	8.976400756315651e-05	0.0027874596566897806	0.009361527036114984	-0.0034189749249853574	0.0002657832954550919
2
110000
Ar	9.671892599835801e-05	-0.0003036380964239447	0.0031865022716492425	-0.02347733006921299	-0.007917769947438482	0.00035208499601256047
Ar	0.00013523881494888394	3.748300789616286e-05	0.002787448225338529	0.003968976377537486	-0.006584938682884477	-0.00020324369279801124
2
110200
Ar	-0.00014289605917205855	-0.00030377052739747294	0.0031904928019904173	-0.022386143828649587	0.007947558038648788	0.0003068213672842482
Ar	0.0001390881347382919	-3.20977029275559e-05	0.0027849391606170238	-0.0032610082364120624	-0.00679885446371513	-0.00018631396359318012
2
110400
Ar	-0.00031368699875312066	-0.00015716263721294256	0.0031905732869299546	-0.010271353653618432	0.020107087548236972	-0.00029718238683753184
Ar	7.513120727060875e-05	-8.738952844138368e-05	0.002785166538622979	-0.008981930954294892	-0.0037809701328909394	0.00023384620151756808
2
110600
Ar	-0.000332464940252544	6.484996429265074e-05	0.0031864004324483387	0.006577857925601875	0.022399683847202877	-0.00038472361678592356
Ar	-2.5483192026739995e-05	-0.00010139606983088908	0.0027885160850817698	-0.010249022761818528	0.001104007646229897	0.0002950855779803866
2
110800
Ar	-0.00019326748602844704	0.0002558347081495493	0.0031851562803120225	0.020112691554887856	0.014249647035111262	0.00021442502627788037
Ar	-0.00011270471202445128	-6.769406566542316e-05	0.002788874172259749	-0.006505486057757682	0.005347355707809254	-0.00022684564840390518
2
111000
Ar	3.848894028421103e-05	0.0003263203959249425	0.0031891601263840013	0.024276901421106358	-0.0008254595231259484	0.00046824842009192603
Ar	-0.00014531993436780587	-2.7676864043545875e-06	0.0027852397775690483	0.0002502693604674625	0.007163176769076627	-0.00038537025292813325
2
111200
Ar	0.00025200423280538354	0.0002398507386990495	0.003191546551531006	0.016569139750905064	-0.015741884892843026	-7.406413635439396e-05
Ar	-0.00010796468113805729	6.446563622834164e-05	0.002782957145141848	0.0069337976380232	0.005727760256389108	-9.950888981015474e-06
2
111400
Ar	0.00034266008260779517	3.7788681564022774e-05	0.0031881759366272715	0.0008353923374536456	-0.02292426894957026	-0.00048517957856910487
Ar	-1.7992976085808e-05	0.00010217537155187622	0.0027850128516927366	0.010279590788507575	0.001491413892704571	0.00032150302929770825
2
111600
Ar	0.00026892966849941744	-0.00018206988790727202	0.003184925053580189	-0.014938937740375052	-0.01926184168924855	-4.3501902463842306e-05
Ar	8.030051188295161e-05	9.144576090962837e-05	0.0027873485126952147	0.00854277259812915	-0.003512486947884817	7.876180325825574e-05
2
111800
Ar	6.737907749310557e-05	-0.0003165655235972314	0.0031871391108275796	-0.023745006041452472	-0.006490978027176155	0.0003920803491026465
Ar	0.00013898454764476928	3.793593725184723e-05	0.0027862776675697193	0.0027388820313804735	-0.006791350517518986	-0.00022174104842724693
2
112000
Ar	-0.00016718535020446586	-0.0002997931996467854	0.0031900433089283014	-0.021146488653641264	0.009737022149527331	0.0001032472619281413
Ar	0.00013064084974316516	-3.420392856502102e-05	0.002785027915338413	-0.004343835766785713	-0.007049483722161899	3.3451122956478836e-05
2
112200
Ar	-0.00032023235299687456	-0.00013772341367657685	0.0031884850511327625	-0.008187520198027452	0.021245857863301368	-0.00036301804531519653
Ar	5.903849897232601e-05	-9.141602735869583e-05	0.0027870891369989616	-0.009356594647768699	-0.003895878773848685	0.0003377540273849398
2
112400
Ar	-0.00031875241899202874	9.006166498999465e-05	0.0031853853577789846	0.008394250360070766	0.022428185853463588	-0.0001353240974554953
Ar	-4.0933833134232294e-05	-0.0001054621625380727	0.0027899771719124278	-0.00975095036745306	0.0011934760924746147	0.00013125289809067395
2
112600
Ar	-0.00016604483358990003	0.0002755414293271375	0.0031867561761373406	0.020919351355663317	0.013122919601219016	0.0003557647262104308
Ar	-0.00012019922784916805	-6.955151476332977e-05	0.0027884911012768234	-0.0054712355384585265	0.005671785545087657	-0.0003763192081456454
2
112800
Ar	6.646661181464549e-05	0.0003306250177420523	0.00319051205345822	0.023633322207874112	-0.0026723899134636327	0.0002415551838775934
Ar	-0.00014137255378389883	-3.211584232726177e-07	0.002784489127971716	0.0013967443289512153	0.007626491596229873	-0.00029822331639307127
2
113000
Ar	0.0002670930105540025	0.00022589869035710057	0.0031901238038714356	0.014741943444894167	-0.017375051259222098	-0.0002995124903432081
Ar	-9.416390796780003e-05	7.055032564545442e-05	0.0027838233805594216	0.007661262628997391	0.005946795570198831	0.00015717615274173213
2
113200
Ar	0.00033800373549044467	1.2483320635726033e-05	0.003186144461100254	-0.001092048286778016	-0.02349457426987341	-0.00035661683071999516
Ar	-9.48437200426732e-07	0.00010851802041565495	0.0027866962540804125	0.010153342055838134	0.0013122888548810442	0.00032478479356770645
2
113400
Ar	0.00024805093474924213	-0.00020680112227319206	0.0031850358020388686	-0.016158072376478448	-0.01860283859572372	0.0001884584421829821
Ar	9.172623399563864e-05	9.48735747661727e-05	0.002788322059289188	0.007617389636035163	-0.003898154106555062	-1.8820329168970533e-05
2
113600
Ar	3.9737689662790976e-05	-0.00032907800241585567	0.00318867129917368	-0.023773854723941504	-0.0047285947520764975	0.0003883026944421568
Ar	0.00013950027967319872	3.653525594054009e-05	0.002786973799676134	0.001537499160224385	-0.007330465964912048	-0.00014543957023588992
2
113800
Ar	-0.0001882045739480842	-0.0002929876885025507	0.0031905926861039756	-0.019851717120053063	0.011659797413263017	-7.728640229800419e-05
Ar	0.00011985275919688326	-4.027239917900326e-05	0.002786728052646566	-0.0053191033776204995	-0.007379380508168753	9.750820949166462e-05
2
114000
Ar	-0.0003248776950225385	-0.0001156727444896079	0.0031877842296176187	-0.006356379000379871	0.02227800435548415	-0.0004061645393503912
Ar	4.195165708886104e-05	-9.865380963649308e-05	0.0027886288427582014	-0.009600050700558738	-0.0037947712523823014	0.00019236476874031223
2
114200
Ar	-0.0003062486653410526	0.00011681789721963916	0.00318514427737163	0.009899402069786315	0.022310997748796402	-1.179017793851972e-05
Ar	-5.587690591815214e-05	-0.00011022670805920853	0.0027888797445299067	-0.009124418264624195	0.0015683114280892168	-0.0001982473881735025
2
114400
Ar	-0.00014194372852752634	0.0002948878606629271	0.0031873613288870657	0.021608126843657732	0.011769438005535317	0.0003513494305935793
Ar	-0.0001259360447109595	-6.96195905555004e-05	0.0027849719345869545	-0.004355955687242284	0.006238258184345309	-0.00048440521226403494
2
114600
Ar	9.072586203180017e-05	0.0003320678312562737	0.0031899520358586817	0.0229304004061304	-0.004693699221754703	7.503369454533627e-05
Ar	-0.0001357488859965998	5.074202552244936e-06	0.00278177672815941	0.002491598689089583	0.008095421146754841	-8.760069973907762e-05
2
114800
Ar	0.0002785831493228126	0.00020851430130143378	0.0031884386364659117	0.013079694247345496	-0.018926869786588786	-0.00033959195325650025
Ar	-7.977974214608658e-05	7.886148457662297e-05	0.0027835938837252275	0.00821590269887367	0.006022159056379157	0.0004055638287459951
2
115000
Ar	0.00033222766403472444	-1.4828241393993437e-05	0.0031852044622774113	-0.002736942433691292	-0.023886414977901983	-0.000163696732478466
Ar	1.4778899673902344e-05	0.00011533123377365962	0.002787928600884376	0.009874673523000985	0.0009462772696075386	0.00033425864519934
2
115200
Ar	0.00022841155302320436	-0.00023161946018572684	0.00318642498856094	-0.017230207814102977	-0.017678224239104697	0.0003594467494649821
Ar	0.00010126073781058844	9.66263709148611e-05	0.0027892279518658934	0.006705561986420881	-0.004531037458506441	-6.595316783002814e-05
2
115400
Ar	1.4824147065041374e-05	-0.00033887421132933936	0.003190160455986769	-0.023698738973507234	-0.0028152319960261787	0.00027207532462032204
Ar	0.00013874275766046894	3.179517841250716e-05	0.0027878714227732066	0.0004654700880782584	-0.007930711988231257	-0.00012863075479903682
2
115600
Ar	-0.00020609635209349066	-0.00028253277263405526	0.0031902223199511436	-0.018595001305954283	0.013565037729364841	-0.00024653902880781864
Ar	0.00010925890214991391	-4.93523370086724e-05	0.002787936506945016	-0.006108578530755522	-0.0076060371379468505	0.00014393375177959485
2
115800
Ar	-0.0003274474879849911	-9.050187423570208e-05	0.0031866469046815614	-0.004691304270111992	0.023183643509822157	-0.00034521731875173647
Ar	2.705790023391133e-05	-0.00010758216822911801	0.002789552204551851	-0.00962609196196432	-0.003531656938901608	0.00010251124725317423
2
116000
Ar	-0.0002930974761595008	0.000144397755022526	0.003185565667626912	0.011285243309055676	0.021856568527345195	0.00016957012295067822
Ar	-6.713675131460636e-05	-0.0001144790321258428	0.0027887380157592925	-0.008401916443396698	0.002201904261375412	-0.0002866780754045519
2
116200
Ar	-0.00011897838095838399	0.00031144719578384775	0.0031886945358413836	0.022115475159347753	0.010103762221906273	0.0003425792615260199
Ar	-0.00012815726000245037	-6.690265039909057e-05	0.0027848612705381323	-0.0033124686047684873	0.006948402239721618	-0.00038761479611626476
2
116400
Ar	0.0001130851419223091	0.000328675171646723	0.0031904765777082266	0.022289957608550015	-0.006824585349885318	-5.2593040258769255e-05
Ar	-0.00012761257179686266	1.390279921159256e-05	0.002782906286811951	0.0033920130857506142	0.008537918512220166	4.8108454856817265e-05
2
116600
Ar	0.00028997966060031067	0.00018679313510278626	0.0031876718906632536	0.011632602170730118	-0.020295168754726603	-0.00042598152409644753
Ar	-6.577156614216377e-05	8.919917485890817e-05	0.0027855380711304793	0.008453888819977143	0.005864631495026397	0.0003785664770015556
2
116800
Ar	0.00032789534474888886	-4.4097377961318196e-05	0.003184443404636044	-0.004313791501141665	-0.02396839996600001	-0.00011103802533111632
Ar	2.7303131529411985e-05	0.00012169939677740159	0.0027887841624269364	0.009361211027506436	0.0003510842020803704	0.00019413548210776976
2
117000
Ar	0.00021017944204616276	-0.0002545817579422034	0.003186081394621904	-0.018288736124133138	-0.016359907238613514	0.0003633250043211228
Ar	0.0001060566359913774	9.625466762239772e-05	0.0027888973141231657	0.00576916553395258	-0.005230938740922565	-0.00012154238826674593
2
117200
Ar	-8.474169231419945e-06	-0.0003440543872290455	0.0031892314897012824	-0.023598128783511443	-0.0007308534215928869	0.0001758259612343733
Ar	0.00013367745973577388	2.4816511679411817e-05	0.0027877617386097664	-0.00046879571249711094	-0.008463522487512547	-4.923902289478616e-05
2
117400
Ar	-0.0002228068848784478	-0.0002677291440344943	0.0031887957107480463	-0.01744296436057879	0.015322971854287897	-0.0002300490576321236
Ar	9.704310019499946e-05	-5.94454639929976e-05	0.0027882621631944537	-0.006519471879006923	-0.007671296643424908	0.00011948891729466414
2
117600
Ar	-0.00032990787438115054	-6.31098740491569e-05	0.0031864017085983785	-0.0031143180845803827	0.02388663624869297	-0.00013092042119163973
Ar	1.4227616850840904e-05	-0.0001155508258464079	0.002789110323273155	-0.009343152548365659	-0.00307544032471077	-4.198833064414157e-05
2
117800
Ar	-0.00028028055315155304	0.00017194927199312978	0.003187019903671388	0.012681784166705791	0.0211540509706704	0.00023344097340126675
Ar	-7.447349017220212e-05	-0.00011625403817451085	0.0027869255092300826	-0.007657216313963988	0.002930703192139502	-0.00035238568874922815
2
118000
Ar	-9.635366659539328e-05	0.0003258319980973762	0.0031891617768857344	0.022567123523551925	0.008232910499272111	8.232583081281097e-05
Ar	-0.00012682303349077572	-6.147596814486e-05	0.0027834944204214083	-0.002388699536647434	0.007592410380566739	-0.0002277967264097413
2
118200
Ar	0.00013393041388586242	0.0003223450346175749	0.0031879426809395314	0.02151541963386768	-0.008886170557402559	-0.0003276300634405131
Ar	-0.0001186629278894446	2.3977296082026255e-05	0.0027834674978526094	0.003991811822357922	0.008776743479039246	0.00021800469270208617
2
118400
Ar	0.0002988711180310273	0.0001635313021740172	0.0031841992012298583	0.01014928469873896	-0.021532855289481692	-0.0002942503559702943
Ar	-5.385573988851458e-05	9.879018145837179e-05	0.0027868215203351145	0.008419746894142134	0.005563765872905908	0.0003515213048770895
2
118600
Ar	0.00032141146729015375	-7.31755965795839e-05	0.0031840229347204095	-0.005824969400932768	-0.02388347403458185	0.00029770102440728754
Ar	3.557246815144123e-05	0.00012634471104691945	0.0027892815936530033	0.008702939936790317	-0.0002898718665673378	8.185604265742994e-05
2
118800
Ar	0.00019105576689838015	-0.00027573303580004957	0.0031883738766280653	-0.01918692903314374	-0.01490046503380864	0.00046683746179831443
Ar	0.00010678320215795164	9.380234835514609e-05	0.0027889107160434467	0.004975003629127919	-0.005987412716928135	-8.947818916461453e-05
2
119000
Ar	-3.1077016236791006e-05	-0.0003459811188683934	0.003191217444227823	-0.023376454270085622	0.0014781522414510498	3.298977080661175e-05
Ar	0.00012709292548559109	1.5829540422926215e-05	0.002788469766433248	-0.0011207568329369734	-0.008958271350675742	2.9466650002862775e-05
2
119200
Ar	-0.00023787564026943244	-0.0002489986250391443	0.003189391557387673	-0.016242905003055877	0.017067346072720084	-0.00032232875032177615
Ar	8.647638394806855e-05	-7.064676555061296e-05	0.0027891469198609853	-0.00664835974929439	-0.0075850253891928026	6.223929095289483e-05
2
119400
Ar	-0.00033047266679023273	-3.322757970816176e-05	0.0031866541802438816	-0.0015511298493423662	0.02431674340517539	-0.00015507961309243573
Ar	4.627028354949553e-06	-0.00012326528305235044	0.002788611542929469	-0.008980339429749863	-0.002503140108990871	-0.0001957637721440077
2
119600
Ar	-0.00026605363829703343	0.00019866612614039155	0.00318651949764779	0.013954080340938129	0.020121108823584328	8.979551983354672e-05
Ar	-7.863943481879932e-05	-0.0001167263548578905	0.0027853559054016454	-0.006963841448157781	0.0037519821946963247	-0.00037045101941587906
2
119800
Ar	-7.337994531293727e-05	0.00033591760264691016	0.003186981656371434	0.022921181288397142	0.006122451315382252	-3.9783217980827766e-05
Ar	-0.00012395670637366888	-5.378556312834263e-05	0.0027829139378018407	-0.0017281435313120882	0.008317500950053368	-5.2229751254773137e-05
2
120000
Ar	0.00015440769579649173	0.00031086047091763544	0.003185678890391797	0.020706123128969016	-0.010893932342163409	-0.0001748322285043452
Ar	-0.00011006262185474256	3.599471364856494e-05	0.002784842817741455	0.004397679913946875	0.008859224015977168	0.00040290158983839384
2
120200
Ar	0.0003072620434508719	0.0001367916630204026	0.0031844921708802498	0.008650086827521115	-0.022434653358488342	2.643145631169585e-05
Ar	-4.365379588190449e-05	0.00010877419824505064	0.002789002462920016	0.008329111499846885	0.005073393432577835	0.00033146676355578814
2
120400
Ar	0.00031387947252296285	-0.0001024499123346314	0.0031868832205009033	-0.007393760018083705	-0.023401604258113554	0.00040278839686380214
Ar	4.225021333092946e-05	0.00012942049125366694	0.002790341833932949	0.00816117450462073	-0.0011085693131429389	-6.924490229196562e-05
2
120600
Ar	0.0001704463666873233	-0.000293236018773822	0.003190744367729373	-0.020092141964807294	-0.013125035052750696	0.000268433277128971
Ar	0.00010717828247645477	8.824695192012792e-05	0.0027886132079194014	0.0042885228510790435	-0.00681253058299525	-0.00019786139105033927
2
120800
Ar	-5.5068050824225364e-05	-0.0003426959593455633	0.0031909497621389047	-0.023055275011759243	0.003643364032182885	-0.0002322848549609678
Ar	0.0001210585907960779	3.9941108246167585e-06	0.002787593456496703	-0.0016501041866491348	-0.009317908959514709	-1.0585201140356657e-05
2
121000
Ar	-0.00025327626999841277	-0.00022701016617069185	0.0031872379402857727	-0.014950916465079187	0.01847985571695835	-0.0004062755356086308
Ar	7.696360496003308e-05	-8.292907618449557e-05	0.002787800962324334	-0.006797088189104542	-0.007292476860941997	3.123449610105365e-06
2
121200
Ar	-0.0003306765426514351	-3.008692799516224e-06	0.003184788475859206	0.0001106988002269035	0.024480067670753274	-2.8753856780396153e-05
Ar	-3.3556012331110903e-06	-0.00012962137116736763	0.002786968834704339	-0.008577110127760966	-0.0016913405036409947	-0.00015110609158150624
2
121400
Ar	-0.0002505715618705835	0.00022311673524870454	0.0031861400619157634	0.015261095739708729	0.018831715658104667	0.00020056629694560998
Ar	-8.141433260647454e-05	-0.00011419845731796893	0.0027849480518982884	-0.006395069633394365	0.004663097174325801	-0.00019826298968015046
2
121600
Ar	-4.9954739443174934e-05	0.00034215595292948144	0.003187448618393398	0.02315815627147485	0.003942941704173398	1.872623337432126e-05
Ar	-0.00012093147492553043	-4.337715174899208e-05	0.0027846497628740475	-0.0011737838880580328	0.008899843312717072	0.00015111835645278165
2
121800
Ar	0.00017437547348266263	0.00029589355526094755	0.003186636725078057	0.019824546672783848	-0.012757738543713211	-0.00014869669673074292
Ar	-0.0001026016510469276	4.8876083194456896e-05	0.002787309931197648	0.004675851637362205	0.008758596742397935	0.0003439947694413831
2
122000
Ar	0.0003150277758061273	0.00010811675670634805	0.0031859758941366776	0.007162505025128803	-0.023250328202370753	7.311265730006343e-05
Ar	-3.538150837905531e-05	0.00011739861791960039	0.0027899883992317455	0.00816974104580365	0.004384279199977265	0.00015008583581969416
2
122200
Ar	0.00030612868919544406	-0.00013156798208818776	0.0031880607382103283	-0.008924970199263593	-0.022686904721504742	0.0002898574097453353
Ar	4.77569549061001e-05	0.00012941386680483596	0.002789791049106011	0.007780424773699686	-0.0020772656569565404	-0.00016002659133872955
2
122400
Ar	0.00015034660637916648	-0.00030882123929672694	0.0031902729831171745	-0.02089775638714701	-0.011218217295073503	6.486085314284578e-05
Ar	0.00010782572651384627	7.925901681882702e-05	0.0027881815029894433	0.003743388971155105	-0.007566613297682965	-0.00012390076770867818
2
122600
Ar	-7.770543129575816e-05	-0.0003373473968141048	0.0031889209005816267	-0.02276944847958756	0.005746272081572437	-0.00031020812936124033
Ar	0.00011643448402803376	-9.955014829787574e-06	0.002787665006839306	-0.002114865453698647	-0.009508145941273315	3.0050905951393845e-05
2
122800
Ar	-0.0002679823426807243	-0.00020417407894005943	0.003185658757752669	-0.013752106211886977	0.019771781717952363	-0.00024268388139093348
Ar	6.91762598599357e-05	-9.485980253327114e-05	0.002787841844998285	-0.006909229936704547	-0.006740566461221108	-3.0399089240874362e-05
2
123000
Ar	-0.0003306262920504429	2.637698381146248e-05	0.0031853245967613897	0.0017703540086719347	0.024423570866724954	0.0001650528106693883
Ar	-1.0289825938539629e-05	-0.00013382706895311063	0.0027863074501114885	-0.008308276265423534	-0.0007386799903961585	-0.00022678163172849702
2
123200
Ar	-0.00023504564615710444	0.00024473678647849643	0.003187346697679994	0.016575584809048024	0.017385078845637104	0.00017245346558831417
Ar	-8.434387409491293e-05	-0.00010823564800070822	0.0027845188938583052	-0.005908292786562291	0.0056535372231131895	-5.421892620197577e-05
2
123400
Ar	-2.6110314640177e-05	0.0003450281161706517	0.003187925736963944	0.023426727617192833	0.0018246170165174755	-6.385483075541071e-05
Ar	-0.00011869585149069746	-3.0014174818721346e-05	0.0027855351676677976	-0.0006567250280873994	0.00934574363950166	0.0002222546474924666
2
123600
Ar	0.0001952900529744734	0.0002789144699701684	0.0031865393432273736	0.019004239107867926	-0.014449323337082626	-0.0001378627354026732
Ar	-9.656441195547858e-05	6.313550596209344e-05	0.0027881460970704797	0.004916108879267048	0.008441119096753814	0.00027383109640961823
2
123800
Ar	0.00032383502249052465	7.957356147226926e-05	0.0031865414827007073	0.005647208569470714	-0.023769122973962872	0.00012809647391965752
Ar	-2.860500221544536e-05	0.00012508070773159806	0.0027897375033059386	0.008100672675819782	0.0034413054459106747	2.7916439061231936e-06
2
124000
Ar	0.0002982450506337584	-0.00015837972847954448	0.003188485159387007	-0.010576954837144659	-0.021804716768406316	0.00018899520145392818
Ar	5.2354109538071234e-05	0.00012690582744674512	0.0027888848065388333	0.007438894488817185	-0.0031007933293463945	-0.0001396136117270298
2
124200
Ar	0.0001294247227878521	-0.00032031989883279867	0.003189117522549974	-0.021765158189172358	-0.009178757798991138	-0.00010073611927707673
Ar	0.00010858147642245827	6.787237907068382e-05	0.002787778498000997	0.003319361491392136	-0.008233523960226937	-4.579766258541071e-05
2
124400
Ar	-0.00010115147173563681	-0.0003272992822223862	0.003186798283913084	-0.02242227900928244	0.007795430297459757	-0.0003113806655551008
Ar	0.00011309129220904017	-2.434434917350985e-05	0.0027880533971044678	-0.0024579796765634696	-0.009402821481415543	4.969301173050454e-05
2
124600
Ar	-0.00028303087899113555	-0.0001777103911529033	0.0031844875967851124	-0.012460669623729622	0.020859479696639077	-7.790094985161413e-05
Ar	6.390178258728763e-05	-0.00010456549721433245	0.002788169529606408	-0.006931580629512838	-0.005932525947171368	-6.652935014769663e-05
2
124800
Ar	-0.0003304916469844141	5.671332446514081e-05	0.0031854334407323275	0.0034013195011888026	0.02407973910177029	0.00022588030037118092
Ar	-1.4678334166099186e-05	-0.000133963756329348	0.0027869801136299805	-0.008133226682287173	0.00029273732824822374	-0.00011840209830170916
2
125000
Ar	-0.0002195844901719791	0.0002642202956456673	0.003187956256865469	0.017855278102623898	0.015650899264258573	0.0002027962276001695
Ar	-8.589998122142868e-05	-9.89643914372257e-05	0.00278636243877935	-0.005527009056750558	0.006424481326853389	1.7736677713950173e-05
2
125200
Ar	-2.871840844019157e-06	0.0003440777020813635	0.0031886686761223187	0.02364105898613487	-0.000340972032720729	-3.5354440868584126e-05
Ar	-0.00011628393811032442	-1.5953335558436582e-05	0.0027874718039661507	-0.000308509740091067	0.00949868453340528	0.000189438667145796
2
125400
Ar	0.00021484926136375716	0.0002589147376128568	0.003187885857619811	0.018106030643485548	-0.015967456062857703	-6.266078603266298e-05
Ar	-9.144431460944502e-05	7.513196791085923e-05	0.002789150989968157	0.005042094379639175	0.007937086697918682	0.00010545767273271394
2
125600
Ar	0.0003302522898424371	5.0173805316609766e-05	0.0031880089926664963	0.004009291690334046	-0.024044327839322664	6.428415614115896e-05
Ar	-2.3216728613159653e-05	0.00012984291730083405	0.0027889070165177257	0.008016328824749699	0.002540670634734969	-0.00015064907748383612
2
125800
Ar	0.00028768706487463676	-0.00018334392118209933	0.003188489410633822	-0.012180248210337547	-0.020650254317277163	-3.461228836332034e-05
Ar	5.626809268608502e-05	0.00012206099887141322	0.002787076915824127	0.007206765789076247	-0.004044624276905916	-0.00016517600396628976
2
126000
Ar	0.0001064949636541607	-0.00032862871197955607	0.0031869908164916024	-0.022494781475164562	-0.00720141664767291	-0.00022697332904898792
Ar	0.00010933174398222493	5.53858591786646e-05	0.0027863017313005016	0.0029605633680669908	-0.008748794285739048	2.322408783480757e-05
2
126200
Ar	-0.0001255676637169138	-0.00031605238525694553	0.003184717830391464	-0.021965693293954133	0.009590707392603117	-0.00014381915281951523
Ar	0.00011013764943697062	-3.806138162007305e-05	0.002786897449578265	-0.002787014922638015	-0.009130588302874063	5.239629143349425e-05
2
126400
Ar	-0.0002975377627556939	-0.00015253748576142745	0.0031850731376917994	-0.011020522165602765	0.02175915661024397	0.00021724425045286516
Ar	5.8117669991491173e-05	-0.00011267813525146811	0.0027870439569822932	-0.007168716591038492	-0.005169715539819916	-4.325949306710487e-05
2
126600
Ar	-0.00032779961290796606	8.423841360881602e-05	0.003188161340002249	0.005260575751080224	0.02358796845416016	0.00032440469934672244
Ar	-2.1528523688387917e-05	-0.0001330039180057382	0.0027863534159568567	-0.008107645279162669	0.0012657848723907398	-4.4325910011424166e-05
2
126800
Ar	-0.00020042621268498827	0.0002803216359414964	0.0031900640132949258	0.019120383308832537	0.013971777719914702	1.4697354963893773e-05
Ar	-9.144647813831174e-05	-8.927710024147752e-05	0.002786990730871834	-0.005280220648616266	0.0071116593498712095	0.00014351058700839178
2
127000
Ar	2.3035498358939747e-05	0.00034122866362247295	0.003188659728659169	0.023689317057217284	-0.0022903065299726254	-0.0002537846979206943
Ar	-0.00011803825790814927	-2.4499861302983806e-06	0.002788958016026186	0.00018244435179065716	0.009530719102325188	0.00021173734576921508
2
127200
Ar	0.00023533534550541598	0.00023875010467493897	0.003186633571263875	0.017005902634447928	-0.01734557143010553	-0.00012018499792903463
Ar	-8.832329916333934e-05	8.535062709323705e-05	0.002789912628946923	0.00549646367561833	0.007287220537151674	-5.528899300716879e-05
2
127400
Ar	0.00033574226034824203	2.2078630072880146e-05	0.0031865817041026347	0.0022072645540806048	-0.02421094982391018	8.586831757796093e-05
Ar	-1.6952472839966667e-05	0.00013165628538709497	0.0027878543963436933	0.008181947511697398	0.0015870760235611723	-0.0003157481161070362
2
127600
Ar	0.00027511025257790533	-0.00020583294880955147	0.0031872095918489937	-0.013828898869488227	-0.019426932191366472	4.24903663733827e-06
Ar	6.246262048007169e-05	0.00011456033590656229	0.002785317121267608	0.007054811987342758	-0.004863542088491172	-0.00015270901660629138
2
127800
Ar	8.18290873511231e-05	-0.00033462749557066577	0.0031862837215210654	-0.023171971893008774	-0.005235350875762024	-0.00015459079441109682
Ar	0.00011273433084254937	4.21909580118745e-05	0.0027853444693775584	0.002554258296339951	-0.0089844060207059	0.00013475362006793272
2
128000
Ar	-0.00015057112503392595	-0.00030238682977943394	0.0031853822676921	-0.021335926102973666	0.011395410815315428	2.9958202519351038e-05
Ar	0.00010935475856109582	-5.045173959719051e-05	0.0027871447039859525	-0.0032283268094705567	-0.008766937933374606	0.0001891899457462409
2
128200
Ar	-0.00031063907350005736	-0.00012537702188167077	0.003186798867115311	-0.009370411964240528	0.022542215440299267	0.00024685881829269215
Ar	5.356008346459689e-05	-0.00011877507889863943	0.002788561339285875	-0.007473249171384977	-0.004328029266792051	6.310015679084009e-05
2
128400
Ar	-0.000322082186162516	0.00011200758690336262	0.003189020591019097	0.007194582687573773	0.022944014483535426	0.00016381778688156817
Ar	-2.7881478443395456e-05	-0.00012989601804061572	0.002788568515387865	-0.008137139671269703	0.002193090257627517	-2.5828813342722627e-05
2
128600
Ar	-0.00017857887236468693	0.0002954244902803405	0.003189410516554778	0.020283127927230582	0.012206791235587927	-8.708446677788645e-05
Ar	-9.619326516280417e-05	-7.836613801303809e-05	0.0027885725667249088	-0.0049709796523620935	0.007684043208285474	2.3140130593658838e-05
2
128800
Ar	5.028820363201066e-05	0.00033653120449950294	0.0031876546590796744	0.023594074249878416	-0.004305656230294189	-0.00021463787696291963
Ar	-0.00011885047202272707	1.1270237801118968e-05	0.002788643299989098	0.0006183339525651227	0.009487267335718285	-2.3247970575106833e-05
2
129000
Ar	0.0002553529448754263	0.00021653412246792612	0.0031858549821474503	0.015720172339710084	-0.018697177787183817	-9.187940194702083e-05
Ar	-8.492667468846396e-05	9.554054168997387e-05	0.0027879481368032464	0.005906239521715222	0.006654343322344326	-0.00012757163731970717
2
129200
Ar	0.0003389052131277031	-7.3168326489655056e-06	0.0031858231004492613	0.0002519929288320716	-0.02420666023180681	4.317602077946443e-05
Ar	-1.0357833156124972e-05	0.00013386129433784396	0.002786409415287307	0.008397326892121023	0.0006910222122089259	-0.00016126255005371486
2
129400
Ar	0.0002596793868873097	-0.00022778780070204538	0.003185856685201625	-0.015452206266790967	-0.01802597406741365	-2.5776991137768827e-05
Ar	6.968711929248423e-05	0.00010811893759661786	0.0027854865380154076	0.006919367717827461	-0.005647543244117169	1.236642057547783e-05
2
129600
Ar	5.5219588786302e-05	-0.0003383783505883617	0.003185410327554052	-0.023679983573413346	-0.0031913728522914428	-2.582510189191859e-05
Ar	0.00011644795345443656	3.0157087145223623e-05	0.0027865818359972387	0.00203735357542027	-0.009261702730367182	0.0001805468980612426
2
129800
Ar	-0.00017574945184364974	-0.0002869004093793335	0.0031860769595154765	-0.02058023881916978	0.01304971923426772	0.00014213316457457713
Ar	0.0001072799376488223	-6.174988200610492e-05	0.002788444428653411	-0.003757957134069193	-0.008370904639042947	0.00016935791897719073
2
130000
Ar	-0.0003229814034516284	-9.835118423444216e-05	0.0031881386317422315	-0.007607858653386564	0.023084026603588593	0.00020809320753247912
Ar	4.708339586528665e-05	-0.00012364110126240112	0.0027889638937027917	-0.007774482746261573	-0.003509819678824853	-2.2183949766011105e-05
2
130200
Ar	-0.0003153645671374737	0.00013728657254251362	0.0031893590079658646	0.00911434388082169	0.022052956539871882	-9.01651346216513e-06
Ar	-3.571621145603576e-05	-0.00012600782288185998	0.0027889132068991914	-0.008118986159094921	0.003044276538233718	3.063626881754626e-05
2
130400
Ar	-0.00015566918965001736	0.0003066016423202602	0.003187778979302883	0.021452451524576754	0.01037909324762704	-0.0002588818961041236
Ar	-0.00010206838796863069	-6.745190527939203e-05	0.0027891296318174634	-0.004578570430934488	0.0081422139168323	1.0713187950566644e-05
2
130600
Ar	7.866739565583315e-05	0.00032891869312214197	0.0031852844234202303	0.023448689082216864	-0.006084796584593084	-0.00018621043342395422
Ar	-0.00011970789432690555	2.345006768948697e-05	0.0027889317689313827	0.0011745587173523804	0.009271066538736642	-5.4147086999595186e-05
2
130800
Ar	0.0002755239560810871	0.000194313610953406	0.0031846363553051744	0.014258825909549175	-0.019727099112164418	5.891639977175384e-05
Ar	-8.054385350899279e-05	0.00010271343204058385	0.0027874586824397974	0.006325369398714685	0.005942173111430895	-0.00020339360662248636
2
131000
Ar	0.00034060562059972895	-3.3873198516625284e-05	0.003185752459305974	-0.0018067416997833699	-0.023966398975726024	0.0001364136740718557
Ar	-3.070564111911436e-06	0.00013259534838363796	0.002785549366351461	0.008553922542708967	-0.00022820497939091087	-0.0001352254199525801
2
131200
Ar	0.00024193463093124477	-0.0002456307032624934	0.003186681752724919	-0.017068204950365148	-0.016609863896103548	3.660889609321193e-05
Ar	7.656359861907105e-05	9.847709535868374e-05	0.002785462742413494	0.006709083229296898	-0.006295578625853904	7.716999603205228e-05
2
131400
Ar	2.7225413480206807e-05	-0.00033904543520199717	0.0031868262981669592	-0.02406319090380423	-0.0013134339749987871	2.680114341159638e-05
Ar	0.00011998802550429448	1.7129451659652022e-05	0.0027868251402204097	0.0015894216725428427	-0.009303434278010638	0.00015723928269145525
2
131600
Ar	-0.0002006984316007892	-0.00026976529141031503	0.0031875882085753526	-0.019617531858550356	0.014568777967036933	0.00011738887618311217
Ar	0.00010568047750857652	-7.242447953223976e-05	0.0027881316716679367	-0.004311002746124501	-0.007877148686056256	8.729558935698881e-05
2
131800
Ar	-0.00033299700406692835	-7.106142475288512e-05	0.003188672682604516	-0.005690102382023867	0.02351008545683135	4.285299318768706e-05
Ar	4.050812103377992e-05	-0.00012732759575135406	0.002788693395942229	-0.008191486446764177	-0.002664929132479968	4.8227382439713616e-05
2
132000
Ar	-0.00030506281827005636	0.0001621280858867382	0.0031882776562568082	0.011047929294351588	0.021181099841918957	-0.00011421538652110947
Ar	-4.449380079904366e-05	-0.00012123665208422771	0.002789224804889973	-0.008102240047086385	0.0038486037862170155	5.3557703917951023e-05
2
132200
Ar	-0.00013057849770487637	0.0003179351669046357	0.003186312691563987	0.02238060817420219	0.008663165385905405	-0.00022659991924040481
Ar	-0.00010834830222976281	-5.682248829761979e-05	0.002789901681167724	-0.00412526362042997	0.008477478212320106	5.880982569975549e-05
2
132400
Ar	0.00010633368796903765	0.00032125347958741174	0.003184622803054827	0.02304805465241454	-0.007992939737228075	-6.175984579464923e-05
Ar	-0.00012029364637868552	3.446088875769264e-05	0.0027896059292005985	0.0018405797428785403	0.008994348441423612	-0.00011609242946825107
2
132600
Ar	0.00029269326563332687	0.00017067624300261296	0.003185092775599854	0.012677017952751928	-0.02088426520599137	0.000140995329125988
Ar	-7.46206724404591e-05	0.00010846589638386544	0.0027878141748032396	0.006901547766377855	0.005199417087375871	-0.0001991973463335056
2
132800
Ar	0.0003389991900853171	-6.218973664497952e-05	0.0031864632785715222	-0.0038194762831048703	-0.023747832613294745	0.00010207335615162281
Ar	6.954665050663113e-06	0.0001301293822832925	0.0027861613472465302	0.008746245968076641	-0.0010464378403066063	-9.619848842039354e-05
2
133000
Ar	0.0002221176611633223	-0.0002651143280336678	0.003186856609742571	-0.01854570652822153	-0.015122910980670146	-2.7235349689636154e-05
Ar	8.593760061237742e-05	8.912583734165119e-05	0.002786327102552841	0.006368211654405665	-0.0067999637531084975	0.0001173664353474245
2
133200
Ar	-1.0529019777780336e-06	-0.0003405013451113046	0.003186619433576541	-0.024226713634102396	0.0006734828448248934	-2.481596961397768e-06
Ar	0.0001239073260874778	5.388201858927522e-06	0.0027878544134625647	0.0009354299691139806	-0.009249850696547646	0.00014331666899369805
2
133400
Ar	-0.0002236081864771677	-0.00025317138474913756	0.0031871352939282817	-0.01840274895579955	0.016098486591764785	0.00010319675182659892
Ar	0.00010280043350923828	-8.073941460133615e-05	0.0027889455763386185	-0.004970961871880228	-0.007276696758665863	5.034748855461761e-05
2
133600
Ar	-0.00033903321139463815	-4.4467458654293445e-05	0.0031881609570387453	-0.003694418024679153	0.023871011854553807	4.569589605759867e-05
Ar	3.257573214823052e-05	-0.00012849047532079708	0.0027890049301212724	-0.008486150084928581	-0.0018663730792457282	-2.0369333992601616e-05
2
133800
Ar	-0.00029116549743291064	0.00018532927447140302	0.0031875615970700546	0.012854580982980446	0.020154025651831727	-0.00016644808197794985
Ar	-5.326350515654433e-05	-0.00011472017594985154	0.0027889123549946857	-0.007964058958766127	0.004499330801970233	-3.9221898027115555e-06
2
134000
Ar	-0.00010333064386800248	0.00032607080527590176	0.003185674240987172	0.0231078653604518	0.006832886407751253	-0.00017186017644482034
Ar	-0.00011378106772700533	-4.589149474929428e-05	0.0027887531524933107	-0.0036297739034887705	0.00867924542089331	-2.766129052143583e-05
2
134200
Ar	0.00013373912266531705	0.0003109899612379033	0.0031847219281661023	0.022311259856956613	-0.009716997551269467	-1.0238632447013562e-05
Ar	-0.00011979891859328612	4.432874524551781e-05	0.002788236280670079	0.002478604149141341	0.0086058930379912	-0.00011865986690805159
2
134400
Ar	0.0003067836766738735	0.00014739406234961106	0.0031853303906937353	0.010857895573339178	-0.021655062962386028	0.00011812248915365086
Ar	-6.853872724642205e-05	0.00011276744242361617	0.002786947242742051	0.007350107884528505	0.004494650337592479	-9.350952236057445e-05
2
134600
Ar	0.0003325371390209002	-8.671213534508096e-05	0.0031864206113178103	-0.0059390309157901595	-0.023206500720440237	8.714861877650071e-05
Ar	1.542072234119933e-05	0.00012691261362877862	0.0027867844559058283	0.008739152616776739	-0.0017652528721555161	5.490157052560517e-05
2
134800
Ar	0.00019822650128982665	-0.00027877111423683644	0.003186957730227719	-0.019761707803885153	-0.013596816594989354	3.603495363804867e-05
Ar	9.214982616460473e-05	8.010735023964207e-05	0.002788020022635173	0.005959228506789314	-0.007171632128713355	0.00017363340609088257
2
135000
Ar	-3.064115204134415e-05	-0.00033708670493093205	0.0031875183251506133	-0.024112643858570215	0.0024289627205609614	7.797515232422887e-05
Ar	0.0001248876042075714	-4.792430373754123e-06	0.002789586765933514	0.0003282406010048605	-0.009083584568967903	0.00011192548120001199
2
135200
Ar	-0.00024496078865121536	-0.00023412069804537277	0.0031885332986427454	-0.016950495578894064	0.017309039523212874	9.380973235205863e-05
Ar	9.792205020961749e-05	-8.695738359271539e-05	0.002789946666398175	-0.005484813341577812	-0.00668084043686049	-3.6293470309883025e-05
2
135400
Ar	-0.0003417878720544347	-1.884106414563489e-05	0.003188511303102739	-0.0015646650778471888	0.023924182828210867	-0.0001248319597660109
Ar	2.4033437029771823e-05	-0.00012770870718178105	0.0027892323890576437	-0.008693982476643056	-0.00109727630600795	-7.397962163892998e-05
2
135600
Ar	-0.00027400240249494316	0.00020544758602300853	0.0031864399132857466	0.014543322473682311	0.01902317525385166	-0.0002835169752870949
Ar	-6.165934080691229e-05	-0.00010701023425579172	0.0027886913413145524	-0.007699086752628578	0.005047251986161151	-3.3945908045629324e-05
2
135800
Ar	-7.480817789296557e-05	0.0003310322836999453	0.0031841046050550305	0.02361794075178821	0.00505048381009047	-0.00012286415188283208
Ar	-0.0001173631097148949	-3.530656040069859e-05	0.002788341431047622	-0.0029758963691687962	0.008711953300762855	-6.198949835031337e-05
2
136000
Ar	0.00016017555925736742	0.0002984766148900507	0.0031843029216361914	0.021423394426187785	-0.011275102700197341	0.00015573251788108186
Ar	-0.00011673001680700643	5.296612957096739e-05	0.002787749704716197	0.0031137743912174175	0.008212308136559475	-5.873544024058932e-05
2
136200
Ar	0.00031881706010255823	0.00012335457144669243	0.003186510260257031	0.008958530102495556	-0.022281262385159928	0.00023887253457849966
Ar	-6.0011631914440776e-05	0.00011581942782975313	0.0027871940472423734	0.007728655301588073	0.00382354760404884	-3.422935824891613e-05
2
136400
Ar	0.00032448626260839295	-0.00011074516108114918	0.0031882287490879457	-0.007875505865723359	-0.0225636157298677	9.652828958133673e-05
Ar	2.5661547781147743e-05	0.0001231865564714786	0.0027875709253890736	0.008685772287617454	-0.002390652752089201	9.750848181536461e-05
2
136600
Ar	0.00017429306845079961	-0.00029155400949005134	0.00318841288023244	-0.02087379002947486	-0.012068585783422521	-4.294960646251523e-05
Ar	9.938953299482214e-05	7.174861759026851e-05	0.0027886128785255984	0.005439057326468001	-0.007475906711901417	0.00010109602178075952
2
136800
Ar	-5.9074193856573694e-05	-0.0003327514291629997	0.0031878990737984787	-0.023842593985508025	0.004177816171412334	-4.38110522018918e-05
Ar	0.00012553561527547287	-1.4240340218487366e-05	0.0027891454961264496	-0.00043589281026478003	-0.008993741864582306	2.2813612004613235e-06
2
137000
Ar	-0.00026386487043642416	-0.00021454898597216517	0.0031874408868838864	-0.015391365702890828	0.018485288312785127	-8.48148458934006e-05
Ar	9.147305167164329e-05	-9.320663589132733e-05	0.0027885725626854946	-0.006085001884363884	-0.0061544325518851015	-9.260525593225943e-05
2
137200
Ar	-0.00034186450647873346	6.8420632785587665e-06	0.003186336664482577	0.00043634579520343753	0.023934168644284767	-0.0001099791957411777
Ar	1.3595361184734672e-05	-0.000127368957140002	0.002787869023389717	-0.008819394201703449	-0.0004125699177054118	-4.7493653773198136e-05
2
137400
Ar	-0.00025586214929884687	0.0002247852124300096	0.0031850927508563667	0.016014022728290875	0.017853874636682966	-8.989446672916042e-05
Ar	-7.056095684337958e-05	-0.00010061798522135016	0.0027875928383695	-0.007317066562490074	0.005487995275134322	7.150462627771149e-07
2
137600
Ar	-4.770342188074861e-05	0.0003349809318052436	0.0031849878147215487	0.02388158350855819	0.0033018309165261943	8.320448696137445e-05
Ar	-0.00012086990221669099	-2.624587881684582e-05	0.0027874929362260766	-0.0023142726849700616	0.008745696367318622	-3.315856603155292e-05
2
137800
Ar	0.00018317908993792451	0.0002850919042388425	0.003186606809383642	0.020357996615064527	-0.012866185563367402	0.0002082798698368534
Ar	-0.00011321334447012398	6.0021438454971156e-05	0.0027873086583249888	0.0037626271842911476	0.007796441000347891	-9.49065124697846e-06
2
138000
Ar	0.00032642088054871533	9.841249358991932e-05	0.003188383813284908	0.007064060788421879	-0.022888727465357705	0.00013895413526488742
Ar	-5.133184691392474e-05	0.00011731799827387084	0.0027873080563769	0.008078242578274362	0.0032096876356973733	2.6665941495349123e-05
2
138200
Ar	0.0003127959402120967	-0.00013539669183596862	0.0031887601133012444	-0.009685591413321237	-0.021895991116704178	-4.5475365515963255e-05
Ar	3.556558574216717e-05	0.0001189230727158239	0.0027880409059408227	0.008533252642020366	-0.002924172998117176	9.810336007415569e-05
2
138400
Ar	0.0001490279019211658	-0.00030403921657676643	0.003187576516690901	-0.021699012111341707	-0.010443858398257849	-0.00016470370438391877
Ar	0.00010533415972243345	6.345851816473578e-05	0.002788935219711775	0.004845924942514165	-0.007664921860462192	5.662910410537614e-05
2
138600
Ar	-8.594479494342438e-05	-0.0003275941067741647	0.003185976086472793	-0.023333515323120987	0.00593839643970994	-0.00013509085780954706
Ar	0.00012469755581512022	-2.1923400081300032e-05	0.0027889464394034243	-0.0011506129943129597	-0.008701509999686469	-4.750184810404516e-05
2
138800
Ar	-0.0002798165393326434	-0.00019426109372400446	0.0031850370272814873	-0.013805587526269154	0.01960068924102473	-6.051114816920309e-05
Ar	8.41341039011668e-05	-9.657100711955302e-05	0.00278808147626128	-0.006620793147503976	-0.005594050708003374	-0.00010648269297368053
2
139000
Ar	-0.00033947706523957283	3.24388791086669e-05	0.0031848029849322725	0.002365815671872294	0.023840783955367793	7.129594006052154e-06
Ar	3.0886164807180955e-06	-0.00012505025488225525	0.002787197872960637	-0.008905594758506299	0.00013972756413805517	-4.938448301438985e-05
2
139200
Ar	-0.00023650232842606142	0.0002434043390603395	0.003185293729622792	0.017364438608395878	0.016590353688096984	0.00011982252217539093
Ar	-7.95722213273865e-05	-9.389729237394088e-05	0.0027869488527980284	-0.006932959558041745	0.005843285337955134	-6.657701378671753e-06
2
139400
Ar	-2.0194982673126783e-05	0.00033777871500730033	0.003186811054124825	0.024084242223029642	0.001512381830944851	0.00017399454659174164
Ar	-0.00012438162949711517	-1.7747077581362038e-05	0.002787087629634037	-0.001600459999196335	0.008742331618810759	2.4707522429159238e-05
2
139600
Ar	0.0002060299865401064	0.0002704923797961645	0.003188498961501407	0.019233720501523877	-0.0143959241491566	0.00012955637785761942
Ar	-0.00010919624099102983	6.680856994451934e-05	0.0027875164293468847	0.004516810215245308	0.007447928569726503	7.455475878535183e-05
2
139800
Ar	0.0003332253434268345	7.366093220082315e-05	0.003189193745323096	0.00510935427472797	-0.023341196381852867	-1.3518411388832003e-06
Ar	-4.1071971281107036e-05	0.00011947876900623034	0.002788481740510174	0.008528873805431152	0.0026167866635311687	9.330094625874658e-05
2
140000
Ar	0.0003002585290942564	-0.0001582073744056338	0.003188551567351015	-0.011410405495858015	-0.021079661495360967	-0.00014916339993061327
Ar	4.729099377231862e-05	0.00011483137621328984	0.002789514294479034	0.008396176212162588	-0.003515485634412047	9.139237932463463e-05
2
140200
Ar	0.00012350811960428764	-0.0003138952354856932	0.0031868170876441044	-0.022461166440512742	-0.008746023237257317	-0.00015608699676968559
Ar	0.00011319347529625567	5.505524953687155e-05	0.002789792442330604	0.00422753311894114	-0.007924653295312396	-5.254315224469805e-05
2
140400
Ar	-0.00011259550876396058	-0.0003190378302305606	0.0031857726241377848	-0.022794578009435133	0.007761914729783547	-3.929090803295939e-05
Ar	0.0001249495508114619	-3.0651554748008965e-05	0.0027886133516132525	-0.001964040460780424	-0.008506368894388138	-0.00016286251453262582
2
140600
Ar	-0.00029489230052168576	-0.00017114087653088766	0.0031855975489184308	-0.012115749350591447	0.02057397677791938	1.6390253771584097e-05
Ar	7.698753073116973e-05	-0.00010150736571314236	0.002786899289809205	-0.0072332119709850986	-0.005065411243320407	-0.00014340473691204478
2
140800
Ar	-0.000335395447362976	5.874034756098728e-05	0.003185595366572364	0.004354675264216386	0.023475071408731483	-7.687298059164997e-06
Ar	-7.964262527556952e-06	-0.00012375484724419273	0.0027860770159467254	-0.009060021901432354	0.0008057165655105822	-1.4474431289986676e-05
2
141000
Ar	-0.00021520135193028606	0.0002605631534229233	0.003186098218024637	0.018675998119493206	0.01518484508387174	0.00012792036225578226
Ar	-8.915228192725033e-05	-8.685088227529554e-05	0.002786354341780279	-0.00651109921407538	0.0062567960379799874	6.228545986216831e-05
2
141200
Ar	7.8526881890655e-06	0.0003378137554857461	0.0031875510865967726	0.024058004451141164	-0.00038010666539496695	0.00014307739474697052
Ar	-0.0001276387556531757	-8.701912477578451e-06	0.0027871730685708786	-0.0008596470146901022	0.00872036327010847	6.441470260147874e-05
2
141400
Ar	0.00022719779420369773	0.00025319015737653014	0.003188525396619104	0.017955686710860664	-0.015850580401123308	1.8921565000730633e-05
Ar	-0.00010472287554399046	7.376347910558111e-05	0.0027880575525493175	0.005253582806279971	0.007077187526127848	0.00011375555725988056
2
141600
Ar	0.00033760661713999563	4.690694438217691e-05	0.0031881273150100183	0.0032064460155627975	-0.023677212638282638	-9.343703614211054e-05
Ar	-3.122614245833728e-05	0.0001211884007405421	0.002789161990213674	0.008832683999158056	0.0019921531399768586	0.00010727563912791272
2
141800
Ar	0.00028596934296684	-0.0001821453543827782	0.0031868203637029848	-0.013078917286628617	-0.02021706592548685	-0.0001483141138801091
Ar	5.757462042382228e-05	0.00011041790444208004	0.002789770349060717	0.008150312921019252	-0.00405043694785085	1.5775280390196822e-06
2
142000
Ar	9.756794032973829e-05	-0.0003247013683759953	0.003185766836785225	-0.0230362115491577	-0.007097727883980347	-5.9363103344306204e-05
Ar	0.00011852828894543156	4.6967426414231466e-05	0.0027892824549775666	0.0035317126473307847	-0.008085437228256356	-0.0001109195032450144
2
142200
Ar	-0.00013780956565600676	-0.0003120046365631905	0.0031855945309342618	-0.022038618933243933	0.00953725496966198	1.1455640837441772e-05
Ar	0.00012226259487304293	-3.8635778979202925e-05	0.0027879387703688644	-0.002804781883475419	-0.008321116467414706	-0.00012459609729692983
2
142400
Ar	-0.0003070870490135016	-0.00014949796304138487	0.0031858922341114673	-0.010375384295776285	0.021605248039102565	5.716080061309231e-05
Ar	6.745453943718465e-05	-0.00010593782500624923	0.0027871525359358844	-0.0077314972222145145	-0.004584221038460364	-1.6661484859743397e-05
2
142600
Ar	-0.0003287635879175754	8.499870710686544e-05	0.003186697970770548	0.006199992827872378	0.0233308662352186	9.14919350951645e-05
Ar	-1.98463795712197e-05	-0.00012281378400814732	0.0027872732787120064	-0.008974849380878709	0.0013741045945263402	4.332436133754267e-05
2
142800
Ar	-0.0001931786623831587	0.00027875801034614445	0.003187771847190791	0.01977715062446623	0.013801978621747386	9.385199930074807e-05
Ar	-9.714798199834238e-05	-8.078927479538304e-05	0.0027880237498144693	-0.005851650576729934	0.006700444238370074	7.087859708291728e-05
2
143000
Ar	3.4793053042710304e-05	0.000338837663384697	0.00318828103721426	0.023903151749898578	-0.002295428524994389	-3.22958999696145e-07
Ar	-0.0001277516434127593	3.605850845923616e-07	0.0027885621999019913	1.0515707240750986e-05	0.008826512176998043	5.040692897197641e-05
2
143200
Ar	0.00024622785067389516	0.0002366117255436858	0.0031878371328076132	0.016587848489343297	-0.017282302812305236	-7.4580476469653e-05
Ar	-9.702232233208598e-05	8.138505312406558e-05	0.0027891163016012348	0.00590466100394098	0.0066785676016944615	4.221926910073739e-05
2
143400
Ar	0.00033962987707823516	2.11706343422691e-05	0.0031868520291511273	0.0013067039108734858	-0.023999054761335355	-0.00011862561172623366
Ar	-1.9488349645276274e-05	0.0001231839763212093	0.0027892666990218216	0.008926628801263456	0.0013262239120007849	-3.365274027272773e-05
2
143600
Ar	0.00027058033365159884	-0.00020440493131250248	0.003185905854362724	-0.014513509150373178	-0.01922808369502263	-5.172024997812321e-05
Ar	6.735585893158135e-05	0.00010599340608953496	0.0027884091283056816	0.0076873336666083425	-0.004624238624465262	-0.00011707862131644264
2
143800
Ar	7.261000796132447e-05	-0.00033190980332173365	0.0031859255315555405	-0.023423009178244473	-0.005223150047468513	5.143603115751802e-05
Ar	0.00012161673717663267	3.80643388409584e-05	0.002787015286381603	0.002709191263311232	-0.008374052592334716	-0.0001387064082631786
2
144000
Ar	-0.0001600242545155191	-0.0003003471671694628	0.0031864822936472615	-0.021138774658915626	0.011287549590545034	5.870147679442099e-05
Ar	0.00011727780738149167	-4.796260761118085e-05	0.002786016480742701	-0.0035292711550340295	-0.008128496540858425	-3.230169079214025e-05
2
144200
Ar	-0.00031588979633473456	-0.00012454104554537562	0.0031870889798120733	-0.008712240087585076	0.02238226569470109	6.683490837481762e-05
Ar	5.6570936814604e-05	-0.00011130611188781166	0.002786260679351563	-0.00808660561600624	-0.0040047356497347735	7.40834159261007e-05
2
144400
Ar	-0.0003202792733909245	0.00011093968383949582	0.0031876036175275966	0.007856544046399024	0.022749290862665732	3.7400202192876e-05
Ar	-3.1443668855906794e-05	-0.00012147564057026052	0.0027872476281544903	-0.008785027890488422	0.002047373107690229	0.00013406820599295513
2
144600
Ar	-0.00017141458430787056	0.00029353951277532724	0.003187802890180015	0.020683776516963646	0.012229960413783303	2.257247476423328e-05
Ar	-0.0001045248715756195	-7.377951466975832e-05	0.002788615751027868	-0.005198559123106191	0.0071237872845256334	0.00012018656979895953
2
144800
Ar	5.986662176537414e-05	0.0003354912366561371	0.0031877684199810405	0.02362280837512533	-0.00417898603544959	-3.1465360952064575e-05
Ar	-0.00012721404381115856	9.635204848925474e-06	0.002789374537992151	0.0008482499759534732	0.00885135368790419	3.4145638822760206e-05
2
145000
Ar	0.0002623689653832439	0.00021664483833267587	0.003187049004313007	0.015181588485779	-0.018602555778003044	-0.00011142897106710123
Ar	-8.897538791663343e-05	8.886056767511087e-05	0.00278945848895912	0.006454352691067457	0.0063046131869897125	-2.2476672665253844e-05
2
145200
Ar	0.00033921525663363174	-6.219283030524734e-06	0.0031859009942070264	-0.0004622479446597255	-0.024119134856612597	-9.827897065824653e-05
Ar	-8.293170562257685e-06	0.00012543962020055034	0.002788922282976341	0.00899630164956893	0.0007230532515488049	-0.00010903891709076553
2
145400
Ar	0.00025380284358812716	-0.00022654047651302363	0.0031852194631790255	-0.01590748600284869	-0.01810084900275559	-4.800971959673883e-05
Ar	7.600250837700371e-05	0.00010212760985576664	0.002787280829021788	0.007166073656212868	-0.005174442118743694	-0.00016207606224899669
2
145600
Ar	4.7015586866397834e-05	-0.0003386669685390628	0.0031853428946402545	-0.023693911459624288	-0.003360599992656066	5.640416579785169e-05
Ar	0.00012349708481196247	2.9989022131252306e-05	0.002785801494199887	0.0019515327344997743	-0.008647804195843259	-0.0001048054119307224
2
145800
Ar	-0.00018216949002881064	-0.0002881058742329154	0.003185979794370176	-0.02017065786570266	0.013051394691275782	6.23985115005743e-05
Ar	0.0001118710991452754	-5.679220241044887e-05	0.002785702126712332	-0.004197292233067257	-0.007966980893991149	8.575929168779221e-05
2
146000
Ar	-0.00032390593522196105	-9.916998304486158e-05	0.0031866412833886845	-0.006988083598150891	0.023144479911562463	8.251358540752312e-05
Ar	4.618197266153528e-05	-0.00011629023047339505	0.0027869422601300457	-0.008347552427928036	-0.0034389214289220365	0.00015538150399281285
2
146200
Ar	-0.00031048394240358146	0.00013719811668311653	0.0031879020817893503	0.00953328296416732	0.022146464084303177	0.00014538304229215696
Ar	-4.151195738014465e-05	-0.00011987969323720658	0.0027884916974104286	-0.008446812659719149	0.0027313731831920436	0.0001306967042065795
2
146400
Ar	-0.00014834763040515406	0.0003075751412670884	0.00318884954779122	0.021540599197900974	0.01047871906968467	2.0815294582409403e-05
Ar	-0.00010920276419987032	-6.593161498321355e-05	0.0027896191381929936	-0.004520522345550374	0.007593505746311512	7.36792625077926e-05
2
146600
Ar	8.507481395892007e-05	0.00033000961680762936	0.003188459054380191	0.023196328637993476	-0.006182119495871082	-8.689589626346324e-05
Ar	-0.0001245927705648312	1.9830737012094913e-05	0.0027902029806102704	0.001559196050700605	0.008823890947217503	2.6714560434029464e-05
2
146800
Ar	0.0002777256347873198	0.0001942249578356164	0.003187294391240662	0.013728231546906422	-0.01981760329918052	-0.00012203301840294962
Ar	-8.045321155667728e-05	9.601904584856671e-05	0.0027898681476843717	0.006877005060549623	0.0057754916387131264	-9.219822176033153e-05
2
147000
Ar	0.0003375340488912816	-3.439634428869568e-05	0.003186033697471031	-0.002282223362693071	-0.023994188277051035	-0.00012130301507031308
Ar	1.6589821900803122e-06	0.00012591850205592343	0.002788542278628877	0.008869641868419511	-5.11568078372587e-05	-0.00015249911784108623
2
147200
Ar	0.00023582064939652617	-0.0002466166949810073	0.0031853915935829845	-0.017221733333823194	-0.016678510606088298	-1.8134979902131184e-05
Ar	8.262606392076887e-05	9.5290723545535e-05	0.0027870878967224486	0.006658524700052317	-0.005846647054001518	-0.00012958105990404907
2
147400
Ar	2.090043588249194e-05	-0.0003409093287554336	0.003185466107340529	-0.02391481277099969	-0.0013552315805152875	9.99562431131782e-06
Ar	0.00012443363365314308	1.8822610484496726e-05	0.002786396285865863	0.0013319143599173336	-0.00883289398982934	-1.228844028912139e-05
2
147600
Ar	-0.00020383070509105299	-0.00027163433357224815	0.00318586408011175	-0.019149848192089227	0.014604308117526641	6.0863816856697446e-05
Ar	0.00010680082251702039	-6.668392099850638e-05	0.002786739252255142	-0.004692938031395079	-0.007577442897293204	5.6398355928139166e-05
2
147800
Ar	-0.0003310470202733979	-7.243919407844119e-05	0.003186768739287082	-0.005218645242195439	0.023573073918059614	0.0001130710424434699
Ar	3.8204177580995484e-05	-0.00012028956088996463	0.002787395603245983	-0.008457177122373694	-0.0026855546691134063	8.75808377983328e-05
2
148000
Ar	-0.00029965279583327	0.00016137179783519835	0.0031879272578854874	0.011261804091625418	0.02122762235868733	9.530857505786219e-05
Ar	-4.8790219860490096e-05	-0.00011600855126662349	0.002788151006471297	-0.008226142999500067	0.0035029440931400916	6.599354598141099e-05
2
148200
Ar	-0.00012437321578330835	0.0003174814766054847	0.003188400872144212	0.022339228693720178	0.008688214702536518	-1.262429258149629e-05
Ar	-0.0001126777973596594	-5.585792489029984e-05	0.0027888737025122583	-0.004022366697972078	0.008019169631231822	6.174437107676645e-05
2
148400
Ar	0.00011067013289970664	0.0003211672170672533	0.003187741197656143	0.022709936245952144	-0.00798973020848845	-0.00011697773688997756
Ar	-0.00012268148581780515	3.104276205368381e-05	0.002789034794858594	0.0021297596757423403	0.008632027788596742	-3.7390617908973486e-05
2
148600
Ar	0.000292866437892439	0.0001709067865667396	0.0031865857622726083	0.01219337602681415	-0.02079907797824766	-0.0001286751951058988
Ar	-7.356200303397867e-05	0.00010282162117222745	0.0027883143453141077	0.007255918055443073	0.0051338911233644235	-9.210364887569454e-05
2
148800
Ar	0.00033482881680373106	-6.094391920575362e-05	0.00318583031567506	-0.004170625134110364	-0.023632425999721384	-3.491258622023812e-05
Ar	1.0672472296146244e-05	0.00012541171515962525	0.002787436530922863	0.00888876453791603	-0.0007973306379248875	-6.86965232858242e-05
2
149000
Ar	0.00021607106326629793	-0.00026349117360068637	0.0031858070178794173	-0.018542357792805872	-0.015195612595620413	3.403967252230045e-05
Ar	8.966556409638518e-05	8.799833512816131e-05	0.0027870096824840246	0.006247359228813435	-0.006373947170762431	-3.1675453922601734e-05
2
149200
Ar	-5.99507376510999e-06	-0.00033996143649804626	0.003186230775234454	-0.02400399451125578	0.0005297245316575787	6.898596887564275e-05
Ar	0.00012543323389718446	8.266652429163778e-06	0.0027867989410189724	0.000608516695359796	-0.008915689121946754	-1.2026411531445202e-05
2
149400
Ar	-0.00022498216831333634	-0.0002535837147578921	0.0031872016570915255	-0.017971100106508913	0.016015665098181447	0.00010109936299472692
Ar	0.00010080825576989226	-7.548073247780207e-05	0.0027869838775829033	-0.005330368001748177	-0.007127942695909356	5.052444268492383e-05
2
149600
Ar	-0.00033615026109962663	-4.569540701598702e-05	0.0031880678410825774	-0.0033185144128638666	0.023832110786510527	6.468386604923882e-05
Ar	2.744641905560079e-05	-0.00012293624998772887	0.002787443480358592	-0.008707673834942711	-0.0019658631812541237	2.432458982212965e-05
2
149800
Ar	-0.0002861057801180641	0.0001840608380485415	0.003188220227845719	0.012910074526222873	0.02020067611423546	-3.458067439736918e-05
Ar	-5.9039060738163687e-05	-0.00011146052027221044	0.002787754203716958	-0.007879484050354863	0.004169564864874919	4.069269084931334e-05
2
150000
Ar	-9.883819681413021e-05	0.00032561057328355945	0.0031874878810645253	0.022978096406443382	0.006924197169807453	-0.00010612820468629403
Ar	-0.00011733508428096502	-4.630121960507169e-05	0.002788269116857496	-0.0033017741701391458	0.00831471150844202	7.154277433070985e-05
2
150200
Ar	0.0001359069434085562	0.00031133208198403094	0.003186473923584445	0.02201572666484432	-0.009668516076609417	-8.219072200858658e-05
Ar	-0.0001196473926265468	4.117170278423147e-05	0.002788569729264025	0.002868615439952262	0.008423211421315155	-2.2850097076504638e-05
2
150400
Ar	0.00030562883426201874	0.00014783049338120235	0.0031861723924297624	0.010506844714250013	-0.021659264842425016	-2.423647962270149e-06
Ar	-6.497536765361088e-05	0.00010874937000716024	0.0027881045102304304	0.007607421789859763	0.004510085540246466	-7.559396244991505e-05
2
150600
Ar	0.00032901057793589686	-8.655060261829208e-05	0.003186278288003841	-0.006020235397939799	-0.023242788850946855	3.4313165826381735e-05
Ar	2.0501557199865955e-05	0.00012411974620102207	0.002787625059977742	0.008781378120116683	-0.0015701239768901372	-2.3291851859495986e-05
2
150800
Ar	0.00019494490736976603	-0.0002793309506986611	0.003186765170291648	-0.019643640088006228	-0.01371179257935887	6.550557261986475e-05
Ar	9.591784844010261e-05	7.983332210971257e-05	0.0027876433680508596	0.005668281947614009	-0.006906402086103667	2.4419902892316852e-05
2
151000
Ar	-3.210980558897998e-05	-0.0003383874265651224	0.0031873921698446265	-0.02388138759327422	0.0024119896468605476	6.0414297129290486e-05
Ar	0.00012483613892480335	-2.8616780216817394e-06	0.0027878399216917714	-0.00011089927649569695	-0.008923852041885269	2.6617658846887423e-05
2
151200
Ar	-0.00024407891295498549	-0.00023490537575832478	0.0031877192095416482	-0.016714650902518148	0.017415303513423647	2.07633866306482e-05
Ar	9.407496944403959e-05	-8.434102224303826e-05	0.00278808057351236	-0.005791916179323949	-0.006673946908235765	2.283473558737459e-05
2
151400
Ar	-0.0003392482082947644	-1.867613115384809e-05	0.003187667930067735	-0.0015127515222134334	0.024024207892975945	-2.6498230638150745e-05
Ar	1.8124965385728936e-05	-0.000125454721701294	0.002788212350647122	-0.008754004998905898	-0.0011858395231067957	1.5019859154945133e-05
2
151600
Ar	-0.0002717575832932561	0.00020660349205110152	0.0031869712093671727	0.014447034692960499	0.019159378449115593	-9.675050348934602e-05
Ar	-6.664239691184538e-05	-0.00010641141205066579	0.002788340498700197	-0.007496420739761773	0.0048437110812342464	-6.141213877659956e-06
2
151800
Ar	-7.37349848515274e-05	0.00033309507969844554	0.003185994918515725	0.023487359706172085	0.005082846122879608	-7.537767204969555e-05
Ar	-0.0001196736292618331	-3.638858373657429e-05	0.002788316939245062	-0.002677967682355004	0.008545670989919459	-1.614305341614853e-05
2
152000
Ar	0.00015968077762039537	0.000300097565486221	0.003185692320944238	0.021247474621158082	-0.0114131888441573	2.3221904181275926e-05
Ar	-0.00011585189337536313	5.0758694204706196e-05	0.002787964571598151	0.0034177942654753184	0.008169216834241372	-4.456612634832806e-05
2
152200
Ar	0.00031650343105699044	0.00012324137031928441	0.0031862608325903814	0.008809605471816308	-0.022467688614738336	8.113415428553635e-05
Ar	-5.67564173319816e-05	0.0001135914610536301	0.002787479134501471	0.007910151106759512	0.003892066850380775	-5.890236847488174e-05
2
152400
Ar	0.0003215807887991882	-0.00011265818094946344	0.0031869484647386623	-0.007831265235018812	-0.02272945024755823	7.333273617814559e-05
Ar	2.953825972153743e-05	0.00012222394252266966	0.002787226810217254	0.008631916570754036	-0.0022440296122141195	-6.130637259197902e-08
2
152600
Ar	0.00017254916490469274	-0.0002947313776575697	0.003187332794669511	-0.02072315378739003	-0.012135171035235004	5.630166545613037e-06
Ar	0.00010207118622332171	7.246415371519093e-05	0.002787336039983988	0.005211915219808462	-0.0073095034902266225	3.908514990352524e-05
2
152800
Ar	-5.908853030292363e-05	-0.00033542070585667575	0.0031873161060186426	-0.0236943029021301	0.004313944856664727	-1.64483050853303e-05
Ar	0.00012547601054843175	-1.2051540488818817e-05	0.0027877433197299765	-0.0007275973329738687	-0.008894565025720365	4.5432751148528775e-05
2
153000
Ar	-0.000262509464399914	-0.0002153423337136281	0.0031870093392894977	-0.015277119770709901	0.018680250401115723	-4.87897896253451e-05
Ar	8.874489872719331e-05	-9.079138418442421e-05	0.0027881205255416643	-0.0063096088328933415	-0.006202128286118933	4.4949474005424815e-05
2
153200
Ar	-0.000339741011889514	8.11209597426435e-06	0.003186692798079188	0.00047234888582874807	0.024119403600264232	-7.51682517647004e-06
Ar	9.597856136430041e-06	-0.0001259680842518988	0.0027885160206060538	-0.008832348002727182	-0.0005190248916505394	3.4122712605942485e-05
2
153400
Ar	-0.00025405602595762695	0.0002275174211529936	0.003186603941749777	0.015959537310799195	0.01793863569886049	-7.886418381628316e-06
Ar	-7.387351360020986e-05	-0.00010060720982661764	0.002788654909736288	-0.007159719234680557	0.005387031279730365	-9.412405021851182e-06
2
153600
Ar	-4.6599624076053556e-05	0.00033796582459030583	0.0031865005332491958	0.023805727442466732	0.003247420915822016	1.0688823180482283e-05
Ar	-0.00012191497388037192	-2.7137866340790123e-05	0.0027885683342289266	-0.0020356039733621643	0.008664188000910528	-1.5618318575948694e-06
2
153800
Ar	0.00018305296997790597	0.0002868157499316892	0.0031867044027502293	0.02019829648515775	-0.01306153004260805	3.163687554993929e-05
Ar	-0.00011146062808865222	5.899699070715907e-05	0.0027882624182705433	0.004030602892596826	0.007846451128390315	-4.960291003694744e-05
2
154000
Ar	0.00032473965380110825	9.825561501089532e-05	0.0031871215107287395	0.006934956817418349	-0.023065397837402763	2.6763523015392244e-05
Ar	-4.7622900316770794e-05	0.00011661759874597789	0.0027875204254308463	0.008209795609109047	0.0032028448584120904	-7.694431122815178e-05
2
154200
Ar	0.0003104971783457674	-0.0001371816084503356	0.003187219205266779	-0.009661398111916032	-0.02203754260069198	1.4141088675993771e-05
Ar	3.921458987422769e-05	0.00011808793511760098	0.0027866330373743304	0.008428442225524696	-0.0029243091732401773	-7.970442676454121e-05
2
154400
Ar	0.00014747178831189822	-0.00030646915629464457	0.0031873093611595738	-0.021561212361237724	-0.01043307108830846	-4.902420620921977e-07
Ar	0.00010719763456801407	6.28311882244401e-05	0.002786200789570003	0.0046129606575775065	-0.007642282770628667	-3.5829017450065407e-06
2
154600
Ar	-8.617976821576791e-05	-0.00032893955081831705	0.0031872371095158203	-0.023186881501446318	0.006122583640553832	-5.756314544425599e-06
Ar	0.00012389745193129695	-2.273373801079841e-05	0.002786799438471287	-0.0014090726663202686	-0.008736972780287707	0.00011110478019814796
2
154800
Ar	-0.0002785395113192174	-0.00019370328733313844	0.00318711624806183	-0.013698940555117979	0.01978385643371254	-3.09421337789039e-05
Ar	8.130635708957394e-05	-9.737527724153979e-05	0.00278793768125162	-0.006750795467308712	-0.005587166123313694	0.00010696831921928251
2
155000
Ar	-0.0003377618710562974	3.450980907937318e-05	0.003186669808108404	0.002366994982673644	0.023920770291695644	-3.1997864825066654e-05
Ar	-2.128161648093237e-07	-0.00012553021074150725	0.0027889975607023544	-0.008888331654370484	0.00020775928727586552	8.799455139544269e-05
2
155200
Ar	-0.00023503384315568584	0.0002461127424982835	0.003186561807533085	0.017310050798315685	0.016630133349105226	1.2750297296830447e-05
Ar	-8.181045414135074e-05	-9.334079843141499e-05	0.0027895189448771803	-0.006744503891143406	0.005937162290522483	-7.705596441855193e-06
2
155400
Ar	-1.992283110687156e-05	0.0003401407858940353	0.0031869103330986626	0.023940704206570185	0.0013831172873723795	5.758823447987442e-05
Ar	-0.00012384523475064037	-1.6587286719948347e-05	0.002788850190248564	-0.001346983226351162	0.008779070950119301	-9.084624160299772e-05
2
155600
Ar	0.00020477144355602814	0.0002715076182733632	0.003187800683280222	0.019119007272470522	-0.014551435405482933	0.00011816235233027444
Ar	-0.00010665308791243625	6.811204411019424e-05	0.00278774368108673	0.004638428731627643	0.0074300966893460964	-0.00011601082506059829
2
155800
Ar	0.00033159524801918333	7.276705046137158e-05	0.003188689851273882	0.005158579968647685	-0.023531172703118067	4.784666926455042e-05
Ar	-3.81988458791604e-05	0.00011992767227626331	0.002786395007769617	0.00848980018071922	0.0025047533330230867	-0.00012223779174682078
2
156000
Ar	0.0002993563075492956	-0.0001608914577136281	0.003188599460972541	-0.011328950805271378	-0.02124191797469325	-7.909326584173938e-05
Ar	4.9223897505420047e-05	0.00011435436295721724	0.0027856093642293295	0.008258748665369643	-0.003576509713619755	-2.7067387703841057e-05
2
156200
Ar	0.00012346384097639332	-0.00031715892892518786	0.003187495845633619	-0.022368472523399022	-0.008712427255422163	-0.00012181590257126473
Ar	0.00011356616797504922	5.376463060507062e-05	0.002785853749712265	0.004052353936549962	-0.008036071466776434	6.570903030845944e-05
2
156400
Ar	-0.00011179317639113689	-0.0003214856649219228	0.003186206475049972	-0.02268677261996815	0.007880733549752843	-0.00011208604265151636
Ar	0.00012345554111836048	-3.300005140297617e-05	0.00278668729073562	-0.0021483840869318226	-0.008556803566188733	9.463630717260924e-05
2
156600
Ar	-0.00029352855609829923	-0.00017193650318525892	0.003185443909299818	-0.012131811434620304	0.020762390060329886	-3.9781430693378515e-05
Ar	7.401206866532426e-05	-0.00010356878673586819	0.002787849619902417	-0.0073287001861257585	-0.004960613578933697	0.00012440564839129225
2
156800
Ar	-0.000334734968493103	6.009083245674807e-05	0.003185484091678504	0.004239162816314071	0.02369743525425067	5.654106875397045e-05
Ar	-1.1021492168930019e-05	-0.00012446098148074977	0.002788912737887722	-0.008974088297043825	0.0009554772797473774	5.324939105249108e-05
2
157000
Ar	-0.00021594383001845494	0.0002634758176583782	0.0031864410454355272	0.01854503414771544	0.01528060276934307	0.00013488232375650084
Ar	-9.077270143418285e-05	-8.609679450465652e-05	0.002789066804056	-0.006323228273287214	0.00640088851481255	-8.946121758399014e-06
2
157200
Ar	6.2195280886310046e-06	0.00034078910038714996	0.0031879209238458097	0.024024200776971597	-0.0004991486751836507	0.00013691056277439337
Ar	-0.00012714942375040465	-6.93793737024751e-06	0.0027885028239044317	-0.0006527499542726777	0.008793106494447644	-9.09945614009084e-05
2
157400
Ar	0.0002253455500284411	0.0002543877061946346	0.0031887075881579857	0.017984389051326335	-0.01605418967711812	1.4889451361190603e-06
Ar	-0.00010255944355608703	7.554520511967484e-05	0.0027877782919545286	0.005344376931260715	0.007020620965123025	-4.098770927145489e-05
2
157600
Ar	0.00033622271546834094	4.597435430511481e-05	0.0031881904160404174	0.003277950618427273	-0.02388274688534899	-9.420543603907003e-05
Ar	-2.885484409851099e-05	0.00012223852172446007	0.002787319808970874	0.008770695147040585	0.0019041110128203845	-5.346791994455131e-05
2
157800
Ar	0.00028562798933765026	-0.00018449424080229328	0.003186750998566455	-0.012962000854693291	-0.020259610520596282	-0.00019049439476960945
Ar	5.857362095530177e-05	0.00011033138954164671	0.002786964704848391	0.00799957870028925	-0.004192582281967678	-8.65855344812389e-06
2
158000
Ar	9.791880927406469e-05	-0.0003264874811189839	0.0031852666129112343	-0.02300586190407296	-0.006920336793868684	-0.00010034183430564152
Ar	0.00011813324634328121	4.529383743998087e-05	0.0027869721308728225	0.003401001796684508	-0.008267677377375235	1.2875220869491944e-05
2
158200
Ar	-0.0001368024507669704	-0.0003118849842215725	0.003184682104192121	-0.021975760876391408	0.009725708382434556	5.026044725408297e-06
Ar	0.00012113432082379229	-4.149189876887383e-05	0.0027871885401741653	-0.0028153538016946885	-0.008355170794014493	1.3588157085493025e-05
2
158400
Ar	-0.0003058526222042166	-0.00014784900795215835	0.0031852994833833402	-0.010408351956518453	0.021712100703736324	0.00010639602855715029
Ar	6.635111530451756e-05	-0.00010832859022700144	0.0027871971915117938	-0.007702996694018283	-0.004459810177922945	-1.4823344093534538e-05
2
158600
Ar	-0.00032835651442547354	8.727271250180421e-05	0.003186618892918876	0.006096089353066021	0.023295844748374206	0.0001479003649906407
Ar	-1.997787571665219e-05	-0.00012338325478394445	0.00278727038809647	-0.008874537388644516	0.0015883135622196123	3.164090984717928e-05
2
158800
Ar	-0.00019373038556015198	0.0002800622622630163	0.0031879415550106075	0.019712108707124483	0.013653520883220057	0.00011613800129662929
Ar	-9.66920876827192e-05	-7.920648966935796e-05	0.0027875793494706114	-0.00583013866066628	0.006894068979809165	4.528309571809361e-05
2
159000
Ar	3.385949800043915e-05	0.00033829641013305754	0.0031886794968803847	0.02388807093640065	-0.0024750656016266155	3.166901004722349e-05
Ar	-0.00012668420118924136	3.2571907611355767e-06	0.0027877355455504433	4.722741759926897e-05	0.008895295973052062	7.588345595499601e-06
2
159200
Ar	0.00024542980823489695	0.0002342322088235677	0.0031884444791667704	0.01662674494668142	-0.017458398370116635	-6.912770620305907e-05
Ar	-9.573169263996496e-05	8.41384303505683e-05	0.0027876365199599904	0.005899299681392208	0.006606942156573348	-6.810611274248318e-06
2
159400
Ar	0.00033906637994557284	1.7558904183853454e-05	0.0031875579096536854	0.0013109010916260069	-0.024062789002622386	-0.00011326720315982703
Ar	-1.8239263148491495e-05	0.00012480064133738708	0.0027875912076210023	0.008928418003453982	0.0011951449442312596	1.0229792471873196e-05
2
159600
Ar	0.0002699451308784685	-0.00020791772920942853	0.00318643503582498	-0.014565786060862784	-0.019151944527015956	-0.00010185456725619783
Ar	6.816174228132191e-05	0.00010610444006587045	0.00278783303425398	0.007622047526272808	-0.004808279229282199	2.2659489857614458e-05
2
159800
Ar	7.12854170316994e-05	-0.0003340035683402427	0.003185663388404215	-0.023501868537048998	-0.005017055165171444	-4.570907290717701e-05
Ar	0.0001218951112072716	3.6411470616852476e-05	0.0027878783429502096	0.002689285164752527	-0.008558840335120787	1.0661089175652824e-05
2
160000
Ar	-0.00016162556507186895	-0.0002999926125271665	0.0031856194840650894	-0.021128303247853822	0.011542906291860987	6.820271175428017e-05
Ar	0.00011742995538497476	-5.084690842353973e-05	0.002787820688725826	-0.003557776529220051	-0.008158723759816553	-7.542375405307531e-06
2
160200
Ar	-0.0003173225438694055	-0.0001223376053449199	0.003186500392010948	-0.008695746473104815	0.02249640743855878	0.00011163059486808068
Ar	5.6642716293904904e-05	-0.00011359174369071024	0.0027878775195754896	-0.008103806954417725	-0.0038585691275088664	9.618005894643648e-06
2
160400
Ar	-0.00032109606885129786	0.00011374306320934963	0.0031875541503347034	0.008019692793284036	0.022710433590347363	9.751964899724365e-05
Ar	-3.1318820993928624e-05	-0.00012209056563959684	0.0027879734830329717	-0.008763155717461077	0.002242288236341269	2.6638615287511944e-05
2
160600
Ar	-0.00017035977306248788	0.00029518244951934894	0.0031882339710664113	0.020844944970663255	0.012041477529699583	1.5740345134702635e-05
Ar	-0.00010427460671508446	-7.217387477656804e-05	0.0027884160860240704	-0.0052150498305757785	0.0073315165911723365	3.8302774756124856e-05
2
160800
Ar	6.187353090272548e-05	0.0003350761429063214	0.0031881393765078444	0.023668788525572346	-0.004373566780658712	-4.7064332384020625e-05
Ar	-0.00012710493413888488	1.253501304630066e-05	0.0027887085600371985	0.0008430163044394769	0.00890327422412041	2.702481376671137e-05
2
161000
Ar	0.0002642670966558366	0.00021444264476389483	0.003187495147699	0.0151367436275604	-0.018750329673393993	-7.724621706941228e-05
Ar	-8.898134295760422e-05	9.143264250755988e-05	0.0027887515877621847	0.006456401479038042	0.006204768366060876	-2.0782220473567532e-05
2
161200
Ar	0.00034008218972041745	-9.205146257093761e-06	0.0031867225669408414	-0.0006232741324984411	-0.024093038762562163	-7.632174422378868e-05
Ar	-8.638354267475184e-06	0.00012640475400175227	0.0027884943113227895	0.008949545596340798	0.0005019072309304337	-5.4697977199657674e-05
2
161400
Ar	0.00025279094170183616	-0.00022830398021977602	0.0031858767598692377	-0.016121484943246556	-0.017899487639228655	-6.190361320384924e-05
Ar	7.570863941006006e-05	0.0001007368037525874	0.0027878170203668702	0.007204689334231735	-0.005414358457732724	-5.972746099368626e-05
2
161600
Ar	4.402602677268513e-05	-0.0003381809455428579	0.0031855019927731713	-0.023870532709917364	-0.0031505128743197757	-5.45739680920996e-05
Ar	0.0001236884187716956	2.693856789182396e-05	0.0027875233523224005	0.0019897813320128082	-0.0087433026412672	1.7728066195063552e-06
2
161800
Ar	-0.00018567682180529814	-0.00028593526498181066	0.0031854012578487194	-0.02016207934340124	0.01317861674495206	6.380855589179616e-06
Ar	0.00011231794768327127	-5.960952752101325e-05	0.0027875577056820523	-0.00414390162582286	-0.00786106652968914	-3.2539420902004795e-07
2
162000
Ar	-0.00032624437936550017	-9.639102161674627e-05	0.003185921447306442	-0.006763093073401129	0.02310609098200904	6.662505824583436e-05
Ar	4.737956683341996e-05	-0.00011750223280823874	0.0027876616749319964	-0.008301439020827892	-0.0032411534930410404	3.1604473590270927e-05
2
162200
Ar	-0.0003099784092837381	0.00013915573882791195	0.0031867886906019557	0.009867381973265768	0.02204058070277077	9.859771214707616e-05
Ar	-4.0355619929881554e-05	-0.00011926933945788427	0.0027879936044072225	-0.008506988287505731	0.002924091464633881	1.1024851424073617e-05
2
162400
Ar	-0.00014493491733260134	0.0003083597743177543	0.0031875150508822183	0.021764870989813723	0.010384038661684228	5.875533950753748e-05
Ar	-0.00010905055411003074	-6.395521153837873e-05	0.0027878629227683954	-0.004651325545662626	0.007660008775274669	-3.712205354311953e-05
2
162600
Ar	8.956451616351103e-05	0.000329774332770076	0.0031876565462360396	0.023175050064622383	-0.006297202752065599	-1.6931323762122165e-05
Ar	-0.000125706132343917	2.1864053089011048e-05	0.002787831677470872	0.001465482866169179	0.008793655302474805	3.0237040901925217e-05
2
162800
Ar	0.0002809062686536562	0.00019264953284895634	0.0031871349553508773	0.01349377072634283	-0.019962863917114975	-8.07944548738001e-05
Ar	-8.21625124338541e-05	9.75564241669826e-05	0.002788445666868431	0.006860919429504906	0.005697361366366569	8.061405600189472e-05
2
163000
Ar	0.00033769452921917573	-3.690153646662579e-05	0.00318622406808573	-0.0025896256584017176	-0.024040981569054695	-8.28857881272064e-05
Ar	6.190186222969164e-07	0.00012644282242465235	0.002788937344774424	0.00899961711281804	-0.00016419288966771313	1.8554230923316387e-05
2
163200
Ar	0.00023308772940566116	-0.00024913900350326826	0.003185423087253553	-0.01746623897209138	-0.016606004248820812	-7.130670164461911e-05
Ar	8.298025984295386e-05	9.475758315632191e-05	0.0027888520814394317	0.006754356699124598	-0.005913150674767922	-4.798273009576566e-05
2
163400
Ar	1.674624670990896e-05	-0.00034209036818856907	0.0031852667835893527	-0.02397542678186708	-0.0011953137188541294	2.9258314167191614e-05
Ar	0.00012492377382706973	1.79092603455633e-05	0.002788049708069193	0.001293852474924031	-0.008826576108997687	-8.243413726983225e-05
2
163600
Ar	-0.00020768452456613264	-0.00027091094058478505	0.003185924336421923	-0.019034575670171666	0.014797438050633606	0.00010886260576276338
Ar	0.00010689502347392692	-6.746065126980442e-05	0.0027874472239988483	-0.004758919233295712	-0.007552795683291764	-4.160119379232537e-05
2
163800
Ar	-0.0003326387182752582	-7.024881396918385e-05	0.0031871521302845518	-0.004927782175889426	0.023639066298256326	0.0001248735370413839
Ar	3.7304139765063544e-05	-0.00012044327375128227	0.0027872014953366736	-0.008586204618638963	-0.002602622830972728	-2.5705244783254063e-05
2
164000
Ar	-0.00029799906086078214	0.00016374792860069564	0.003187939015370158	0.011541181056360145	0.02116799057454748	3.8584152340668714e-05
Ar	-5.055447037690032e-05	-0.00011555120983919647	0.00278719570045756	-0.00824261741793218	0.0035413778526646855	1.6746271236203892e-05
2
164200
Ar	-0.000120157514169317	0.000318714611574705	0.0031880963296609956	0.022523116865243678	0.008542015827690756	-1.520784668389981e-05
Ar	-0.00011390068136719088	-5.5053509863873685e-05	0.0027877124234803557	-0.003898989450173304	0.008048987750102989	7.580992186947603e-05
2
164400
Ar	0.00011527213605683167	0.0003207169418660787	0.003187463054132469	0.022588908046915407	-0.008158906264520883	-0.00010746127801154803
Ar	-0.00012243506416480135	3.1942841228212686e-05	0.0027885785134001413	0.0022644746944550263	0.00863287534012075	9.795288255795502e-05
2
164600
Ar	0.0002949780152622036	0.00016888471891613447	0.0031864206722031474	0.011876918401144562	-0.020932748316723548	-9.962479655470838e-05
Ar	-7.233882062954717e-05	0.00010390555786265722	0.0027894259816770572	0.007328240424240402	0.005142343813320182	5.8425229463900535e-05
2
164800
Ar	0.00033352927520103215	-6.391940162040041e-05	0.0031857474329826264	-0.004492174481143345	-0.023676043512333714	-3.898836186663003e-05
Ar	1.2085049121685449e-05	0.00012615543613366293	0.0027894776587481305	0.008857001587260018	-0.000861563753445954	-2.5434162151549658e-05
2
165000
Ar	0.00021238234324794518	-0.0002663730349004637	0.003185459591109477	-0.018709703803100837	-0.015112983082243238	-7.687243630631554e-06
Ar	9.053946775201635e-05	8.833103237246732e-05	0.0027888605911984086	0.006169954219100534	-0.0063944517897393735	-6.761373708291015e-05
2
165200
Ar	-1.03645562584611e-05	-0.00034149335111242397	0.0031858625099475592	-0.02396226709463731	0.0007391182982481548	8.134401882748608e-05
Ar	0.00012532553986500873	8.319062406210051e-06	0.002788114878140762	0.00048413873315267865	-0.008926574210480225	-0.00010546241078824678
2
165400
Ar	-0.0002280633094801476	-0.00025276200140839116	0.0031864431258358276	-0.01774517250454072	0.01625352872790295	5.3663983233439414e-05
Ar	9.980341052440574e-05	-7.556704135449431e-05	0.002787167531348783	-0.005381559206260767	-0.007152575439969696	-7.90208051343021e-05
2
165600
Ar	-0.00033652771855285923	-4.293540231498035e-05	0.0031873888021706404	-0.003043362995129126	0.02395682405428579	0.00011413001963980006
Ar	2.62644913223595e-05	-0.00012320535013039943	0.002786317589502998	-0.008728014763695117	-0.0019968375458339943	-6.0695020252274664e-05
2
165800
Ar	-0.00028384732838558093	0.00018745135890217566	0.003188227223480319	0.013136224652884103	0.02015353448379509	5.6397154641764626e-05
Ar	-6.06848677113057e-05	-0.00011194130535709541	0.0027862770630439795	-0.007901426014345592	0.0041546228236368525	4.3796633706154824e-05
2
166000
Ar	-9.484219013475063e-05	0.0003274629039578995	0.003188284926263663	0.023034646688980937	0.006692688352492268	-3.8697912189135254e-05
Ar	-0.0001189236716569457	-4.659419924052446e-05	0.0027875732368434773	-0.003243403101005897	0.008356778070048587	0.00018905048963830127
2
166200
Ar	0.00013939921978391856	0.0003103072411341209	0.0031873249686414458	0.021870039046757536	-0.009968699442539353	-0.00013749467878078093
Ar	-0.00012033803169391611	4.140281666612263e-05	0.0027896359077841815	0.0029855189098029473	0.008504220890429102	0.00020629522568109954
2
166400
Ar	0.0003069859858114406	0.00014434122196974524	0.0031861193847570832	0.010259586767768065	-0.021816548607172935	-7.237893371091345e-05
Ar	-6.414020009794381e-05	0.00010944020402208773	0.0027911323312891055	0.007759608317627485	0.004531014716289364	6.511698115521399e-05
2
166600
Ar	0.00032797455110073615	-9.081537467052601e-05	0.003185818013473212	-0.0062104859513280285	-0.02324559798932943	2.7924874337929757e-05
Ar	2.2256078094838998e-05	0.0001248369575724877	0.0027908177405017633	0.008803756739358726	-0.0015783726445437849	-0.00010756691549879398
2
166800
Ar	0.0001924308481021099	-0.00028284333767082003	0.003186339733004874	-0.019780464918391884	-0.013511319327321891	6.115361956093399e-05
Ar	9.782073605016257e-05	8.030360296139316e-05	0.002789177411305803	0.0056821425867117775	-0.0069492631561411155	-0.00017679063102360454
2
167000
Ar	-3.530781320791373e-05	-0.0003392584272342192	0.0031868956684204496	-0.023848264630995764	0.0027026661998323237	4.837656748358461e-05
Ar	0.00012678044496005893	-2.516894571805234e-06	0.002787224951713022	-0.00014415986067384753	-0.008934772914428351	-0.00018688555232650858
2
167200
Ar	-0.0002460367607159207	-0.00023288052878210253	0.003187245762582683	-0.01652757739188761	0.01766496641238506	1.9274724171551964e-05
Ar	9.495275377054333e-05	-8.399346123181719e-05	0.0027859938145292583	-0.005954180188670166	-0.006693106690785968	-7.774800457643503e-05
2
167400
Ar	-0.00033892413240536857	-1.4931066077171519e-05	0.0031872692347336374	-0.00125363151410707	0.024101231602990908	-7.648473480038251e-06
Ar	1.7576122021442584e-05	-0.00012544139287823343	0.0027857966698960216	-0.008878700792074827	-0.0012579361737735878	2.699374618116724e-05
2
167600
Ar	-0.0002692442098689161	0.00021014552009260718	0.0031870023324073707	0.014646005557729132	0.01900766700140812	-7.45554700528885e-05
Ar	-6.841558696418144e-05	-0.00010698369908223496	0.002786765477220638	-0.007594240749849136	0.004797725802489087	0.00014713214938753274
2
167800
Ar	-6.995208548689309e-05	0.0003342817094951928	0.003186400581984868	0.02352335940012999	0.004744238619679632	-3.656786004051097e-05
Ar	-0.00012187709513793696	-3.732062387847452e-05	0.002788651208302605	-0.00263657821762753	0.008557180150532289	0.00021146479194353017
2
168000
Ar	0.0001631179259009465	0.00029780886940054656	0.0031861467466280215	0.021144618421246788	-0.011734326289109634	4.513386415329854e-06
Ar	-0.00011682849594292049	5.002549359303971e-05	0.002790550907584354	0.0036035198379886267	0.00819991710362273	0.00013875953352503488
2
168200
Ar	0.00031865876175131316	0.00011863390988749963	0.003186336497832906	0.008629326545022664	-0.022599865071372276	5.40064718327933e-05
Ar	-5.578931420670516e-05	0.00011352000385859327	0.002791168475318225	0.00808431840270403	0.003961450006655774	-8.138531539821937e-07
2
168400
Ar	0.00032158751430548727	-0.00011743353505816372	0.003186905453496278	-0.008048398110598452	-0.022649713182723262	4.225840788472763e-05
Ar	3.1685395803329204e-05	0.00012241684191236944	0.0027904377459949713	0.00866841883114024	-0.002221955078540896	-0.00014769781470883416
2
168600
Ar	0.00017064153434225924	-0.0002974896554405782	0.0031871176583394374	-0.02086853890712152	-0.011834678046037016	-1.5056487131584056e-05
Ar	0.00010348198651267409	7.266158628340637e-05	0.0027886514393630573	0.005102016777223641	-0.007313914618412375	-0.0001967181106047462
2
168800
Ar	-6.207072469189096e-05	-0.0003349469571055508	0.0031867119189234122	-0.023701123809381032	0.004636648952622352	-5.771335120220065e-05
Ar	0.00012561537071250297	-1.2018919436163781e-05	0.0027869056604690632	-0.0008618444911541928	-0.008916396067172911	-0.0001502857472210923
2
169000
Ar	-0.00026494864311202396	-0.00021211730528644817	0.0031863358520488297	-0.015161666757393092	0.018900471499203694	-3.613204337535098e-05
Ar	8.751881923393377e-05	-9.068395824194285e-05	0.0027856180878223203	-0.006453270832826646	-0.006178094094519669	-6.044155328108703e-05
2
169200
Ar	-0.0003403922608869239	1.2243753365155493e-05	0.003186081156161097	0.0006950221816943783	0.024084780162269566	-2.499029233181438e-05
Ar	7.098394275336822e-06	-0.00012563361167392757	0.0027855609703338995	-0.00895462150917339	-0.0005295045780521678	6.916783183388271e-05
2
169400
Ar	-0.00025217438494038016	0.00023042407037651534	0.003186022814522618	0.0162135688510014	0.017713466854379314	-1.7969816670727094e-05
Ar	-7.698856030418093e-05	-0.0001004455299449469	0.002786584151812285	-0.007149700969325752	0.005379684585837472	0.000153572340556551
2
169600
Ar	-4.2617518438825604e-05	0.0003379811463552953	0.0031860270514355027	0.02392986994596863	0.0029050569653867185	-1.2611270500457821e-05
Ar	-0.0001243987764967931	-2.6884319032410155e-05	0.002788232052280603	-0.0019166494288533889	0.008704215000418215	0.00016780706885907514
2
169800
Ar	0.00018731390513481949	0.00028389717201151204	0.0031863179427039368	0.020154797418080697	-0.0132721762226602	6.227337654798434e-05
Ar	-0.00011220794337880115	5.967143522693834e-05	0.002789660951946392	0.004247409963225844	0.00787333052444713	8.782587443397707e-05
2
170000
Ar	0.000327571843883654	9.379367874203114e-05	0.0031867727383834165	0.0067253659122097475	-0.023149652985868883	6.555803144484808e-05
Ar	-4.656317921034409e-05	0.0001176239097262562	0.002789966329484734	0.008320169797229675	0.0032448519779229635	-1.932486850573023e-05
2
170200
Ar	0.0003106708050493927	-0.00014119120225592705	0.0031874493942204104	-0.00996851788302247	-0.021845116815815312	4.671657421708379e-05
Ar	4.097552283636265e-05	0.00011923199135757651	0.0027892166023516284	0.0084805107158901	-0.002931493493972656	-0.00012400636758426282
2
170400
Ar	0.00014470602587729982	-0.00030812432848494395	0.0031874899840487205	-0.021840964045285283	-0.010131384093309638	-1.232626231279466e-05
Ar	0.00010914254121887097	6.375061506234038e-05	0.0027880112302931964	0.0045863967344590495	-0.007708443393733773	-0.0001434684315736244
2
170600
Ar	-9.050863885582413e-05	-0.00032724375462890885	0.003187422745427721	-0.02323981989682894	0.006476866744492074	-2.7144708652796166e-05
Ar	0.00012519068976488227	-2.237214851761164e-05	0.002786786241383515	-0.0014936290250503702	-0.00878781964358903	-0.00010902075821410028
2
170800
Ar	-0.00028243099603953716	-0.00018945366833831938	0.003187134996874841	-0.013523054170099151	0.019924457579377504	-4.649443769636165e-05
Ar	8.144248761028528e-05	-9.7771528367934e-05	0.002786237110513914	-0.006910913883986077	-0.00565464614223123	1.3306186021365306e-05
2
171000
Ar	-0.0003386571778678112	3.911827698675322e-05	0.0031864672648434234	0.002740901474448376	0.023864110393005417	-7.195622654335528e-05
Ar	-1.689345632864035e-06	-0.00012631797943420754	0.0027868969146351607	-0.0089999715125969	0.0001906607219893822	0.00010241114467188266
2
171200
Ar	-0.00023235593442952858	0.0002488670683087861	0.003185765104244094	0.017647765856599145	0.01632661623321997	-5.34515507539086e-05
Ar	-8.411523081345974e-05	-9.428723765740324e-05	0.0027881817667626454	-0.0067750992111743425	0.0059310076933107355	0.00012955856662323753
2
171400
Ar	-1.4633285381908606e-05	0.0003394213890522166	0.003185603163457341	0.024087974110481657	0.0010363445353328735	3.708461324163623e-05
Ar	-0.0001261137237786727	-1.729568025956542e-05	0.0027892765782350816	-0.001296581915053622	0.008806939005722226	8.609650505754088e-05
2
171600
Ar	0.00021034801118093282	0.0002676824946007775	0.0031863140351784387	0.01901146450319188	-0.014767215430800399	8.429770933455181e-05
Ar	-0.0001080008887756307	6.746013824614138e-05	0.002789894831667117	0.004796255389035989	0.007452141027361392	2.113609550078874e-05
2
171800
Ar	0.00033460697890609853	6.808499667450227e-05	0.0031870702352590737	0.00480008336615709	-0.023491370294497802	7.517033644401075e-05
Ar	-3.830033216454954e-05	0.00011990998498985179	0.002789905747936723	0.00857177502629874	0.002596821804772857	-3.0326999150330784e-05
2
172000
Ar	0.0002988724401149557	-0.00016409030921195474	0.0031875529144457498	-0.011661575863243703	-0.020999863922389308	1.3962313850760911e-05
Ar	4.9546510662239846e-05	0.0001150149585600848	0.002789200242729798	0.008284508110108554	-0.0035420435671045533	-0.00010428380716946135
2
172200
Ar	0.000120321844436124	-0.0003177472501335713	0.0031876475817354815	-0.022548646297658594	-0.008447462927620098	7.932969983716484e-06
Ar	0.00011372953836978195	5.4896078442914664e-05	0.002788051903976541	0.004020980274385253	-0.007980968264920138	-0.00011111118934570649
2
172400
Ar	-0.00011562551046577526	-0.00031941299159493825	0.003187338794035378	-0.022646463382021705	0.008145170288816473	-8.007936243687697e-05
Ar	0.00012328906579845957	-3.172999940501644e-05	0.002786764343521586	-0.002199774829644421	-0.008614101200850661	-0.00013510747051509624
2
172600
Ar	-0.00029573449536405655	-0.0001680607451612107	0.003186277240314234	-0.011866827386359307	0.020878603357780794	-0.00010594187545171269
Ar	7.341491109393971e-05	-0.00010335654230495432	0.002786034240083165	-0.007346524130440145	-0.005126268337496537	9.703685274717136e-06
2
172800
Ar	-0.0003338010539713422	6.402153335901357e-05	0.0031853937069749663	0.004574217504903431	0.023585559920635213	-6.133210382610216e-05
Ar	-1.1952496499336754e-05	-0.00012567205112753576	0.0027867164292572077	-0.009009057539740494	0.0008486527929542144	0.00012479385990406527
2
173000
Ar	-0.00021198377595347395	0.00026567878276437723	0.0031853058594494385	0.018791686529565053	0.01502522919954897	5.66228563264976e-05
Ar	-9.195937470762057e-05	-8.795931357545636e-05	0.0027881529815406195	-0.006316241648841538	0.006378563039378834	0.0001684843031277876
2
173200
Ar	1.1590378939464714e-05	0.00033990578285290516	0.0031863679473566647	0.02405018487108755	-0.0007785169245371783	0.0001617025939120691
Ar	-0.00012797690694583302	-8.316555952801936e-06	0.002789809152475654	-0.0005855858092735224	0.008877211121783846	0.00015291440469366907
2
173400
Ar	0.00022990288079027831	0.00025155110983834104	0.003187822038189762	0.017784238667583333	-0.016184867152476638	0.00013415580244619167
Ar	-0.00010252398493117742	7.51273704399659e-05	0.002791004855685697	0.005455458253387954	0.007093182912047467	6.57152713645821e-05
2
173600
Ar	0.0003382386319391759	4.2637762957063946e-05	0.00318861294887105	0.0029828367326864384	-0.023849555320534486	3.3340320515326054e-05
Ar	-2.7977531243849926e-05	0.00012209524191641807	0.0027909288817921994	0.008819733699004148	0.0019458829211926464	-6.945308006244357e-05
2
173800
Ar	0.00028445993629088595	-0.00018678007380110154	0.0031882448540831213	-0.013279595412046945	-0.020109187057489764	-0.00010671145181410833
Ar	5.973549597265001e-05	0.00011054677808293059	0.002789659083445388	0.008000580742043214	-0.0041477244929546435	-0.00019345073579439087
2
174000
Ar	9.409229209201672e-05	-0.0003269445917891094	0.003187089254266157	-0.02317778151929421	-0.006718377151579412	-9.300572259907007e-05
Ar	0.00011889948284349431	4.6144654519912434e-05	0.002787287825693301	0.003332622425803696	-0.008207607761648802	-0.0002771811964649436
2
174200
Ar	-0.00014130784618666262	-0.0003102885079904462	0.0031857907220155884	-0.021910955932966294	0.00990532796859078	-0.00014525863397713706
Ar	0.00012095855795282387	-4.032923511519406e-05	0.0027850064333490416	-0.0029526477832558257	-0.008370249208577688	-0.0001538674009667589
2
174400
Ar	-0.000308693234092193	-0.00014485302998570854	0.003184692037649987	-0.010146461662795718	0.021800766908863276	-7.460409656992649e-05
Ar	6.488010582541907e-05	-0.0001075932646106575	0.0027843382983783653	-0.007794556989137012	-0.004519203403384564	2.6083302339220094e-05
2
174600
Ar	-0.000327804804496087	9.013146846501554e-05	0.0031847361915693807	0.006468779174305683	0.023236905430285247	7.880665683009002e-05
Ar	-2.219729412415639e-05	-0.00012327790397994887	0.002785427150963919	-0.008885694201231756	0.0015019942774983338	0.00017930921482089477
2
174800
Ar	-0.00018971930416904236	0.0002819815315189263	0.0031861101708740886	0.01997844318242868	0.013520313937156607	0.00016825536221182758
Ar	-9.854095759355751e-05	-7.987644607652138e-05	0.0027875992037596606	-0.005745922459300643	0.006819792874423919	0.00022167601475652412
2
175000
Ar	3.9102631637292694e-05	0.00033851857972786093	0.003187720337415206	0.0238590708211909	-0.0026869317825273607	0.00013989012963836563
Ar	-0.00012760060485873218	1.8932669046906382e-06	0.002789747370511654	0.0001520254924374568	0.008827358588283003	0.00017553926289978322
2
175200
Ar	0.0002490799582454279	0.00023275451189075152	0.003188499692725529	0.01636667084136676	-0.017573219724370346	1.2677433960827878e-05
Ar	-9.570573508764107e-05	8.245559200969089e-05	0.002790986909744345	0.005954601977907342	0.006616892562477367	7.018523201193938e-05
2
175400
Ar	0.00033994386462680076	1.550014246542151e-05	0.0031880507958134373	0.0010190155593240344	-0.02405321027715126	-0.00010383840468672816
Ar	-1.814528102075029e-05	0.0001235251670512591	0.0027907449132916397	0.008901083407995794	0.00126933361171507	-9.557839232852017e-05
2
175600
Ar	0.000267825410356315	-0.00020929086187754714	0.003187018239684018	-0.014811064558090474	-0.0190185690761352	-7.127359954201084e-05
Ar	6.775723629563204e-05	0.00010541798186150975	0.002789194306282137	0.0075666411977808965	-0.004716183968882031	-0.0001831816671911409
2
175800
Ar	6.757326575802646e-05	-0.00033387516982207277	0.0031864510411422366	-0.02355327281182362	-0.00486388834690801	-5.691301887354813e-05
Ar	0.00012076410336820105	3.688219402200743e-05	0.002787271827579622	0.0026108125273069404	-0.008405398498432266	-0.00016359817971375076
2
176000
Ar	-0.00016501018881092219	-0.0002985559480124626	0.003186039747632557	-0.02101545319574599	0.011640211712165723	2.2395863804149044e-07
Ar	0.00011573642125899326	-4.93108804549741e-05	0.0027860242404008657	-0.003584844636023297	-0.008104236180955559	-7.452237674739413e-05
2
176200
Ar	-0.0003181256927200288	-0.00011999207524738962	0.003186327055601068	-0.00835473271398374	0.022572982931113282	2.213597887018214e-05
Ar	5.5143565336908184e-05	-0.00011203774384787594	0.0027860026746961766	-0.008038293965011434	-0.003894379308822394	4.938632415643902e-05
2
176400
Ar	-0.00031877466997758564	0.00011609892363524249	0.003186878157016157	0.008240144136003947	0.022671478800913056	7.281947174356565e-05
Ar	-3.229015981573624e-05	-0.00012094596402495775	0.002786934088716797	-0.008708950134195991	0.002188895537835606	0.00010795468978508725
2
176600
Ar	-0.00016673628028808637	0.0002965083326850614	0.003187715437580889	0.020894784937658922	0.011905620091784124	4.576231496760061e-05
Ar	-0.00010455728688205036	-7.156935436146039e-05	0.002788202600685041	-0.005127220711760367	0.007260094067437202	0.00013201394960756036
2
176800
Ar	6.526969568757684e-05	0.0003350105072291828	0.003187786635808998	0.023552542547669482	-0.004548491327050193	-1.7452631224426314e-05
Ar	-0.00012671947498683726	1.2354275085210757e-05	0.002789261680430185	0.0008573686924874225	0.008821466007736844	8.696570769066993e-05
2
177000
Ar	0.00026599054577901564	0.00021278524678680413	0.0031872269100742118	0.0149027783213288	-0.01885186320813599	-8.238684851614383e-05
Ar	-8.827058050612122e-05	9.04719555762945e-05	0.0027900126837495658	0.00653137290884671	0.006121717332462883	4.943340888268768e-05
2
177200
Ar	0.00033947917805955853	-1.1134018664585321e-05	0.003186456772845593	-0.0008180958907007287	-0.024079624642605137	-6.678078089504113e-05
Ar	-7.410304072386282e-06	0.00012486628521769867	0.002790020534690686	0.008983981594277103	0.0004959120336361844	-7.919593436568707e-05
2
177400
Ar	0.0002508709323902916	-0.0002299064072328125	0.0031862543775845412	-0.01617588493474832	-0.01782581881263395	3.3029730268411916e-05
Ar	7.65480871445493e-05	9.971934596108316e-05	0.0027886993845665526	0.007136336540072458	-0.005337126752629152	-0.00016728614856077246
2
177600
Ar	4.192926583285472e-05	-0.00033871670429402753	0.00318668440161782	-0.023830679672754065	-0.0030089378294578667	5.023816465586915e-05
Ar	0.00012371815463099143	2.6898136017569745e-05	0.002786825597873154	0.0019105993515728266	-0.008615994971931513	-0.00016459681618458523
2
177800
Ar	-0.0001869568860373432	-0.0002851226877983746	0.003187280411852785	-0.020016717239056157	0.013275523707322516	5.1259791250951605e-05
Ar	0.00011163082552498894	-5.860259413054286e-05	0.0027857368507946223	-0.00423505139233379	-0.00778170385966131	-3.5977815684339433e-05
2
178000
Ar	-0.00032603979377515013	-9.495530327018606e-05	0.003187513407216414	-0.006600102252855014	0.02315620294834602	-6.704736189978715e-06
Ar	4.558346139345862e-05	-0.00011623862116414804	0.0027860382650176326	-0.008400215564422105	-0.0032585951373836643	0.00010202712792284631
2
178200
Ar	-0.0003087899226203946	0.00014040719634939193	0.0031872058113198948	0.009935103565625792	0.021931850617307107	-5.23711005647666e-05
Ar	-4.256144610305633e-05	-0.00011808489984830622	0.0027871746871166465	-0.008488507781530064	0.002902968486388178	0.00012756920935361155
2
178400
Ar	-0.00014359522569692434	0.00030793305031474183	0.0031869220724754913	0.021731843820029715	0.010173392949912702	3.09367565043898e-06
Ar	-0.0001103689799813483	-6.338386732901458e-05	0.0027884266498760498	-0.004479400919203718	0.00760903332517493	8.504042121001389e-05
2
178600
Ar	9.066968046651763e-05	0.00032788909259142123	0.0031867207941300877	0.023169797928061488	-0.0063570673098435485	-3.5441028379376575e-05
Ar	-0.00012507437627078192	2.160687260451014e-05	0.0027890573525297525	0.0016499031955108073	0.008689108020274443	4.288485184408878e-05
2
178800
Ar	0.00028181611294888587	0.00019085241577252164	0.003186309019264694	0.013448250405307699	-0.019899495448701655	-1.127612929015123e-05
Ar	-7.986148236081051e-05	9.599689502192159e-05	0.002789345349018744	0.007014319939823677	0.005570409516055786	-2.4652677466562616e-05
2
179000
Ar	0.00033803622340953225	-3.766985739441082e-05	0.003186315554987375	-0.0026729072158734927	-0.023872088128450816	1.3627459766336266e-05
Ar	3.859261011912339e-06	0.0001241197105424347	0.002788600109072631	0.009009571318618664	-0.00018779201967007294	-9.333280475576441e-05
2
179200
Ar	0.00023250142203005698	-0.0002479927632883002	0.0031865447366013562	-0.01755144837467443	-0.016428881107192653	4.995018878531827e-05
Ar	8.575435489108109e-05	9.249405764452484e-05	0.002787513714635709	0.00665681159033827	-0.005852165956125053	-0.00012802373329794288
2
179400
Ar	1.5445005809493866e-05	-0.00033933450773374237	0.003187282117536282	-0.02403045789178249	-0.0010644673512193682	7.449038830947652e-05
Ar	0.00012631675807019891	1.639058162854899e-05	0.002786684965825928	0.0011175144696503173	-0.008728498440261016	-7.017608585822611e-05
2
179600
Ar	-0.0002090046956314431	-0.00026776995937936285	0.003187904713618872	-0.018967480704093126	0.014765453180796237	3.294708235419709e-05
Ar	0.00010618414227569199	-6.78870698311621e-05	0.002786309617364209	-0.004985208276322758	-0.007404487223327018	-1.0560468461175124e-05
2
179800
Ar	-0.0003331525647193656	-6.791006938459553e-05	0.0031878947085715683	-0.004814496670212519	0.02351301583613141	-3.366071640254575e-05
Ar	3.499921112523488e-05	-0.00011954189212907486	0.002786752559399698	-0.008649770559019209	-0.002488032622894969	8.633283702387523e-05
2
180000
Ar	-0.0002976230480240716	0.00016435121314241585	0.0031872115768512557	0.011615008065316323	0.020993256922925266	-6.165777961714184e-05
Ar	-5.3064298721611824e-05	-0.00011358583757518151	0.0027878489010920208	-0.008219538185592267	0.0036215024417781817	0.00011781032669174501
2
180200
Ar	-0.0001195438950047454	0.00031791316350535825	0.0031868702310448587	0.02249945561536377	0.00841682756552285	-3.116994061214418e-06
Ar	-0.0001158988013394337	-5.317171327624573e-05	0.002788794314552727	-0.0038138711466114876	0.007959875448847171	7.549405888991731e-05
2
180400
Ar	0.00011586714241830093	0.00031920130496257204	0.0031868315669390393	0.02259867771407969	-0.008184796492816436	2.0102869165588255e-05
Ar	-0.00012298540671210983	3.234842293676039e-05	0.002789185629104152	0.0024172122656687654	0.008441737273068586	1.8920775486614623e-05
2
180600
Ar	0.0002956530007353878	0.0001674990288797088	0.00318692464039717	0.01184283464209507	-0.020869080187000257	2.5120935190006215e-05
Ar	-7.144457922559631e-05	0.00010214878573955203	0.0027889569007500154	0.007445629574206385	0.004942219799611885	-5.949747972860054e-05
2
180800
Ar	0.0003338064612889879	-6.409945283061389e-05	0.0031872454822902524	-0.0045455137915235274	-0.023512921891167157	1.1639515075394174e-05
Ar	1.3909658190703307e-05	0.00012302440121365803	0.002788064213207176	0.008923840749228779	-0.000910911423402681	-0.00011842182676735285
2
181000
Ar	0.00021208709201784264	-0.0002646976398772528	0.0031875221501254073	-0.018787286195497098	-0.01494226937501195	2.8167734115355273e-05
Ar	9.247461011049985e-05	8.487676455097425e-05	0.0027867321076036925	0.0061152685337256965	-0.0063794064090041125	-0.00011138882386742952
2
181200
Ar	-1.1208439702262517e-05	-0.00033840633256150305	0.0031877938189759586	-0.023993429803751295	0.0008297458167123421	3.3325753119418164e-05
Ar	0.00012621513723517298	5.799862280215982e-06	0.0027858986706075944	0.0003738054241423761	-0.008777943770483961	-6.771707486886839e-05
2
181400
Ar	-0.00022880100475115384	-0.0002495593088699111	0.0031877810584081076	-0.01770935415863287	0.016195708830824843	-4.0537991511094475e-05
Ar	9.94226812006964e-05	-7.638905407279151e-05	0.0027858948449111464	-0.005520084938909182	-0.006971055694918914	5.891021442572759e-05
2
181600
Ar	-0.0003363813179061387	-4.09320791876337e-05	0.003187326143792025	-0.0029166356018070815	0.023781038062508697	-1.9369354235181732e-05
Ar	2.4709867994183114e-05	-0.00012192543603156541	0.0027864563908208792	-0.008763906168812225	-0.0017553963242847952	6.305314289518559e-05
2
181800
Ar	-0.00028262995578631257	0.0001874297545022769	0.003187288347358769	0.013227296005399451	0.019968351779158944	1.6685479889674138e-05
Ar	-6.167324219538402e-05	-0.00010881561638276165	0.002787270209478114	-0.007770325765707472	0.004265961123930263	8.173894231871783e-05
2
182000
Ar	-9.347031513425133e-05	0.0003258098324622706	0.003187673250483298	0.02303094666501317	0.006576791090454139	3.7513214452008924e-05
Ar	-0.00011836581303600551	-4.346113628474172e-05	0.0027880049718072325	-0.003092312510048102	0.008264551503349232	6.20058492072668e-05
2
182200
Ar	0.00014069704847064488	0.00030840503659355776	0.0031879165119032813	0.021824566337916258	-0.009948892812224157	-1.458298883835801e-05
Ar	-0.00011827805001561664	4.277766372363224e-05	0.0027884350168698962	0.003134034807330493	0.00826184345571704	3.39458735180943e-05
2
182400
Ar	0.0003074334059455986	0.00014302952481510885	0.003187747576427134	0.010126973251053615	-0.021697086561280467	-2.8340008334223146e-05
Ar	-6.108075351567141e-05	0.00010860439240088252	0.0027885407924500612	0.007842432802501968	0.004329000948223676	-1.3876197497304742e-05
2
182600
Ar	0.00032690620278940925	-9.06730951431103e-05	0.0031875755523963793	-0.006380155042234361	-0.023062703186608073	-8.63931565117859e-06
Ar	2.550049047959182e-05	0.00012232126952251593	0.0027880611580395607	0.008741828485710082	-0.0016974271652261228	-9.018100341131752e-05
2
182800
Ar	0.00019000183519386543	-0.0002807534131230224	0.0031878223297563055	-0.01987064528827344	-0.013357964067719153	3.431680084095499e-05
Ar	9.964046501246208e-05	7.739244874967854e-05	0.0027868688542292143	0.005454861210150482	-0.006939622493068484	-0.00012734735451672263
2
183000
Ar	-3.8094521056794504e-05	-0.0003361097438033407	0.0031881052619199884	-0.023843313977501997	0.0027524458859212063	2.5651311333617522e-05
Ar	0.00012602056187119816	-5.083115967879398e-06	0.0027860462232841355	-0.00042063706996787814	-0.00886110422547303	-9.373632194954674e-06
2
183200
Ar	-0.00024798546619082216	-0.00023032545178009784	0.0031881001214869443	-0.01637271320555659	0.017520336567773954	2.3831889006351784e-06
Ar	9.203680648438138e-05	-8.534354709648061e-05	0.002786375642442778	-0.0061092900184028555	-0.006522804650715459	5.513282974784145e-05
2
183400
Ar	-0.00033877029433209717	-1.4043367169185371e-05	0.003188223278399908	-0.0010190736212314382	0.023913759905597708	5.8136119578713925e-06
Ar	1.3907341084348046e-05	-0.0001248146689522791	0.00278723361509529	-0.00886673267858325	-0.0010392761059105275	0.0001148524179438943
2
183600
Ar	-0.000267003653971242	0.00020916628969960165	0.0031880358997685124	0.014778439725738755	0.01883240276200671	-5.525784661340352e-05
Ar	-7.074672025242594e-05	-0.00010452575651260811	0.002788277614704345	-0.007377139017837728	0.004931761929546396	8.756919809364083e-05
2
183800
Ar	-6.721926974951733e-05	0.00033230758420046074	0.0031873109629635137	0.023495218689287656	0.004740726206084194	-8.834754594225364e-05
Ar	-0.00012154961517666601	-3.39268267219849e-05	0.002788725374443036	-0.0023561684931637677	0.008576133213980548	3.0940188214973045e-05
2
184000
Ar	0.00016495677414797978	0.0002960937627088957	0.0031866926673432745	0.02098931388194507	-0.011674983097435476	-5.338794131566231e-05
Ar	-0.00011416238382377959	5.305003179331193e-05	0.002788695482835885	0.0037642887414396082	0.008057647238525638	-4.370232758344371e-05
2
184200
Ar	0.0003183950905260898	0.00011785907502226102	0.0031865669730279838	0.00840894298616346	-0.022482779858268836	1.103771315884291e-05
Ar	-5.2306504710367504e-05	0.00011418248782803589	0.002787890240131494	0.00807139304530519	0.0036580549801871524	-8.789491583073004e-05
2
184400
Ar	0.0003194435302490516	-0.00011723163647530812	0.0031870047630748704	-0.008222603410075682	-0.02253388773443239	7.109590809731057e-05
Ar	3.456720403204289e-05	0.00012044860576155963	0.0027869793232508417	0.008568988227613419	-0.00246111050100195	-0.00010507317205375194
2
184600
Ar	0.00016713304132907444	-0.00029622665119974985	0.003187525421220756	-0.020963619503651335	-0.01174602758558859	4.856053243992761e-05
Ar	0.00010506869322551777	6.897325213047219e-05	0.002786050882097574	0.004950302520173636	-0.007403733473333934	-7.465998958187587e-05
2
184800
Ar	-6.550280339122625e-05	-0.00033325284398913094	0.00318782623147313	-0.023622212301492605	0.00467313272173506	3.1895054454401275e-06
Ar	0.00012545001774361895	-1.561137092149397e-05	0.0027856449601526244	-0.0010550842061336368	-0.008773570062142662	-9.318639035036702e-06
2
185000
Ar	-0.00026649598559644723	-0.00021043865883407106	0.0031875342335831204	-0.014913408656966679	0.018848269043290657	-4.508417267210341e-05
Ar	8.558397809532748e-05	-9.266362495726044e-05	0.0027860635268810727	-0.006594400402871564	-0.005981402972325062	9.730119753571808e-05
2
185200
Ar	-0.00033952929625550795	1.3172155775339775e-05	0.0031867650487248833	0.0009098397619293346	0.023992754030218916	-8.393256134406988e-05
Ar	4.3323875540873085e-06	-0.00012546873805216452	0.002787280310394518	-0.008966894992098177	-0.0003091229861758318	0.000131203063420722
2
185400
Ar	-0.00024998831686565793	0.000230481277135698	0.0031862363243309326	0.016269525130742476	0.017659692765099266	-1.951364989651353e-06
Ar	-7.896999097200772e-05	-9.84692633376333e-05	0.002788439124597907	-0.006990439346777076	0.005489719771143487	0.00010891306671266479
2
185600
Ar	-4.0395644614880167e-05	0.00033736620429751507	0.003186647534630201	0.023891334416556033	0.0028404365086715563	6.057019960362232e-05
Ar	-0.0001242885437014147	-2.4636991707427887e-05	0.0027890790697069935	-0.0017101400510961375	0.00869391368941738	6.56695816683647e-06
2
185800
Ar	0.00018887360380120464	0.00028253431757425826	0.0031872021130759844	0.020030601560947794	-0.01335499514637262	5.727603471564559e-05
Ar	-0.00011017768037649343	6.109469737435456e-05	0.002788806442790865	0.004384820420100485	0.0077250271239400325	-7.116057063508212e-05
2
186000
Ar	0.00032758123673024285	9.201531906822932e-05	0.0031878689822304853	0.0065313078288378726	-0.0231410263225431	5.317254590813928e-05
Ar	-4.3573748469511844e-05	0.00011730273757087984	0.0027880749802960494	0.008357244130062573	0.003042668512405519	-8.63860271032591e-05
2
186200
Ar	0.0003091649040194477	-0.0001429954283909319	0.003188271406491422	-0.010080470927671864	-0.021884582481748276	1.7033421715931115e-05
Ar	4.3716050343294054e-05	0.00011721881261678964	0.002787294396229333	0.008383804697609956	-0.0030553279261504598	-8.471027145491735e-05
2
186400
Ar	0.00014248105568335893	-0.00030956562081737524	0.003188002518034705	-0.02185145370581277	-0.0100404888007571	-6.162751566236246e-05
Ar	0.00011057234133399764	6.096756884337386e-05	0.002786699535945394	0.004411848584601025	-0.007717953744231463	-3.477489762343584e-05
2
186600
Ar	-9.234167863849992e-05	-0.0003273690922958546	0.003187111898158787	-0.023135905601708896	0.0066164445822866355	-0.00010259401696277709
Ar	0.0001245128333497582	-2.496753663112212e-05	0.002786692295260639	-0.0017321698136408732	-0.008743867147781878	4.46853152029115e-05
2
186800
Ar	-0.0002826722851488015	-0.00018818127442796247	0.003186260856217716	-0.013328348710869495	0.02006620858548422	-4.235410503560424e-05
Ar	7.891728928790608e-05	-9.944592162532393e-05	0.0027874362820445512	-0.006996924241219419	-0.005519700256645994	0.00011667776328757375
2
187000
Ar	-0.000337668018942624	4.141075726855283e-05	0.0031860030967992992	0.0028377200920063914	0.023915525167289172	-2.807803666783354e-06
Ar	-4.149416094086627e-06	-0.00012648395638478052	0.002788810166757061	-0.008916422949511131	0.0003467092618504699	0.00011327965582893875
2
187200
Ar	-0.00023070101780322332	0.00025121698949134494	0.0031863711384123527	0.017662923260606884	0.016274494204545614	6.545792244930784e-05
Ar	-8.50605977154085e-05	-9.311780045042775e-05	0.0027895734589968063	-0.006600971825895638	0.006052425703954834	5.0787981392807474e-05
2
187400
Ar	-1.3423020105234804e-05	0.0003406450442031909	0.0031870473596141025	0.023989730326792164	0.0008596148582319025	8.899582219704924e-05
Ar	-0.0001253525439175789	-1.5505351857519535e-05	0.0027892644044388974	-0.001111405378912001	0.008851273137107917	-9.139669075405983e-05
2
187600
Ar	0.00021020206306314587	0.00026682186110334324	0.003187629201312382	0.01884515054248839	-0.01500685452418695	3.517220934591215e-05
Ar	-0.00010538362270782358	6.947544150457224e-05	0.0027878899554934634	0.004912109472928226	0.007444120821119639	-0.00016502993972472812
2
187800
Ar	0.0003330060099337547	6.503414794083709e-05	0.0031878414644475714	0.004670590177535805	-0.02368389927706624	3.0173294475252146e-05
Ar	-3.489719893254652e-05	0.00012146050967721298	0.002786406635099933	0.008580502304336409	0.0025179149638521496	-0.00013692069499848447
2
188000
Ar	0.00029602183957097333	-0.00016808802193479718	0.0031877950958409318	-0.011743503054760464	-0.02098557993824949	-2.5158309593184976e-05
Ar	5.262648378376013e-05	0.00011546418170038712	0.002785582314002796	0.008170577892944779	-0.003680443304554211	-4.7820051561241184e-05
2
188200
Ar	0.0001169365444248439	-0.00032023379286775686	0.0031871288149365956	-0.022569242793234065	-0.008188910970762651	-8.132585686419197e-05
Ar	0.00011521985774486396	5.393721802491168e-05	0.0027857922202195974	0.0038102335343720866	-0.008132963035947642	0.00010678070881392222
2
188400
Ar	-0.00011829152070051233	-0.0003185528767171467	0.0031861857877722778	-0.02252768322920869	0.008517864222403339	-7.65980863798561e-05
Ar	0.00012280307685003282	-3.39364798806311e-05	0.0027875306148873453	-0.0023793153593066703	-0.008674885994038614	0.00020509469244377545
2
188600
Ar	-0.00029706247178889025	-0.00016418114058823466	0.0031858426936711044	-0.011711834822852138	0.021077088767178297	-2.5839490246950874e-07
Ar	7.158063283236027e-05	-0.00010518531957078233	0.002789286632717652	-0.0074229007060162095	-0.004985624181872696	0.00011267165960612607
2
188800
Ar	-0.00033349524491573185	6.865134550387652e-05	0.0031863623484682012	0.00471703911115424	0.023566623522655372	7.59530294215871e-05
Ar	-1.3595482200441543e-05	-0.00012584989611029462	0.002789927404889116	-0.008889193165766123	0.0010401573053912313	1.4954233336705671e-05
2
189000
Ar	-0.0002103677082393529	0.0002686520988189704	0.0031871225435484143	0.01888360296762075	0.014755084785477763	5.689042878155605e-05
Ar	-9.172197002062446e-05	-8.624168171406655e-05	0.002789568719734812	-0.0060755796037322615	0.006548861388374722	-6.884987853128046e-05
2
189200
Ar	1.3637376833485318e-05	0.0003398541956898125	0.0031876319585336208	0.024038513323470248	-0.0011208617829427604	3.3826603336702116e-05
Ar	-0.0001256691058146633	-5.561902812950915e-06	0.0027885725193988998	-0.00042994635561096267	0.008903272617867634	-0.00013859963941199302
2
189400
Ar	0.00023123020250345288	0.0002484876474826746	0.003187763772347071	0.017666888807245974	-0.016406593909575624	-3.177708367899462e-05
Ar	-9.969028046635117e-05	7.77120919708137e-05	0.002787215055800977	0.005409210516702517	0.007039189801653891	-0.00013249255827614954
2
189600
Ar	0.0003377954546408337	3.817587099354847e-05	0.003187256230481968	0.002776599905119247	-0.023891352437842742	-9.990377734117424e-05
Ar	-2.6077729670437754e-05	0.0001237732594064562	0.0027862047936697207	0.008703133155839949	0.0017848969966495708	-8.546148641443731e-05
2
189800
Ar	0.00028218195544889356	-0.00019049746737661655	0.0031859214344542694	-0.013421234788791595	-0.019922710942158296	-0.00014738602335477187
Ar	6.005178432178149e-05	0.000110393235668464	0.0027859745161611608	0.007798789894729935	-0.004360967339133934	3.024185044780092e-05
2
190000
Ar	9.139361504092655e-05	-0.00032758982443748875	0.0031849096419206335	-0.023135519405246077	-0.0063771256103079856	-3.934121355081988e-05
Ar	0.00011726683905884523	4.380624117160842e-05	0.0027864978990616296	0.003161619698188512	-0.008381169186830966	8.844635173737913e-05
2
190200
Ar	-0.00014319914515279638	-0.00030780597881197225	0.0031853809157393197	-0.021818390053676417	0.010164424258299621	0.00012373003486102204
Ar	0.00011806244311870457	-4.3550051380078884e-05	0.002787558283936691	-0.0030193888678855534	-0.008347885692074425	0.00011704691986647596
2
190400
Ar	-0.0003095127739885429	-0.00014059028062437043	0.0031870949243796576	-0.010036168466197542	0.021871877966970345	0.00017943215890662322
Ar	6.219670112695714e-05	-0.00010991752930608118	0.002788743861670709	-0.007670724780389876	-0.004358003086474131	0.00011875650929331013
2
190600
Ar	-0.0003273077978324891	9.418338496284024e-05	0.0031887799247166415	0.0066162752583940766	0.023073548653637782	0.00012508500213390453
Ar	-2.3090049159506904e-05	-0.00012370804203011958	0.0027896118390698397	-0.008672097210216183	0.001735705033751574	5.08199081716071e-05
2
190800
Ar	-0.00018798771738264087	0.00028344436552654896	0.0031893429397273783	0.02006741804319911	0.013212723588834834	-2.2795086122786177e-05
Ar	-9.742815560891745e-05	-7.814123730459951e-05	0.0027893853229727455	-0.005565196198107208	0.0070133491823640365	-8.806437011611216e-05
2
191000
Ar	4.140308796181362e-05	0.0003368804810444564	0.0031885570828700974	0.0238807917913377	-0.0029729053428456742	-0.00010963636951141476
Ar	-0.00012502248182013495	4.917923925914019e-06	0.002788176346682356	0.00026719672947326574	0.008893568117210175	-0.00013568636382204602
2
191200
Ar	0.0002509174727888211	0.00022870436645681645	0.003187292858557552	0.01627283556700912	-0.017733227859824154	-0.00015028048343064716
Ar	-9.272336506898362e-05	8.573171893614203e-05	0.0027867761887609634	0.005960251289335785	0.006569593078979314	-0.00011877314531033958
2
191400
Ar	0.0003403493073204605	1.1028928829371369e-05	0.003185766708367887	0.0008406532993947092	-0.02397527588915894	-0.0001454846133646835
Ar	-1.558705347989079e-05	0.00012574120909567734	0.002785874927643349	0.008812418724723398	0.0011168252870744203	-3.2889697165047686e-05
2
191600
Ar	0.00026637765615111097	-0.00021179102843006748	0.003184871880187555	-0.0150121134594891	-0.01871772788218946	-3.3243179078722595e-05
Ar	6.919640855335695e-05	0.0001059850555667208	0.0027862429876010287	0.007440696311362543	-0.004913480343803467	8.05588982743182e-05
2
191800
Ar	6.451192119022088e-05	-0.00033322923440616374	0.003185154744263941	-0.02366442979073362	-0.004548910293569442	9.813047664966955e-05
Ar	0.00012108658098201175	3.5457359163465336e-05	0.0027875175048282515	0.0024863787704533483	-0.008602453811263311	0.00016125293237511003
2
192000
Ar	-0.0001682706650159584	-0.00029534268924725804	0.0031865319600417824	-0.020953261344963628	0.011797731774633967	0.00016087173804797211
Ar	0.00011499325522792102	-5.2105853878218115e-05	0.002788957592195818	-0.0036517239272170236	-0.008159817466819954	0.00014830098176690597
2
192200
Ar	-0.00032039998525556774	-0.00011622208009285012	0.003188050644779002	-0.008207178932214166	0.02251198385532126	0.0001177366099027354
Ar	5.3905249019660456e-05	-0.00011441306677628828	0.0027901261246669738	-0.008047472210331134	-0.0038185394861595706	6.633881922598574e-05
2
192400
Ar	-0.00031898936991427184	0.00011853265541241867	0.0031885420594446917	0.00846630274551667	0.022462324561252276	-8.803278730721624e-06
Ar	-3.2814116351723355e-05	-0.00012206352124777215	0.002790380649202361	-0.008576487618718228	0.0023513998192795735	-1.667125005614596e-05
2
192600
Ar	-0.00016514457953187894	0.00029645657132389375	0.0031879640745948027	0.02102451161480608	0.011645026668060056	-8.749703726033031e-05
Ar	-0.00010356549186002087	-7.12457845232139e-05	0.0027893707940953184	-0.004961073456441701	0.007384898231046453	-0.00014803196372880243
2
192800
Ar	6.728140725435964e-05	0.0003322863246932214	0.003187125128374491	0.023540267449774596	-0.004756912222948966	-8.150954439218415e-05
Ar	-0.00012424691668541988	1.3718010233192941e-05	0.002787722667087726	0.0009952596606225468	0.008895079591739923	-0.0001572793385313735
2
193000
Ar	0.00026735416625100464	0.00020883600662683653	0.003186266308434719	0.014781023815293767	-0.018886159254290526	-6.63304481866969e-05
Ar	-8.529547149143651e-05	9.202356165806097e-05	0.0027862772050154597	0.006481618563145746	0.006119810257961951	-0.00010834535184693316
2
193200
Ar	0.00033886929145430985	-1.4663510174906413e-05	0.0031858775098580474	-0.0011003551261920743	-0.02393069731984078	-9.812912972555165e-06
Ar	-5.3401002567566986e-06	0.00012610404012920108	0.0027856187903301504	0.008838956345133455	0.0004174207885401669	-8.957768088557078e-06
2
193400
Ar	0.00024760661289799217	-0.00023091729267849643	0.00318616540215871	-0.01639883941010777	-0.01752101116092758	6.341013985515651e-05
Ar	7.710142801514963e-05	9.986561732747812e-05	0.0027863255492680786	0.006949139094920913	-0.005458046083380911	0.00015829608045651213
2
193600
Ar	3.775583038670767e-05	-0.00033654806238140147	0.0031868024830888388	-0.023805578404633845	-0.002723790683910365	7.894949769837727e-05
Ar	0.00012257267926285125	2.568276365701311e-05	0.002787897242184001	0.0017555329059762198	-0.008723134547068303	0.00015142457898029683
2
193800
Ar	-0.00019011306636125598	-0.0002811596670582353	0.003187591149595626	-0.019864493419921487	0.013355082044623927	5.4540372577173225e-05
Ar	0.00010943081581895429	-6.063303672341734e-05	0.0027893033986142912	-0.00429167701028723	-0.007812850749888947	0.00010691159209958126
2
194000
Ar	-0.00032713363037783485	-9.119037518114185e-05	0.0031877475319795584	-0.006418249562707832	0.023055539910571188	-1.4266353461725955e-05
Ar	4.3705966488144733e-05	-0.00011787340455114325	0.002789655420302765	-0.008294119688066705	-0.0031489482097821295	-1.4320091034080163e-05
2
194200
Ar	-0.0003074677876368582	0.0001425695177959449	0.003187487448765484	0.01017382167181262	0.021723669499740958	-3.605996951987666e-05
Ar	-4.297137682516655e-05	-0.0001186044732010176	0.0027891717279940097	-0.008322224976935936	0.0030073058730737076	-7.731802192822373e-05
2
194400
Ar	-0.0001405936026631308	0.0003079259490057787	0.0031872309764035796	0.021822690975507708	0.009978052345057546	-3.7927142630771334e-05
Ar	-0.00010906770081924672	-6.260678697855214e-05	0.0027878777852540604	-0.004364978195590525	0.007703441692302946	-0.00016902894138843424
2
194600
Ar	9.336582332590645e-05	0.00032587962837159293	0.0031868138244090776	0.023002550632856816	-0.006556878664392971	-4.1759454832894314e-05
Ar	-0.00012313541515992734	2.3264450952103563e-05	0.0027864003878631514	0.0016752750909897042	0.008754283125369956	-0.00010847772504944183
2
194800
Ar	0.000282151799364865	0.00018744107614963163	0.003186495606535337	0.013169897720512065	-0.019962181995181606	-1.3866883263272632e-05
Ar	-7.815402235288075e-05	9.804759445240815e-05	0.0027856681354413194	0.006949752720813869	0.005590456129186705	-2.5979628620813843e-05
2
195000
Ar	0.0003354160592192583	-4.08836040372429e-05	0.003186612578350816	-0.002959131087183515	-0.023795621956060373	3.9921862644057694e-05
Ar	4.459366104313244e-06	0.0001257786226071247	0.0027860767881625528	0.008856673047857427	-0.0002601652645862633	6.82908181882838e-05
2
195200
Ar	0.00022759129343209278	-0.00024982705034311704	0.0031872088634680314	-0.01766323893644831	-0.016247682051241878	6.322797793192427e-05
Ar	8.487585224573225e-05	9.318707820141186e-05	0.002787036313470546	0.006518231200079445	-0.0060033228113576635	0.0001116584126837341
2
195400
Ar	1.1032852597735875e-05	-0.00033919958436641397	0.0031876382309801903	-0.0238332717318865	-0.000888312655428805	2.4100608433796797e-05
Ar	0.00012438199808463972	1.560510933580504e-05	0.0027882888826867235	0.0010608390533101046	-0.008849221402572912	0.0001231506736250916
2
195600
Ar	-0.00021053505330060487	-0.0002658460071366069	0.003187997865175613	-0.018618582509123387	0.014937265641569797	1.9813040069673777e-05
Ar	0.00010445172324787307	-6.931862958311592e-05	0.0027893759651439914	-0.004882573566482127	-0.0074567477054910255	7.72618493459228e-05
2
195800
Ar	-0.00033130321969773615	-6.528412730760983e-05	0.00318798676606299	-0.004536999854638547	0.023512771439937945	-1.3132292506745275e-05
Ar	3.450924076253009e-05	-0.00012134711730689482	0.002789516151876658	-0.008478672888718447	-0.0025078813190991373	-6.752789270544215e-05
2
196000
Ar	-0.0002936550850316889	0.00016664866422203722	0.0031877317234528476	0.011754242378959265	0.020924500029664627	-4.0492428740895e-05
Ar	-5.149347210045469e-05	-0.00011511452011002209	0.0027882977232874286	-0.008013697159273995	0.0037202468515461955	-0.00016814566410566418
2
196200
Ar	-0.000115465983362954	0.00031905743260238797	0.0031871301670767472	0.02240732865477783	0.00827311237518221	-6.580129634699397e-05
Ar	-0.00011268160147621526	-5.326810912300543e-05	0.0027865400606951456	-0.003718662569674264	0.008120951477490994	-0.0001725707873426346
2
196400
Ar	0.00011779743043061579	0.00031841112827905003	0.0031864689214963302	0.022290158199769195	-0.00839964952425956	-6.062841537754873e-05
Ar	-0.00011973753708318867	3.449359054098256e-05	0.0027850035625948517	0.002342889089230555	0.00868857207769707	-0.00010667574581196816
2
196600
Ar	0.0002942494299295616	0.00016503398211430818	0.0031862087005518173	0.01152182616843716	-0.0210118588347168	-5.016478894611062e-06
Ar	-6.953569512256517e-05	0.0001060020280682598	0.002784592359141807	0.007280945804409798	0.005015989481360925	1.8745629402691818e-05
2
196800
Ar	0.0003296853755605352	-6.756874009242386e-05	0.003186750848594891	-0.004763200897396355	-0.023543406244048205	8.260708964234387e-05
Ar	1.4323698208226592e-05	0.00012656308091057878	0.0027853923609812577	0.008803163454548523	-0.0010589575571266026	0.00013353800548303267
2
197000
Ar	0.00020693688195037583	-0.0002675582553136135	0.003187818406360473	-0.018779930180252542	-0.014768653704595767	9.567615954095675e-05
Ar	9.184805728253143e-05	8.65835389061494e-05	0.0027871684490843786	0.00606213084593187	-0.006638287530124116	0.00020463496539608914
2
197200
Ar	-1.5183354208134998e-05	-0.0003390675029999962	0.0031884540440273047	-0.023774460375434518	0.0010854821158818304	4.630847911686828e-05
Ar	0.00012563198700741028	4.9371309278032614e-06	0.002789067543309293	0.0003995972382109792	-0.009007661704990406	0.00016698109779728163
2
197400
Ar	-0.00023004993562285056	-0.00024791496775296014	0.003188502472224224	-0.01739557146740765	0.016392015244972566	-4.193335101684753e-05
Ar	9.943293892453608e-05	-7.877519932011097e-05	0.0027902723470991644	-0.005448396446078148	-0.007031532030647159	6.0712097273586644e-05
2
197600
Ar	-0.00033483297929647347	-3.79516407720857e-05	0.003187762449845846	-0.00268859153387977	0.023835393005714026	-9.131104377912028e-05
Ar	2.5238325836760383e-05	-0.00012446700473289847	0.002790062325036179	-0.008745464029068124	-0.001722144843795747	-9.296345578313425e-05
2
197800
Ar	-0.0002794307029480362	0.0001902203456178815	0.003186517366487191	0.013311894350065957	0.019880705462792414	-0.00013886128770633065
Ar	-6.0958196077005416e-05	-0.00011044819122246032	0.0027887243538020803	-0.007775767271049137	0.004388512700847083	-0.00016040927606520057
2
198000
Ar	-9.035491129410537e-05	0.00032759748350179616	0.0031853876174840175	0.022904802367010257	0.0064241098046783265	-6.410254462116279e-05
Ar	-0.00011756466211294436	-4.384466070426908e-05	0.0027870046064717574	-0.003072925260277924	0.008363086322622072	-0.00017981344138669084
2
198200
Ar	0.00014188503068040932	0.0003080817362849721	0.003185562197229764	0.021579766758508943	-0.010156718805932326	7.428750957914796e-05
Ar	-0.00011783078008358833	4.338781303437291e-05	0.002785465162331043	0.0030219685186126683	0.008326332931779562	-0.00012227018001123994
2
198400
Ar	0.0003061616123307511	0.00014092255000247106	0.0031865512278871806	0.009900039512577848	-0.021864821204473712	0.00014035930595064422
Ar	-6.177336031446737e-05	0.00010965734916746877	0.0027846773116858917	0.0077234579835982345	0.004346485472684473	-1.8859565925886276e-05
2
198600
Ar	0.00032386031389394397	-9.365763067509571e-05	0.0031878638476250504	-0.006500019299879798	-0.023064556703333048	0.0001274585218993328
Ar	2.4132039855112827e-05	0.00012334516332791585	0.0027852396031956307	0.00874952075724082	-0.0017233206975379761	0.00014055401361607488
2
198800
Ar	0.00018633068547894153	-0.0002825886873329856	0.003188604704265242	-0.019854683596398283	-0.013166569809236061	-1.5012177629935442e-06
Ar	9.893953994643416e-05	7.776258370875226e-05	0.0027869918032247167	0.005574348151814355	-0.007010568441706285	0.00018756208599055924
2
199000
Ar	-4.0807111552463004e-05	-0.0003360221846051869	0.003188166229755831	-0.023663892422993993	0.002943906559749789	-6.719347318278055e-05
Ar	0.00012651683565739248	-5.293692006417345e-06	0.0027887989262894122	-0.00029973687488488995	-0.008883284488529245	0.00015992324936874692
2
199200
Ar	-0.0002485130943030629	-0.00022859221147267754	0.003187326750875867	-0.016143816540814294	0.017644176568046236	-9.10657145238817e-05
Ar	9.368471912848306e-05	-8.560646234936664e-05	0.0027897951224798516	-0.005995431809700795	-0.0065119600783421425	5.244539026544824e-05
2
199400
Ar	-0.000337307421626423	-1.1618765530482409e-05	0.0031865492232952346	-0.0008927605910966419	0.023922377511716542	-5.4442575845613596e-05
Ar	1.639036922351855e-05	-0.00012494121294082195	0.002789877945940601	-0.008797416089472087	-0.0010362945606265342	-5.371997099725401e-05
2
199600
Ar	-0.000264900612122683	0.00021110127746576306	0.0031864611134508193	0.014789421377628422	0.018756221484909175	2.3784447529205715e-05
Ar	-6.81871505426841e-05	-0.00010450893473301958	0.002788878957470431	-0.007423495489340288	0.004972098466352285	-0.00010344271476688479
2
199800
Ar	-6.574015552978797e-05	0.0003327005731425537	0.0031870391748022903	0.023400478427266627	0.004550317160826824	7.775198235732136e-05
Ar	-0.00012012060627789583	-3.375431688915231e-05	0.0027876117816839417	-0.0025016569028278104	0.008566878814349414	-0.00011594505049991389
2
200000
Ar	0.0001651572134723368	0.00029474083275517497	0.0031879352248126848	0.02083190171756817	-0.01183821790938605	8.237790313928013e-05
Ar	-0.00011431136812386408	5.307668066402707e-05	0.0027862714293390234	0.003603583550081051	0.008085928532023291	-0.00013194059498489204
2
200200
Ar	0.0003168986335489228	0.000115322997510056	0.003188278185172656	0.008226847392100093	-0.02254367426817284	-3.0611394442246635e-05
Ar	-5.384394444126883e-05	0.0001147875848648922	0.0027853616214576936	0.00799598188269138	0.0037317621945381226	-2.458718890744972e-05
2
200400
Ar	0.00031617332638695603	-0.00011915498553278126	0.003187652739463936	-0.008335129266152909	-0.022391205073346673	-0.00010022520621098142
Ar	3.2751555431792856e-05	0.00012153711465233106	0.002785563620287729	0.008591236031373926	-0.002442282312504543	2.6227323279425437e-05
2
200600
Ar	0.00016361666856444607	-0.0002959275347379008	0.0031864851752660055	-0.02089440351035372	-0.011501978371280894	-0.00010162467949287553
Ar	0.00010402840725306339	7.004074621709991e-05	0.0027863929063804446	0.005056233254067191	-0.007416464090202877	0.00012007642553536406
2
200800
Ar	-6.75692016703243e-05	-0.0003304967197651238	0.003186185878989442	-0.02341303499923334	0.004836852515499331	2.8454446329951475e-05
Ar	0.0001255702083105573	-1.4886811249373453e-05	0.0027873779793663035	-0.0009257906382178561	-0.008857393142615093	6.131883750242231e-05
2
201000
Ar	-0.00026648024000795284	-0.000206996394754026	0.0031869864641675856	-0.014701628122467756	0.018845006313043665	0.0001163210049455607
Ar	8.706757722037427e-05	-9.239394210312809e-05	0.002788020313879271	-0.006436203646767651	-0.00600743522807786	8.28969792357088e-05
2
201200
Ar	-0.0003377528927483933	1.5755282972222183e-05	0.003188206883357559	0.001050842083757894	0.023841656723767823	0.00013249782990934305
Ar	7.121385891556345e-06	-0.00012532215877253308	0.002788835858663296	-0.00888354690372823	-0.000305150024854494	6.895652665246144e-05
2
201400
Ar	-0.0002473630310908483	0.0002312129956639689	0.003188995557446585	0.016295368137905226	0.01743096760944187	9.266750683042946e-06
Ar	-7.618208498422128e-05	-9.831950402218479e-05	0.0027890281000357187	-0.007081227218405804	0.005463702309989938	-3.225781156096381e-05
2
201600
Ar	-3.831586709501062e-05	0.00033592657536299613	0.0031885149237706337	0.02375142594679867	0.002650635784585631	-9.816062095662121e-05
Ar	-0.00012305239978222554	-2.4523743966952217e-05	0.002788278096060246	-0.0018950663321125362	0.008670569795743032	-0.0001000953022685818
2
201800
Ar	0.00018911791438362796	0.0002795501800808937	0.003187295667947763	0.01982489334256786	-0.013437800754809078	-0.00011391215083120586
Ar	-0.00011103457504516965	6.0826417973598505e-05	0.002787381020510032	0.004194393460578451	0.007709185392356455	-7.130258523968605e-05
2
202000
Ar	0.0003260864203031512	8.92170735768806e-05	0.0031862227406864807	0.006419320310046238	-0.023035071651106655	-8.420960499411509e-05
Ar	-4.5926943189052096e-05	0.00011719644136525577	0.0027868535214124893	0.008271323228106801	0.003073903805767041	-4.022793129099262e-05
2
202200
Ar	0.0003070935691785376	-0.00014381693427490612	0.0031857869252263993	-0.010066748321302573	-0.021622957853389333	4.196145777983125e-07
Ar	4.120693059846707e-05	0.00011731121595182347	0.0027866378347227477	0.00840633756763239	-0.0030368963977871694	1.5008523947776098e-05
2
202400
Ar	0.0001409349846086976	-0.0003079367781530509	0.0031862454521967144	-0.021773720191083756	-0.00981337819977463	9.844649597176938e-05
Ar	0.00010835337455495427	6.111967445260937e-05	0.0027869614085757164	0.004483149293123173	-0.007721054882775574	6.199063236851565e-05
2
202600
Ar	-9.264112339598326e-05	-0.0003246218640032296	0.0031875088906542118	-0.02300755904311981	0.00662660920619227	0.00015229717796182854
Ar	0.00012354030393397572	-2.449305369158755e-05	0.002787756225873926	-0.0015835396745022623	-0.008681381539043482	8.943219541606571e-05
2
202800
Ar	-0.0002818732552154536	-0.0001861147440847796	0.0031890030482473845	-0.013244606205584483	0.01992672402085854	0.00012430489757954638
Ar	7.929967269312e-05	-9.853647507228749e-05	0.0027886689056976642	-0.006881128907832601	-0.005497715404259163	8.299615980096749e-05
2
203000
Ar	-0.0003359844409077533	4.179582713638448e-05	0.0031897566151727627	0.0028695734608583743	0.02372353740139285	-5.464800879716973e-06
Ar	-3.4142744326176413e-06	-0.00012544684491304342	0.002789183435260434	-0.008915393566648656	0.00034691135290157795	1.6095415872971183e-05
2
203200
Ar	-0.00022902949807722996	0.0002495449163511864	0.0031888292327846694	0.017637576639652014	0.016101627382688267	-0.0001550636247775283
Ar	-8.453272571561154e-05	-9.210178181906246e-05	0.002788927630660595	-0.006621090122545338	0.0060385794034871956	-5.509045383342665e-05
2
203400
Ar	-1.2272150299614236e-05	0.0003380143177470175	0.003187154531781148	0.023932952978326556	0.0008187801772202122	-0.0001895109278899751
Ar	-0.00012533048641607427	-1.4632071001087328e-05	0.00278809017198425	-0.0011974316988508154	0.008794569435518927	-0.00010281672768332203
2
203600
Ar	0.00021079779648490866	0.000264566961987074	0.0031857806376903134	0.018795689703019435	-0.014898849063312488	-0.00011231575008861137
Ar	-0.0001062685037099769	6.962374324181101e-05	0.002787079444243002	0.004826399381087089	0.007352490060561984	-7.788072946792531e-05
2
203800
Ar	0.0003330303659743671	6.438847624858367e-05	0.0031853272025314447	0.004609321085563834	-0.023469405207506185	-1.010386987082064e-05
Ar	-3.6520694596598645e-05	0.00012023732160788151	0.00278665101787217	0.008552278966605676	0.002368634592070589	-1.3350453053747434e-05
2
204000
Ar	0.0002955785929875369	-0.00016668438778894308	0.0031855334443488524	-0.011767739694349712	-0.020805956279663144	4.783644639481584e-05
Ar	5.045265007343726e-05	0.00011308790580159501	0.0027869971927074223	0.008102817855725766	-0.003751957026259787	7.213542419467102e-05
2
204200
Ar	0.00011670521022894638	-0.00031806175805604834	0.0031864804765875466	-0.02249983216547838	-0.008227593774465662	0.00014955821137064713
Ar	0.00011275298539376618	5.12950152176304e-05	0.002787873394222596	0.0038272382495767665	-0.008068998838585919	8.61723197479291e-05
2
204400
Ar	-0.00011793648302954483	-0.00031751774731962097	0.003188368163470511	-0.022458254529463328	0.00834607878058665	0.00020397734800690125
Ar	0.00012108579266478439	-3.517077942006318e-05	0.0027885320828431805	-0.0022612389702831004	-0.008481333785640472	3.60465656474696e-05
2
204600
Ar	-0.0002960153030384007	-0.00016464017692591865	0.0031898274738203954	-0.011634026897563645	0.020951191412304913	7.191309196898444e-05
Ar	7.114053799565219e-05	-0.00010500674602984711	0.0027883880661992715	-0.007307515779014736	-0.004883084084344985	-2.3314845323887983e-05
2
204800
Ar	-0.0003318974838131708	6.735328373734665e-05	0.0031897989879660035	0.004776531133348466	0.023479044148003204	-9.595173092146402e-05
Ar	-1.3061792510996948e-05	-0.00012477080691752982	0.002787909594466584	-0.00884146425976882	0.0010817780203005666	-4.924507976855238e-05
2
205000
Ar	-0.00020870377258992934	0.0002666623090593703	0.003188154975551669	0.018832497925408385	0.014708760573930639	-0.00021194201959505248
Ar	-9.114121044211523e-05	-8.494514670999565e-05	0.0027873688820627294	-0.006098612565851243	0.00656769067641976	-2.646828729446927e-05
2
205200
Ar	1.3975312424763632e-05	0.0003379577376201975	0.0031860208679145617	0.023850941580861904	-0.001028978911591869	-0.0002082995123418352
Ar	-0.0001253504211839131	-4.0889439233075646e-06	0.0027870543650411563	-0.0004294998826083449	0.008915384460393768	-2.7617544907949607e-05
2
205400
Ar	0.00023006479114198985	0.00024778479515343737	0.003184615598098498	0.01755161860298416	-0.016242223066802126	-5.496597022862521e-05
Ar	-9.931766983628575e-05	7.874218833093742e-05	0.0027868987471671132	0.005415780275834947	0.006952353044568081	-5.851212884185758e-07
2
205600
Ar	0.00033640975644964557	3.942583125315704e-05	0.0031848379976369564	0.002831145921998586	-0.02370700234012493	9.009556804345233e-05
Ar	-2.6124349702309847e-05	0.00012380434402147814	0.002787037682348426	0.008631507557998451	0.0016893493391822033	2.0739063197995474e-05
2
205800
Ar	0.00028187027982775286	-0.00018791648729505234	0.003186337653284974	-0.01328305726562519	-0.0198404464498452	0.0002095928529194997
Ar	5.92983385043723e-05	0.00010973211927239375	0.002787669984264877	0.007751730658711745	-0.004376554013906619	9.442157529762151e-05
2
206000
Ar	9.244212630148183e-05	-0.0003251984898058979	0.003188488177011065	-0.023008149229122643	-0.006452198500255897	0.00022115421917639865
Ar	0.00011625015466947775	4.336691903779259e-05	0.0027883770857999564	0.0031537477108824195	-0.008332912635100847	6.243335894071122e-05
2
206200
Ar	-0.00014096370208788278	-0.0003067594987733389	0.0031899186924364705	-0.021725025970086288	0.009996266736217788	6.433232731241913e-05
Ar	0.00011723707101626541	-4.355509814997838e-05	0.002788768466141324	-0.0029624890425417627	-0.008304198570890306	7.127323835969217e-06
2
206400
Ar	-0.00030675171358765415	-0.00014139371659565856	0.003189638445339764	-0.0100457628006848	0.021702955380749164	-0.00012418175508624736
Ar	6.161409022678248e-05	-0.00010963307437535251	0.0027881808778362272	-0.007691879115333261	-0.004339520197438449	-9.486023595327987e-05
2
206600
Ar	-0.0003255384526341208	9.198524309544691e-05	0.0031878781716891255	0.006445960262427687	0.023012196890946218	-0.00021521001577681366
Ar	-2.3875881176265646e-05	-0.0001232339770061287	0.0027872010304935604	-0.008683070689868988	0.00175356076813282	-0.0001022317372550204
2
206800
Ar	-0.0001885207239214708	0.0002813341771193715	0.003185772717574171	0.019823138927742595	0.013277890036709967	-0.00017048803950791774
Ar	-9.782714498940894e-05	-7.742933248418094e-05	0.002786312190241397	-0.005475403144492981	0.007025079954756236	-7.079365729668707e-05
2
207000
Ar	3.8805006266864786e-05	0.0003358320645858877	0.00318478867352818	0.023729876489930732	-0.002830374310189057	-7.4407767230902e-06
Ar	-0.00012439605575684747	5.474311500187846e-06	0.002786107331362661	0.00035459529676128474	0.008871680994307886	2.7971850442992477e-05
2
207200
Ar	0.0002475642688417234	0.00022967202656334212	0.0031858590569670505	0.016281886891568887	-0.017537620168740314	0.00021380473503444428
Ar	-9.150758006040562e-05	8.534560785369461e-05	0.0027866217380407205	0.005982568460872472	0.006464507801939353	7.257782418090349e-05
2
207400
Ar	0.0003376229579093079	1.351190030563046e-05	0.0031882020246222745	0.0009738146661615226	-0.023875627450523025	0.00023614472078324313
Ar	-1.4540441438208776e-05	0.00012421434986865584	0.0027875471889659237	0.008769202923219284	0.0009801185621864706	0.00011061382955898865
2
207600
Ar	0.0002655160495711746	-0.00020935310180512977	0.0031899579757001992	-0.01478665406682872	-0.01881201959059604	9.74168825912652e-05
Ar	6.934085970067077e-05	0.00010330909672963152	0.002788336203204118	0.0073055878073539	-0.0049622584779658915	4.287974273203944e-05
2
207800
Ar	6.623563507616961e-05	-0.00033193177761842434	0.0031899112000389985	-0.02340209593292533	-0.004685261859004258	-8.103706876201689e-05
Ar	0.00011987527196798833	3.2870828378675024e-05	0.002788547618250065	0.0023621956640330556	-0.00852566829990511	-1.6603124399777013e-05
2
208000
Ar	-0.0001647544489185294	-0.00029526118772106813	0.0031883270067772198	-0.020836931206916844	0.011721044385234379	-0.00021539047156803276
Ar	0.00011283612035798584	-5.334809258561162e-05	0.002787794482083898	-0.003707310081879643	-0.007985336605528576	-0.00011847173936260108
2
208200
Ar	-0.00031690106323284183	-0.00011692276378885137	0.0031864477559447346	-0.008307214942419702	0.022460386075960504	-0.00014918236298326848
Ar	5.164109411820055e-05	-0.00011371318209713545	0.0027865729188776057	-0.008010172833600069	-0.0035993919273556783	-0.00010006358942550792
2
208400
Ar	-0.00031737228998675136	0.00011749063674500811	0.0031855938749163755	0.008248361303392222	0.02244359370281257	-5.98071305939838e-06
Ar	-3.450029393769748e-05	-0.00011959035697690826	0.002785927762034272	-0.008497630269290459	0.0024691002728953223	-1.5559097249292926e-05
2
208600
Ar	-0.00016544310037617925	0.00029563159503260346	0.003186168537350371	0.020841192238079564	0.011683910231891331	0.00010643582085720501
Ar	-0.00010436672184616331	-6.824410460052855e-05	0.002785980021996381	-0.0048798879054851	0.007353680600661673	4.855597959541124e-05
2
208800
Ar	6.570949990146982e-05	0.0003320953067299507	0.0031877848571492994	0.023474250091066615	-0.004722995840202466	0.00018059144205724253
Ar	-0.0001242253622469559	1.552636364104158e-05	0.0027868800675148082	0.0010888680492061654	0.008717685276816234	0.0001212722377650428
2
209000
Ar	0.0002655911997430958	0.0002089019103519829	0.003189213014931454	0.014828481754965091	-0.018865008696681403	8.350632615076445e-05
Ar	-8.436018256010013e-05	9.185212932858749e-05	0.0027880470211864316	0.006551354732361087	0.0059054708297991716	0.0001046742241943612
2
209200
Ar	0.0003382432006720396	-1.4391578563531056e-05	0.003189563979345735	-0.000909219492371902	-0.023904139772806966	-2.7281681308113074e-05
Ar	-3.787208660133011e-06	0.00012427560952126866	0.00278870192728012	0.008876848357287024	0.00030567263517090816	3.0043015083256902e-05
2
209400
Ar	0.000248765926244949	-0.00023045091535020296	0.0031886086790760253	-0.016221361970516598	-0.017471144665673864	-0.00014785669352453763
Ar	7.866557776208903e-05	9.720110152249325e-05	0.0027887286297197263	0.006917052579404735	-0.005488003829851427	-2.0760566482018247e-05
2
209600
Ar	4.0173443342151954e-05	-0.0003357186011525926	0.003186926535843615	-0.023743428372216588	-0.0027055438486585674	-0.00016472145783346002
Ar	0.00012356662631389303	2.3794758623661838e-05	0.002788047394549247	0.0016665755122429683	-0.008609515182085081	-0.00011818757155215048
2
209800
Ar	-0.00018783116253350332	-0.0002802297027331365	0.0031858300486508465	-0.019937408986398047	0.013335073945605562	-7.133073443588334e-05
Ar	0.00010922388050311628	-6.073563408879386e-05	0.0027868386288613907	-0.0044013295789272055	-0.0076090512951356324	-9.92022497183545e-05
2
210000
Ar	-0.00032621634428935613	-9.086039349082985e-05	0.0031858188751280356	-0.006581976434260104	0.022945696119476187	5.4635001133063554e-05
Ar	4.254623455969466e-05	-0.0001161008119043098	0.0027860058987692663	-0.008368558555672038	-0.0030221706309239513	-4.882231413820914e-05
2
210200
Ar	-0.0003086878679314227	0.00014177943151136944	0.0031869197170489192	0.00994637652820304	0.021606865517369546	0.00013442681559283607
Ar	-4.4461426167308874e-05	-0.00011615481247027972	0.0027857667997263896	-0.008314976123355937	0.0030249687876670543	1.4949661526136933e-05
2
210400
Ar	-0.0001433658228150023	0.00030621106306241545	0.0031879774461458085	0.021744171829612403	0.009901277307913986	6.496578570819558e-05
Ar	-0.00011031456546889465	-6.051485611255582e-05	0.0027861904507264575	-0.004300705506080266	0.007653619535593532	7.475813672903831e-05
2
210600
Ar	9.062746735548431e-05	0.00032393648140197854	0.003188593967093238	0.023103762886014716	-0.006526114776322627	2.0687526972143375e-05
Ar	-0.00012345334839810183	2.4429685800420134e-05	0.002787186957473871	0.001789480863071254	0.008623155912946871	0.00011528289584935104
2
210800
Ar	0.00028138040969425256	0.0001862909510885758	0.0031884063901344043	0.013462653009396355	-0.019850610249754222	-6.644231807160463e-05
Ar	-7.775618843059683e-05	9.80939350290152e-05	0.002788125554899426	0.006963486447682491	0.005476964650186988	6.285121754814669e-05
2
211000
Ar	0.0003377908257839889	-4.084677123994866e-05	0.003187460345607737	-0.0026465804712840994	-0.02363003359980644	-0.00011746798671406257
Ar	4.854845868801161e-06	0.0001250554532925737	0.0027887308126458665	0.008855104229168333	-0.00032575028623963223	4.773604699354919e-05
2
211200
Ar	0.00023264373615684264	-0.00024811849017439903	0.00318619205502612	-0.017479247152127817	-0.01605925328781154	-0.00010138723362090598
Ar	8.492311451050859e-05	9.203439454595444e-05	0.002788858123289634	0.006495157145777063	-0.00601158011115285	-3.8064911208890744e-05
2
211400
Ar	1.617912714025831e-05	-0.00033649009963916465	0.0031859430156900366	-0.023965985723970806	-0.000865806898210951	3.223714101215658e-05
Ar	0.00012426599294500964	1.4914449683518385e-05	0.0027883030991750673	0.0010445329576167603	-0.008766528028284662	-9.326125057551785e-05
2
211600
Ar	-0.00020807122403117303	-0.0002638451362571009	0.003186863186388158	-0.018976365094261025	0.014788984553842779	0.0001447226974669102
Ar	0.00010429984012920318	-6.89045668523501e-05	0.002787205407945466	-0.004893003828958138	-0.007302382504296977	-0.00012781578361284988
2
211800
Ar	-0.00033258267790630384	-6.505020010360008e-05	0.003188506697625684	-0.004877662656778673	0.0232973260911375	0.00013560830135242935
Ar	3.408013089995327e-05	-0.00011969224678540333	0.0027859232847964586	-0.008577240411782124	-0.002423753389425591	-0.00012952904399045304
2
212000
Ar	-0.0002974026533805954	0.0001645624119095455	0.003189254101406479	0.011607581999674616	0.02069340909674556	1.0357561156599235e-05
Ar	-5.299780694171509e-05	-0.0001129911251451579	0.0027851480572510883	-0.008125450525088077	0.003711786845339677	-2.907849851217615e-05
2
212200
Ar	-0.00011963591546724861	0.00031536720733199146	0.0031889081370951966	0.02243660550762942	0.008188334138846358	-6.999166512158863e-05
Ar	-0.00011506183785443091	-5.1563877905267424e-05	0.002785500896135489	-0.0037539713958007967	0.008042526672776341	7.408918376668607e-05
2
212400
Ar	0.00011536336807453064	0.0003147601867974854	0.003188079522068257	0.022586214548463348	-0.008278868721981098	-7.646010664633138e-05
Ar	-0.0001221001829348277	3.47010653962468e-05	0.0027864100078867863	0.0024043781337038613	0.008488620864314223	0.00010123838426461626
2
212600
Ar	0.0002951803193620273	0.0001632644699207413	0.0031874112633739527	0.011861161116162908	-0.020741553269402233	-6.068181078896018e-05
Ar	-7.073978439135909e-05	0.0001043762461783094	0.0027874079313147553	0.007421974091709475	0.00484319393915857	8.366022723326719e-05
2
212800
Ar	0.0003334347148368357	-6.620050499181633e-05	0.003186728346785049	-0.004531259236688942	-0.02325159537254988	-6.639309717019302e-05
Ar	1.4527979735219426e-05	0.00012390868122714508	0.002788028812976608	0.008915962599603899	-0.0011058255534591925	6.610859198723093e-05
2
213000
Ar	0.00021213732530293294	-0.00026396630237286684	0.003186484212182549	-0.018707927794108625	-0.014639956995682426	2.8483741942966966e-05
Ar	9.312086547955451e-05	8.43204211445689e-05	0.0027886168091974003	0.006160026213348976	-0.006475779658770047	4.216116334022787e-05
2
213200
Ar	-1.0553172222040779e-05	-0.00033599897664104685	0.0031872837298220404	-0.023968494559916616	0.0008869754888147716	0.00010852080408255871
Ar	0.00012743893406476836	4.786183517322454e-06	0.0027884722290176223	0.0004125378692232937	-0.00875761372370702	-7.021845523804412e-05
2
213400
Ar	-0.00022837654164330665	-0.0002476412532116916	0.0031882662972832127	-0.017771809715223245	0.016056428687258418	6.582626739016286e-05
Ar	0.00010073433078937815	-7.697118755815652e-05	0.002787392165648348	-0.005544627081788244	-0.006902245900699011	-0.0001253383076967343
2
213600
Ar	-0.0003369579599485426	-4.078800743012408e-05	0.0031884327172427623	-0.0030132656090408453	0.023555860537196972	-4.01874151906106e-05
Ar	2.5376560632251424e-05	-0.00012211336885938108	0.002786195638525678	-0.008892545418795184	-0.0017324961204632692	-9.173609009000931e-05
2
213800
Ar	-0.00028379301702446925	0.0001850832523199295	0.0031875324843703163	0.013197422982997361	0.019745861351854053	-0.00012230430549457807
Ar	-6.229848343294665e-05	-0.0001089755954696859	0.0027857698624400135	-0.007909419115351507	0.004240056094736873	1.0032907214020527e-05
2
214000
Ar	-9.465400068688363e-05	0.0003222640886196961	0.0031866830995548622	0.023053829097438062	0.006547898477651142	-2.0000626195468605e-05
Ar	-0.0001198422142191394	-4.392827445918721e-05	0.0027862907288686675	-0.0031322822325917186	0.008242073625714875	7.161347802806092e-05
2
214200
Ar	0.00014016264932921409	0.00030528580983912103	0.0031867781721341575	0.02192984264485566	-0.009812506189513034	2.0732526361866542e-05
Ar	-0.00012002625301246836	4.228591003648975e-05	0.002787076877822195	0.003089694972839207	0.0082909929322327	8.225908242849342e-05
2
214400
Ar	0.00030812924502776027	0.00014192807825906824	0.00318713368462476	0.010224402779045275	-0.021495016047283315	2.300937360869593e-05
Ar	-6.302807161186514e-05	0.00010821236648249366	0.002787799133326981	0.007841623689942984	0.004365834022977957	7.22888807571519e-05
2
214600
Ar	0.0003281615292427726	-8.956672414165025e-05	0.003187454535207471	-0.006365097986167563	-0.022872211070900275	2.7485871607337024e-05
Ar	2.421829626178121e-05	0.00012240818944091438	0.0027884512731119852	0.008896254514476665	-0.0016529923314374465	5.119148901620298e-05
2
214800
Ar	0.00019105778666983814	-0.0002784050576183267	0.0031878770581510087	-0.01989728545692787	-0.013315846432227706	6.76836045215942e-05
Ar	0.00010026833572147403	7.785672368044942e-05	0.0027885358989152534	0.005654625432806938	-0.006879947891931634	-2.889449002155697e-05
2
215000
Ar	-3.7623520463705955e-05	-0.00033394711477043	0.0031883072749114404	-0.02394002082596884	0.0026591687642157106	2.5353502510888372e-05
Ar	0.00012821639642405367	-3.7230086040607056e-06	0.002787524123964915	-0.00029466383487705624	-0.008780716674989194	-0.00010897480226633978
2
215200
Ar	-0.0002486564136880031	-0.00022938361640874566	0.003188385885672803	-0.016474161861247432	0.017390286566649607	-3.091530476274887e-05
Ar	9.465975112447405e-05	-8.360006738196025e-05	0.002786539733309647	-0.006140729577990433	-0.006533659876279446	-7.480580920578337e-05
2
215400
Ar	-0.00034040040427777004	-1.4513480293080675e-05	0.0031875188731628496	-0.0010958027991433352	0.023763321323033305	-0.00010062428158811473
Ar	1.5338706224696874e-05	-0.00012348842436066422	0.0027861227157594073	-0.0090533587647772	-0.00109978398373525	-7.800872435962806e-06
2
215600
Ar	-0.00026882094072886055	0.00020729895906170884	0.0031866647791706	0.01479822273026504	0.01874255810734629	-6.200237738494203e-05
Ar	-7.15303630387543e-05	-0.00010394859675016532	0.0027866405128159333	-0.00759534016849984	0.0048681016965071156	8.86597305428223e-05
2
215800
Ar	-6.858353214647923e-05	0.0003299747429481592	0.003186434497812079	0.023567336530044936	0.004759573548965623	4.979045138677038e-06
Ar	-0.0001244336134139539	-3.4221108776712e-05	0.0027875500205119916	-0.0025321874242625374	0.008483381499974876	0.00010757162476583111
2
216000
Ar	0.000164590762973985	0.00029456168387011374	0.0031866735205844125	0.021080299811223866	-0.011526284943230112	2.915524862450617e-05
Ar	-0.00011789870754259498	5.181910714788018e-05	0.002788220284300362	0.00375304677861419	0.00800075247149628	3.4948722102479304e-05
2
216200
Ar	0.0003187699060898539	0.00011797394687331283	0.0031868751164866762	0.008432971040769057	-0.022295768757275757	-1.8426159712252757e-05
Ar	-5.531805894841656e-05	0.00011281593478877953	0.0027886351438756564	0.00821220365106327	0.0037082434027171903	5.7669640480888153e-05
2
216400
Ar	0.00031986341468884596	-0.00011481297835634747	0.0031868488745851738	-0.008255644596197194	-0.02233477987664327	2.0980583886265024e-05
Ar	3.3438684054244646e-05	0.00011998413461255596	0.0027889807286335198	0.008784558360518707	-0.002322819083961557	1.064483319309254e-05
2
216600
Ar	0.00016745828979014622	-0.00029268236425707703	0.0031874659311943118	-0.02094812028120965	-0.011729865546537899	8.104251856177889e-05
Ar	0.00010615936573223502	6.976190688881834e-05	0.0027887324781000907	0.005151411217381036	-0.00726653984164928	-0.00010375172620179227
2
216800
Ar	-6.511324541888797e-05	-0.0003303535740728031	0.0031882452042292153	-0.023618304862871586	0.004526779498580347	7.286911361208134e-05
Ar	0.00012814356970399697	-1.3561086719250282e-05	0.002787533680200481	-0.0009513454502173345	-0.008715006022380583	-0.00011826121984140053
2
217000
Ar	-0.0002662978311960973	-0.00020958266698821484	0.003188228911882861	-0.014922038602065518	0.018616975149770044	-7.76827019757152e-05
Ar	8.872595454384166e-05	-9.048501726283419e-05	0.0027864987600000305	-0.006589264537003674	-0.006025224532732274	-6.599886769923088e-05
2
217200
Ar	-0.0003394534268178973	1.1965525366771969e-05	0.003187286150695187	0.0009230319135262222	0.023793794687838373	-0.00011373056354549175
Ar	7.046018100760024e-06	-0.00012420853687430407	0.0027865381728764864	-0.0090670606376681	-0.0004302958143167418	3.2519137970616084e-05
2
217400
Ar	-0.00024964513954207034	0.00022759316877959222	0.0031863052767265587	0.016279075483890442	0.01753335135128176	-5.4762665995057566e-05
Ar	-7.794704662313877e-05	-9.841593157265543e-05	0.002786908484757081	-0.007201750814833741	0.005373805977526793	3.753041515895035e-05
2
217600
Ar	-4.0390644990735346e-05	0.0003342862912626208	0.0031864859952836807	0.02379806831527373	0.0029133312767207755	7.766148910223315e-05
Ar	-0.00012562380837325833	-2.5591861964478766e-05	0.002787330208019927	-0.0019146119428296575	0.008592301433258535	6.679030154883958e-05
2
217800
Ar	0.0001880302490323792	0.0002810999343046371	0.003187264198759344	0.01996474659621327	-0.013126680236916557	7.657742134373679e-05
Ar	-0.00011309398721332016	5.95198078383158e-05	0.0027879357091178266	0.004344871698748767	0.00773480427897598	7.325273022577023e-05
2
218000
Ar	0.00032673117396771797	9.32191801469789e-05	0.003187779710566635	0.00659758552438881	-0.022871290842631897	2.4036470561463423e-05
Ar	-4.630898129401342e-05	0.00011625777392943862	0.002788822104281585	0.008462432498761628	0.0031570103828881422	9.25977217581495e-05
2
218200
Ar	0.0003089783523394799	-0.0001390228048153195	0.003187845922041877	-0.009994721457753715	-0.021673467708817687	-4.29796589410629e-06
Ar	4.249329950429455e-05	0.00011740407220934356	0.0027894703840125523	0.008530402630024768	-0.0029216696374667326	3.806952582211036e-05
2
218400
Ar	0.00014322837219907987	-0.0003048540298705301	0.003187836089327266	-0.021784198799703936	-0.010109262130282624	9.870228712394567e-06
Ar	0.00011050382894906618	6.26885242265068e-05	0.0027892413726360943	0.004496709608184174	-0.007565087022744865	-8.333384617214407e-05
2
218600
Ar	-9.12889608213433e-05	-0.0003248162862586487	0.0031880298347707965	-0.02313406263147315	0.00629701562809395	1.6915473185780028e-05
Ar	0.00012525842510829134	-2.1767087885358357e-05	0.0027879754963351165	-0.0016837408172440352	-0.008629088653665632	-0.00016711272793422589
2
218800
Ar	-0.00028180894268209263	-0.00018897796270816804	0.00318792390119913	-0.013334995527547154	0.01974091057342186	-4.807531472789176e-05
Ar	7.963895928123446e-05	-9.569310105514299e-05	0.0027864757053380055	-0.007054873757096802	-0.005554154832147295	-9.533215449409979e-05
2
219000
Ar	-0.0003364871669551632	3.769485461927252e-05	0.0031871796846343918	0.0028395857156140207	0.02370120501845943	-8.152261582599328e-05
Ar	-4.431644587408296e-06	-0.00012394625015268895	0.0027861435459600875	-0.009055910953325004	0.0001561189484658689	-5.128724662658211e-06
2
219200
Ar	-0.00022974707480786323	0.00024647595138130773	0.0031865049448935342	0.017577807594893143	0.016301769185415357	-3.572657286813836e-05
Ar	-8.672187805478749e-05	-9.28661305441893e-05	0.002786421337656385	-0.006675486539762858	0.005790267174931898	7.002092488859862e-05
2
219400
Ar	-1.327593627513394e-05	0.0003372599016010484	0.003186471313094579	0.023894455679579932	0.0010946305402946346	2.661571971207192e-05
Ar	-0.00012748599338320658	-1.7291505823398708e-05	0.0027872416813152306	-0.0011284391266282055	0.008690522846667251	7.531076712330673e-05
2
219600
Ar	0.00020943934355772856	0.00026666337504018	0.0031869831488597626	0.018790754897664245	-0.014612604874713863	5.6819163423975943e-05
Ar	-0.00010759355250252587	6.658059742412115e-05	0.002788165125577016	0.004967255325211159	0.007380030609806797	9.838306446198494e-05
2
219800
Ar	0.00033204653759380895	6.853263524277966e-05	0.003187144890454478	0.004696689833546666	-0.02335179175670471	5.929462405638687e-06
Ar	-3.606455163586074e-05	0.00011863784686740697	0.002788735712561159	0.008695088935756053	0.00257397288772222	2.2619734958235237e-05
2
220000
Ar	0.0002959304011161831	-0.00016263657195533614	0.0031871998705660424	-0.011616674235858198	-0.020940493564947465	4.302536750781946e-05
Ar	5.261035347273453e-05	0.00011371105785275267	0.002788394146852279	0.008276256321576022	-0.003518828291060177	-9.269329990836191e-05
2
220200
Ar	0.00011836571509491268	-0.0003161530611901743	0.0031875933056824267	-0.022443101503725908	-0.008473461942460314	4.2430729170460007e-05
Ar	0.00011589571484814361	5.401598198013824e-05	0.0027873318445374813	0.003860148703364356	-0.00792529442307294	-0.00014363668060176312
2
220400
Ar	-0.00011617546156425287	-0.00031809180855104735	0.0031877387899237972	-0.022488490216909126	0.008116698009810625	-3.2742555081016395e-05
Ar	0.00012349360243688403	-3.195320398294515e-05	0.002786145959022619	-0.0023906599606863957	-0.008541540697476608	-9.036611823213214e-05
2
220600
Ar	-0.00029473933363742815	-0.00016712641512310516	0.0031869374290330434	-0.011733657542069955	0.02081029248095054	-9.211624836713679e-05
Ar	7.199586716710762e-05	-0.00010276003074480535	0.002785692398296673	-0.007470015769140768	-0.005029927178903912	-3.898692440219647e-06
2
220800
Ar	-0.00033210667637900514	6.399127443349981e-05	0.003186180084334657	0.004579600991217038	0.023483413149818742	-4.931046291155802e-05
Ar	-1.406652610607055e-05	-0.00012431139894870127	0.0027864000426237696	-0.00900867713038923	0.0009108638865607219	0.00014675261727080773
2
221000
Ar	-0.00021048267367295489	0.000264516562243088	0.003186250324322097	0.018749714715364237	0.014926985511713925	7.878328785080672e-05
Ar	-9.328171265427831e-05	-8.628409982083858e-05	0.002788057951751947	-0.006159211712806967	0.006395230096249862	0.00014065615948048686
2
221200
Ar	1.2271407948353495e-05	0.00033840081455972104	0.0031873520012267635	0.02392297565135056	-0.0007670144207556845	0.00013740200079186387
Ar	-0.00012743329965073279	-7.15714600082306e-06	0.0027891689920271487	-0.00038727703199849955	0.008790087590060992	7.745877639922052e-05
2
221400
Ar	0.00022913838039103406	0.00025041587796263123	0.003188382379749216	0.017617612867322597	-0.016087106356087608	3.980021076288509e-05
Ar	-0.00010062230897571123	7.531727084632947e-05	0.002789400156098495	0.005510188389329453	0.007025132613774012	-2.119164433377948e-05
2
221600
Ar	0.00033605474568189613	4.2509677006435635e-05	0.0031882683062229886	0.002853531240259833	-0.023723588107279592	-6.550563959807294e-05
Ar	-2.596451066257509e-05	0.00012163799877101358	0.0027889714282467422	0.008805771019894864	0.0018634580700724048	-6.887931917341846e-05
2
221800
Ar	0.00028180311813295867	-0.0001854944176906676	0.0031873848190652385	-0.013256244504988586	-0.019983766176833603	-8.686068180690352e-05
Ar	6.09980036324595e-05	0.00010968333510664152	0.002787989652045421	0.007840600803065745	-0.004142134377751193	-0.00011922280201447102
2
222000
Ar	9.259787575073875e-05	-0.0003246826824606717	0.003186911883382088	-0.023006459497032616	-0.006668812459678087	-2.5125366299586435e-05
Ar	0.00011863764515723476	4.512667152543611e-05	0.0027863816409009028	0.003217229152120705	-0.00821379238549479	-0.00016829533668218793
2
222200
Ar	-0.00014087761158069172	-0.00030808815006146557	0.003186764621752122	-0.021720311346759343	0.009858699706523626	-1.5967738871526182e-05
Ar	0.00011997446917545134	-4.1262431348213135e-05	0.002785205032231253	-0.0029718817756790505	-0.008350289692112649	-6.950340058733933e-05
2
222400
Ar	-0.00030639831642989725	-0.00014387709797487113	0.003186635424906467	-0.010017891887759903	0.021614170229026293	-3.255131999184773e-05
Ar	6.353504545623404e-05	-0.00010821450760500244	0.0027854244592957454	-0.007804425997791494	-0.004462956075272378	0.00010797729898517429
2
222600
Ar	-0.00032508756134376325	8.928623676741295e-05	0.0031864923090577577	0.006452570873394558	0.02304719856521094	3.277313874760596e-05
Ar	-2.3611714983538505e-05	-0.0001233333919615283	0.002786769024651896	-0.00888726695896566	0.0015909021484009824	0.00014571025053082182
2
222800
Ar	-0.00018780699312868443	0.00027970198906423826	0.0031872787390873607	0.019821879781055075	0.01343998781217378	9.601212735102079e-05
Ar	-9.980240061902658e-05	-7.895800847939287e-05	0.00278806385268807	-0.0056882792745449684	0.0069049436743338945	0.00010004599960432281
2
223000
Ar	3.933483193202761e-05	0.00033628854573068456	0.0031882282067387958	0.02370514115735718	-0.002628641897344884	8.68026351573555e-05
Ar	-0.00012799056950346554	3.2648348141449184e-06	0.0027887365047829845	0.00027175368265483713	0.008873490785081954	1.839705335924885e-05
2
223200
Ar	0.00024761504048524284	0.00023153184718207906	0.0031886218197541	0.01617720503946674	-0.017463356557670125	1.6514248504693495e-05
Ar	-9.503095966258782e-05	8.409418669521689e-05	0.002788559047270957	0.006041512373123427	0.006600226500575966	-4.528924199234221e-05
2
223400
Ar	0.000337010804777055	1.5731937179203297e-05	0.0031884396290035293	0.0009533380838479435	-0.023878557824573664	-2.724205182578553e-05
Ar	-1.6617022343982134e-05	0.00012455661659199866	0.0027879373933149243	0.008994306307941489	0.0011293900453131632	-7.94140595305087e-05
2
223600
Ar	0.0002650766976207094	-0.00020730369737783939	0.0031882203227755037	-0.014748353926377382	-0.018869087548519996	-1.5899925548887753e-05
Ar	6.998599330928808e-05	0.00010521614415306113	0.002787019716604282	0.007586652534421461	-0.004834451357046522	-0.00010366479732533769
2
223800
Ar	6.593347375347686e-05	-0.00033110093172218966	0.003187978822119824	-0.023417436592966103	-0.004841518633891697	-3.488323539835581e-05
Ar	0.00012295684909211635	3.529218127732653e-05	0.002786078215460263	0.0025835545119147433	-0.008560142920950076	-7.153993591879343e-05
2
224000
Ar	-0.00016494252590742748	-0.0002963002811852263	0.0031874367587229856	-0.02081119094428652	0.011527168537711543	-9.650494572883111e-05
Ar	0.0001172185694359123	-5.220863358181926e-05	0.0027857482402620037	-0.003701596907923931	-0.008178373443393006	1.6498363293468063e-05
2
224200
Ar	-0.0003166378871466074	-0.00011922100086505042	0.003186382171882808	-0.00824426791863419	0.022411328051407768	-9.652918027623213e-05
Ar	5.50620958647981e-05	-0.00011519567961051746	0.0027862029829884014	-0.00823992277385564	-0.0038718752470342814	9.392974875708048e-05
2
224400
Ar	-0.0003166974630009859	0.00011551960828560476	0.0031856773705913354	0.008218595539865765	0.022559434146609887	-1.2072334346549293e-05
Ar	-3.398081555251925e-05	-0.00012314571047166142	0.0027875375231871053	-0.008821623738086476	0.002345569552730313	0.00015200167581768805
2
224600
Ar	-0.00016508861504122466	0.0002953438809087837	0.0031858056681932194	0.02083256244689463	0.0118788649656642	5.487976027496651e-05
Ar	-0.00010649987124904681	-7.192238307259928e-05	0.002788896706876747	-0.005094928925988034	0.007455113466474526	0.00010741446550618565
2
224800
Ar	6.586573273844985e-05	0.00033399820104585993	0.0031866907486629912	0.02343036446420559	-0.00447180711322561	0.00011190132318329932
Ar	-0.0001278213906553177	1.3431846403399468e-05	0.0027895862429180222	0.0009961253496711569	0.00892047760492624	2.77074607486174e-05
2
225000
Ar	0.0002652240672568333	0.00021297539988448592	0.0031876662589659962	0.014751566717120489	-0.018706949308149617	8.359074403330033e-05
Ar	-8.784123392586898e-05	9.203106601137626e-05	0.0027894579346699295	0.006635306791856308	0.006149233936368777	-6.815733857538991e-05
2
225200
Ar	0.0003371117283331762	-1.0125649666867002e-05	0.0031881770495304487	-0.000972955222602022	-0.02401963396242489	2.5404694382949e-05
Ar	-6.035237962249917e-06	0.00012631308319710624	0.002788136808230979	0.009043467941738157	0.0004310766215312112	-0.0001706636842129421
2
225400
Ar	0.00024766268249016784	-0.00022829004703944075	0.003188176157103897	-0.016169962748956875	-0.017780334940757415	-2.3809523625777837e-05
Ar	7.86253172792625e-05	0.00010012429511785624	0.0027862993270863856	0.0071648991123049125	-0.005452542985915986	-0.0001571542931762218
2
225600
Ar	3.953425937421692e-05	-0.00033687757142972815	0.0031879008793629826	-0.023688749493419245	-0.0030278931141457526	-2.9572518720420364e-05
Ar	0.00012555356216769126	2.5600160525428256e-05	0.002785335138855683	0.001832584207765546	-0.00883367507015394	-4.146619632229784e-05
2
225800
Ar	-0.00018763536496391815	-0.00028368385398531103	0.0031871236045725743	-0.019832738454874536	0.013221494713198913	-0.00011231224806947487
Ar	0.00011204529820908823	-6.180447159842845e-05	0.0027857164348199614	-0.004432612995037514	-0.007938910435777663	0.00010363968628060585
2
226000
Ar	-0.00032476476879932684	-9.385273702611667e-05	0.003185775779965068	-0.006431224882913065	0.023125375926393032	-9.888577187238942e-05
Ar	4.4485556358721305e-05	-0.00011993378512332964	0.002787058012202748	-0.008511058566618657	-0.0031991010936331618	0.0001357142480142926
2
226200
Ar	-0.0003064139227614324	0.00014126856834142072	0.0031856279699195842	0.009962546296624407	0.021942827140049824	7.237763869334873e-05
Ar	-4.4190912869580073e-05	-0.0001207572287932009	0.0027882367396226573	-0.008485343243269267	0.0030379755071701293	0.00010036995153957795
2
226400
Ar	-0.00014137799405285122	0.00030908914131885887	0.003186771550557995	0.0216598395796079	0.010229039150781494	0.0001347498882746019
Ar	-0.00011164426719670282	-6.397652774644271e-05	0.002789257927635896	-0.004445921162578243	0.007834708310002594	9.079598221676634e-05
2
226600
Ar	9.16326805853354e-05	0.0003291612795474971	0.0031879462666841996	0.022990437775111273	-0.006392067786604217	8.454514653983434e-05
Ar	-0.00012585446035179995	2.3123352808873508e-05	0.0027898086496667613	0.001712999023552649	0.008867084765120317	2.2001584590993396e-05
2
226800
Ar	0.00028093354345708313	0.00019171914776702867	0.0031881292799916736	0.013283578318467174	-0.019942609745010196	-3.054117852443791e-05
Ar	-8.013148785210279e-05	9.889883284782322e-05	0.0027897603077676027	0.0070788527953979	0.005643280402567298	-6.359169456053256e-05
2
227000
Ar	0.00033571058234142044	-3.6911048079358236e-05	0.0031876720179461115	-0.002782503905985024	-0.023895830463001845	-5.718867466982393e-05
Ar	4.133364988778981e-06	0.00012722287808002075	0.0027886318512235905	0.009045773430834311	-0.00023172472269263725	-0.00013641371576919933
2
227200
Ar	0.0002297318167195874	-0.00024776171353133584	0.003187064169303532	-0.017525872126491836	-0.016501695698928332	-4.79890991725289e-05
Ar	8.625393504240971e-05	9.465379970647815e-05	0.0027872177847976195	0.006662801194640526	-0.006018388626740562	-0.00014737609590307322
2
227400
Ar	1.3607912063869549e-05	-0.0003400778196233807	0.0031866509693090784	-0.02389699591636425	-0.0011863464629435772	-3.4423827681856e-05
Ar	0.00012673552937449384	1.6694322965155955e-05	0.002785859201985579	0.0011149464134730311	-0.008940450225726107	-0.0001040768548762664
2
227600
Ar	-0.00020914791085312916	-0.00026953523086123643	0.0031861445144650245	-0.018788366265713567	0.014706946003713486	-7.549824729024747e-05
Ar	0.0001065350680992893	-6.976632230188911e-05	0.0027854470813757316	-0.0049881145855417575	-0.007601959721759638	3.4010077171590984e-05
2
227800
Ar	-0.0003317434771481601	-6.99041061240065e-05	0.003185613868184431	-0.004680402400826204	0.02352569428255863	5.793039737438875e-06
Ar	3.53271955324518e-05	-0.00012283894549355317	0.002786100049170387	-0.008660206359488151	-0.002574989655052908	9.183592873679747e-05
2
228000
Ar	-0.0002951140893413211	0.00016310618951577882	0.0031863611024954826	0.011696975765203257	0.021119078098579113	0.00011774773665659783
Ar	-5.2931273195357414e-05	-0.00011685390187654815	0.0027873510763554822	-0.008236947605503708	0.0037121773688183193	0.0001353563794710945
2
228200
Ar	-0.00011684891198450418	0.0003180929885767502	0.0031876774540387912	0.022488760379146735	0.008580979632396056	0.000127397924251175
Ar	-0.0001160235161124275	-5.4715506686928383e-05	0.002788518796986843	-0.003844601997251382	0.008188422753088459	9.206009013495645e-05
2
228400
Ar	0.00011786704832922563	0.00032055396610612577	0.00318854623040563	0.022501168127051413	-0.008099185454053444	3.326140761225548e-05
Ar	-0.00012349537361244835	3.329625657506375e-05	0.0027890656879214003	0.002399571951424099	0.008699651509263462	3.692040293891736e-05
2
228600
Ar	0.0002962463324421289	0.0001690630269277068	0.003188103438072043	0.011683239204203156	-0.020910929112921365	-0.0001032999441626177
Ar	-7.183078766778151e-05	0.00010536952435410094	0.0027891304946281877	0.007514900027767368	0.005089825978496629	-1.2291789111737947e-05
2
228800
Ar	0.0003325606889717811	-6.37137098739416e-05	0.0031868277366690866	-0.0047261105030024595	-0.023690779817869406	-0.00014106456847364307
Ar	1.4239797016193273e-05	0.0001270120009965594	0.002788489639126392	0.00899729724521786	-0.0009451867544888554	-0.00011597820286170613
2
229000
Ar	0.00020933068514353766	-0.00026614663701672505	0.0031857799727928395	-0.018871872156715624	-0.015089502807130978	-6.704576119190556e-05
Ar	9.336766705158183e-05	8.793220748945097e-05	0.0027871535585946255	0.0061853509128990646	-0.006543708912607541	-0.00012274742571989232
2
229200
Ar	-1.4443854988680129e-05	-0.0003409776301234212	0.0031854249755395854	-0.02398364701719213	0.0007813103131926859	-1.4924449615599526e-05
Ar	0.00012780773139897108	6.707132440171028e-06	0.002785921418863634	0.00041590304247215434	-0.009017419912036752	-0.00010075709684925874
2
229400
Ar	-0.0002312127834470706	-0.00025178765604514286	0.003185656661172355	-0.017531831435397865	0.016310988917676485	4.96124987447037e-05
Ar	0.00010078508527205074	-7.771013880853452e-05	0.0027857231980767247	-0.005585144455170845	-0.007149439923167136	5.1538178554720224e-05
2
229600
Ar	-0.0003366925265037867	-4.1537321105821795e-05	0.003186418932373919	-0.0026967453168076586	0.023960690992718435	9.756243989726306e-05
Ar	2.5629964014286574e-05	-0.00012489082272882404	0.0027866708773723503	-0.008827955607949581	-0.0018721396914461034	0.00013071698893990565
2
229800
Ar	-0.00028073309599197226	0.00018859350582557847	0.003187579867029703	0.01341662605989911	0.02011104798821353	0.00012946865450177595
Ar	-6.149485902744497e-05	-0.00011229612324005053	0.0027880074606039603	-0.007873430325200674	0.004307620537316085	0.00011465604847929773
2
230000
Ar	-9.01474648670974e-05	0.0003280017315124132	0.0031885020618012436	0.023097462724956358	0.006611878668221233	3.2178707508730146e-05
Ar	-0.0001191012282884187	-4.5776140916329194e-05	0.002789041381248623	-0.0031790950494303334	0.008449514305171022	8.683920977182929e-05
2
230200
Ar	0.00014374675131996898	0.00030992254798507606	0.003188283943365417	0.02170284913876319	-0.010059802820721673	-0.0001033845543279078
Ar	-0.00011970425844706887	4.2766596666007784e-05	0.0027896787949200064	0.003057016835762685	0.008500461424744464	5.345816290042217e-05
2
230400
Ar	0.0003085553124732984	0.0001433238872840496	0.0031868067907290403	0.009892284924332945	-0.021882094363325465	-0.0001454999796877834
Ar	-6.286493594269628e-05	0.00011067873056858913	0.0027898731135986596	0.007834951006066657	0.0045134823867419745	-2.70981112471499e-05
2
230600
Ar	0.0003257568342977191	-9.223223254203296e-05	0.0031857551691913304	-0.0065723344817366185	-0.02323688031121024	-6.119945825326691e-05
Ar	2.396657520633976e-05	0.00012563372379651667	0.0027890689646984435	0.00880312469831302	-0.0016552907993669995	-0.00011494554456983769
2
230800
Ar	0.0001873361581791928	-0.00028346963417199146	0.0031856828788150624	-0.01994971071431063	-0.013408759947535808	2.9375967621970456e-05
Ar	9.908334446982522e-05	8.045173536205646e-05	0.0027877431459979343	0.005580070768124147	-0.007017080663082338	-0.00013323078014973054
2
231000
Ar	-4.086609323370231e-05	-0.00033886737578334164	0.003186281005328104	-0.023771359146149248	0.002812788171891776	8.977271979660403e-05
Ar	0.0001262718899949543	-3.35454333143036e-06	0.002786641367056302	-0.0003694583842487132	-0.009052427423255937	-6.237275140930189e-05
2
231200
Ar	-0.000249470123488426	-0.00023146748076188412	0.0031872336162507035	-0.01619477032632822	0.017752475057779115	9.939347243409708e-05
Ar	9.249035614942953e-05	-8.559343326184443e-05	0.002786519255534067	-0.0061118135158705475	-0.006693662619521703	1.0836978891636545e-05
2
231400
Ar	-0.0003387080003338101	-1.2943396772773024e-05	0.003188076783344824	-0.0008891660187234205	0.024111755861903915	4.897118545248184e-05
Ar	1.41467638464673e-05	-0.0001265449062914772	0.002787087885238878	-0.008900946708423027	-0.0011529251714653996	9.091172691031333e-05
2
231600
Ar	-0.000265291946164693	0.00021191345443479984	0.003188344599924517	0.01491958392022675	0.01894164897088009	-1.796995589124246e-05
Ar	-7.110753521995323e-05	-0.00010683764897005885	0.002788066321034586	-0.007458509170920904	0.00492825538800271	8.431183819726854e-05
2
231800
Ar	-6.461359187677845e-05	0.0003349860579076979	0.003187292923656341	0.02352350008865764	0.004613166470273906	-0.00015988235363012282
Ar	-0.00012267451307441016	-3.577713644954814e-05	0.002788708721980539	-0.0024164021042658145	0.008681894116613173	4.552014919246492e-05
2
232000
Ar	0.00016706008845063174	0.00029712246979093215	0.0031857575196967787	0.020848967646496293	-0.011845102603931928	-0.00014641007551633857
Ar	-0.00011563969402191991	5.276174513861766e-05	0.002789113387139384	0.0037583439973025165	0.008268273219484893	2.016915351707204e-05
2
232200
Ar	0.00031878969039311343	0.00011688117842606884	0.0031849888153880203	0.008221502307168867	-0.022672769421611397	-1.52985938167709e-05
Ar	-5.368667243888473e-05	0.00011596200082344579	0.0027888387434858142	0.008117612129874547	0.0038368099972021464	-5.290756391557301e-05
2
232400
Ar	0.00031783722880957395	-0.00011950053008608603	0.0031852484304647354	-0.008384101341037075	-0.02261776363236705	6.712111015017626e-05
Ar	3.360385242034418e-05	0.00012331057237373094	0.0027883900562495297	0.008579110427362006	-0.002429066628072663	-7.589737954762359e-05
2
232600
Ar	0.0001644866607062404	-0.0002989357748587087	0.003186311111693104	-0.020982248197153667	-0.011734086228139833	0.00011945823790082405
Ar	0.00010443204485706991	7.136172994451948e-05	0.002787760276326781	0.004984717406321953	-0.007524582642506475	-3.1874260305133554e-05
2
232800
Ar	-6.74552778797268e-05	-0.0003348543691354909	0.0031874803715038463	-0.02347451723165944	0.0048305116060789145	9.201015153993148e-05
Ar	0.00012517687158637234	-1.5027120080854135e-05	0.00278783083961376	-0.0010077456988176118	-0.009030236570335507	1.6052097153211584e-05
2
233000
Ar	-0.00026674733365387727	-0.0002102282191940107	0.003188220508265114	-0.01471592740404284	0.019048536946908598	6.582497673674902e-05
Ar	8.570388525804902e-05	-9.439633540580072e-05	0.0027877497493993815	-0.006536667744180239	-0.006163424744292483	-5.4666922108384e-06
2
233200
Ar	-0.0003377706428041008	1.4995487041314781e-05	0.003188780575853483	0.0011089371573749372	0.02411353836532542	2.9492492531933242e-05
Ar	5.2539451656966575e-06	-0.00012833603640315184	0.002787789870106868	-0.008891862016743579	-0.00033563399984587775	8.135168257470617e-07
2
233400
Ar	-0.00024663589096982265	0.00023277856111303933	0.003188483471800454	0.016360935068172416	0.017620374042156536	-8.502788673107615e-05
Ar	-7.779098160352742e-05	-0.00010062037379349283	0.0027879225046536756	-0.007014027183766364	0.005644580692565208	2.211938049259362e-05
2
233600
Ar	-3.724557487423464e-05	0.000338594650303035	0.003187135937532434	0.023762278250428974	0.0026770875147889	-0.0001815198788320097
Ar	-0.00012382981067170907	-2.435413233488812e-05	0.0027881702115899	-0.001771418226468737	0.00898038687397291	4.3523466229056396e-05
2
233800
Ar	0.00019035905555241957	0.00028200356949877005	0.003185540490307872	0.019843212526975244	-0.013515907349170055	-0.000136022066038259
Ar	-0.0001104469022896977	6.386282463345396e-05	0.0027884785097085697	0.004315609502682915	0.007929425640882221	2.595422123795034e-05
2
234000
Ar	0.00032735520617224533	9.038663908141581e-05	0.0031845519319568852	0.006406955476926426	-0.023219552932883695	-5.3315335656133185e-05
Ar	-4.452117040182807e-05	0.00012129984791479857	0.0027885041819017305	0.008303224568901762	0.0030863077077593	-2.3618681877471624e-05
2
234200
Ar	0.0003078696661144309	-0.0001447989394882006	0.0031847352862465687	-0.01016050473217387	-0.021858700458639885	5.6163483864862996e-05
Ar	4.2166205060480344e-05	0.00012092093014007765	0.0027883929002598083	0.008314844842848695	-0.0031814479106708165	-7.823536312129785e-06
2
234400
Ar	0.0001408227365295672	-0.00031073908387043586	0.0031858817631995754	-0.021853220188824612	-0.009952509224378459	0.00017832692778724173
Ar	0.00010816283757357728	6.285109319353909e-05	0.002788261776105082	0.0043552121472897635	-0.00795401547630249	-3.0908003630199226e-05
2
234600
Ar	-9.366428735340854e-05	-0.00032767509666634727	0.0031875737557917915	-0.023084273426843212	0.006705795096007031	0.00015727698340640004
Ar	0.00012213982666492096	-2.5185610849508166e-05	0.0027880776767715003	-0.0016890709611769087	-0.008912922541860742	-1.0039582902405104e-05
2
234800
Ar	-0.0002832515696335115	-0.00018756764988619602	0.003189021808609877	-0.01323782221531882	0.02014412443714711	0.00010404699438700419
Ar	7.703264107568003e-05	-0.0001010630578210469	0.002787705634497851	-0.00690706900413346	-0.005648786622363142	-7.192075474436167e-05
2
235000
Ar	-0.0003366790574335351	4.257303947842323e-05	0.003189306908933041	0.0029815685374619534	0.023925960963407347	-5.5396481038403544e-05
Ar	-5.243668228696566e-06	-0.00012862083892562547	0.002786703537867615	-0.008845029666011864	0.0003629223970162684	-8.240822127571551e-05
2
235200
Ar	-0.0002283937297868888	0.00025192425498542513	0.0031880606708312395	0.017780289302873776	0.016199801064882537	-0.00017963141404153367
Ar	-8.532257801118158e-05	-9.423335576408206e-05	0.0027864053883253853	-0.006481668305166926	0.006190087163154776	-2.6222268506486653e-06
2
235400
Ar	-1.0662463927154374e-05	0.00034036255169672436	0.003186084806312876	0.023960648871229086	0.0007332181624195097	-0.00017553861119220724
Ar	-0.00012424045648921838	-1.464719246263722e-05	0.0027869602944718785	-0.00100347235398754	0.009049235740531483	9.549019023443947e-05
2
235600
Ar	0.0002120536155784887	0.00026537873886645563	0.0031847040908874113	0.018733600626880693	-0.015087359175875429	-0.00010338342692778654
Ar	-0.00010361801053669738	7.212919533422896e-05	0.002788016215723766	0.00494213040242819	0.007545863035279411	9.08879930412757e-05
2
235800
Ar	0.00033352927720990976	6.295461811977674e-05	0.003184599669412225	0.0045529749101627616	-0.023695444165945108	7.537823305954896e-05
Ar	-3.328537260997481e-05	0.00012430230790316565	0.0027885981496830344	0.008539280061177396	0.0024373611355414833	4.670488430906528e-05
2
236000
Ar	0.000295563329211162	-0.00016980010684446723	0.0031858947893430634	-0.01184426343218598	-0.02090746535541905	0.00018064502950785412
Ar	5.2991155632316816e-05	0.0001171969109125975	0.0027887736374638127	0.00799985757972207	-0.0037903986776208864	-5.3192676043022974e-06
2
236200
Ar	0.00011605749312329745	-0.0003212224693822881	0.0031875820600838728	-0.022546720872642062	-0.008093447251697364	0.0001581365655373766
Ar	0.00011370611047527368	5.419744784709618e-05	0.0027887667523150608	0.003646537214287027	-0.008287138329301327	-1.3246730585439485e-05
2
236400
Ar	-0.00011910020561579263	-0.0003184757919195787	0.0031887541281916975	-0.022488451860331167	0.008624721890362457	6.738845291152863e-05
Ar	0.00011999929273590568	-3.5233033884289776e-05	0.002788421620000418	-0.0024582291381053498	-0.008839943082367626	-4.9479975532003477e-05
2
236600
Ar	-0.0002972134268277646	-0.00016290504624938632	0.003189014194621365	-0.011631883287958762	0.021194770215174144	-2.612244986765535e-05
Ar	6.878623075232126e-05	-0.00010814284778085096	0.0027878063948715507	-0.007368520497289298	-0.005106833504792406	-5.756457115390989e-05
2
236800
Ar	-0.00033253387206427435	7.083051760339666e-05	0.003188114418761712	0.004848004251051734	0.02358188207822394	-0.0001390324432471853
Ar	-1.545521240503254e-05	-0.00012911580199842572	0.0027874534882036135	-0.00878072276063536	0.0011204151565246737	-1.573521291236014e-05
2
237000
Ar	-0.00020820389904135174	0.0002703897131590945	0.00318631163081976	0.018950002258322825	0.014658025467433842	-0.00019145887544150697
Ar	-9.280628032320529e-05	-8.791150846490545e-05	0.002787622652018782	-0.0060100290660241125	0.006779204912256843	2.958809896454816e-05
2
237200
Ar	1.592456621335092e-05	0.0003405491964246209	0.0031846442562431998	0.023972791478134328	-0.0012302599606829037	-8.696559225226424e-05
Ar	-0.00012577359651697089	-4.722523840502909e-06	0.0027881801822654023	-0.000322782697120914	0.009147067254804835	8.270303766430242e-05
2
237400
Ar	0.00023247699771234727	0.00024785575524746424	0.0031846332720639916	0.017514745332295165	-0.016541344095168733	9.874270077915366e-05
Ar	-9.848149802346538e-05	8.025996757670073e-05	0.0027886757401856944	0.005520808789892475	0.007131673695091797	2.3073215379570828e-05
2
237600
Ar	0.00033795595758465586	3.6637941862050336e-05	0.0031865159716693778	0.0026855751365379476	-0.023934780892651965	0.0002417357640199633
Ar	-2.465483530408511e-05	0.00012671769172261393	0.002788295766014709	0.008673644662364196	0.0017480740132508731	-8.271500931330502e-05
2
237800
Ar	0.0002815583380674125	-0.00019197944387048873	0.003188441151581946	-0.013484196449329034	-0.0198503537186918	0.0001298931143441315
Ar	6.102597905386828e-05	0.00011236211010109539	0.0027874778400768367	0.007749081676791511	-0.0045056392201074805	-6.19770864117005e-05
2
238000
Ar	9.020574206113378e-05	-0.000327977379091145	0.003188806189557844	-0.02316016793616879	-0.006210409407025022	-5.523867934937711e-05
Ar	0.00011765965994102166	4.38515699447124e-05	0.002787087125235335	0.003112332788173764	-0.008641939875641099	-1.226874205700051e-05
2
238200
Ar	-0.0001440468334124167	-0.0003061903807822787	0.0031877356739198866	-0.021711255933428757	0.01036743789362867	-0.0001337351095388221
Ar	0.0001180635130837455	-4.621111729924225e-05	0.0027871084084528965	-0.003037864654229808	-0.00861622934116889	-3.831035303855116e-06
2
238400
Ar	-0.0003092082419717042	-0.0001376190378678829	0.0031863438940218773	-0.00991914189919985	0.021922950205150737	-0.000109130134539167
Ar	6.178903017717744e-05	-0.00011422055861472284	0.0027870875753508045	-0.007760938310927465	-0.004431682743214133	-1.868628146024886e-05
2
238600
Ar	-0.00032613792328438303	9.707586704593428e-05	0.0031856034141959813	0.00668425813051677	0.023044462570158228	-6.704765444586134e-05
Ar	-2.433033593141692e-05	-0.0001274400159448172	0.0027872137042132747	-0.008747414207560247	0.0018963588832867169	4.963019160423358e-05
2
238800
Ar	-0.00018664203218882996	0.00028542512081461093	0.0031852636734254476	0.020031504290342412	0.013056963655608858	1.5312005379631336e-05
Ar	-9.899766145345757e-05	-7.962757684910286e-05	0.0027880695698478753	-0.005553117086465211	0.00725911374757651	0.0001009379189320406
2
239000
Ar	4.197787942731869e-05	0.00033686359115245784	0.0031859136175947877	0.023772545327076264	-0.0031889666363847644	0.00010731514256327248
Ar	-0.00012623535152607652	6.15937151975073e-06	0.002788812945877204	0.0003197587752124331	0.009170479227323705	5.443357758825e-05
2
239200
Ar	0.00025038425946273296	0.0002269055200981873	0.003187400623353579	0.01617471493352702	-0.017859979288218815	0.00017592895332891746
Ar	-9.323011809493066e-05	8.886021011713463e-05	0.0027888104103283382	0.006018438133722967	0.006684378867143352	-5.6998490145408804e-05
2
239400
Ar	0.00033905161116247544	8.590463840284826e-06	0.003188697049256077	0.0008028345876451077	-0.023969443322131825	6.0517580308434806e-05
Ar	-1.5394629680978338e-05	0.00012881187699705733	0.002788182957858044	0.008901099997869264	0.0009791977439436816	-6.23323243459943e-05
2
239600
Ar	0.0002651612114283443	-0.00021354185862552976	0.0031885247985143686	-0.014958972939234469	-0.01862089746916897	-9.369619088087479e-05
Ar	7.007441405562652e-05	0.0001072293551773148	0.0027877524016307036	0.007471447810277605	-0.005133626587681739	-6.463495425919668e-06
2
239800
Ar	6.404291001180541e-05	-0.0003331818769276578	0.0031870551735875604	-0.023572681996652505	-0.004307528425898552	-0.00017696173717526417
Ar	0.00012176806355956248	3.4238392181074996e-05	0.0027878815555620745	0.0024468746722938056	-0.008843934844220734	1.966864657028023e-05
2
240000
Ar	-0.0001680080761345631	-0.00029322384418795414	0.003185543831653808	-0.02088610724010088	0.011961372225141743	-0.00011978581256723879
Ar	0.00011519526977958176	-5.4906719914626325e-05	0.002787682762257711	-0.003698721862655569	-0.008238917585937191	-5.186386578646904e-05
2
240200
Ar	-0.0003197903384008033	-0.00011307166946536968	0.0031850416689544574	-0.00819656658710551	0.022535918223036525	-1.9045098126087104e-06
Ar	5.353333347297545e-05	-0.00011705532883795235	0.0027871479340309813	-0.008113676254690767	-0.0036776088996829555	-1.7310718794666714e-05
2
240400
Ar	-0.00031843338087433106	0.00012135648994164903	0.003185413406586313	0.008455689620677323	0.02237410602596037	7.711980306213288e-05
Ar	-3.372205142568388e-05	-0.00012278846899746505	0.0027871161016084817	-0.008611905046635242	0.002570160919104729	2.7726589054858763e-05
2
240600
Ar	-0.00016452843379553757	0.0002976791772550299	0.0031862225714174306	0.021019456676385436	0.011401006991885487	0.00011607164784969736
Ar	-0.0001046858885341415	-6.959387343701385e-05	0.002787702142227297	-0.004983650337335126	0.007581185247865641	7.538002836611185e-05
2
240800
Ar	6.801940744636185e-05	0.00033112217796296207	0.003187703542842675	0.023543886875113426	-0.004996684823010843	0.0001577228816728388
Ar	-0.00012542909087390913	1.682219111431063e-05	0.0027883269115721097	0.0009983055600025533	0.008961521323795386	5.713807149415322e-05
2
241000
Ar	0.0002680003489950086	0.00020611863516307	0.003189133562987213	0.014774726873230627	-0.01896263316199227	0.00011480201552233764
Ar	-8.616127447679507e-05	9.520590880927387e-05	0.002788505186926096	0.006509487031707532	0.006071000485259925	-1.2960090433268107e-05
2
241200
Ar	0.0003394425590134965	-1.7637594789120016e-05	0.0031894560741778217	-0.0011128833171782917	-0.023905043483162667	-3.8122479715091725e-05
Ar	-5.738506819115492e-06	0.0001284068531388768	0.0027883733395592638	0.008907636238951735	0.0002825670517118158	7.188401667486923e-06
2
241400
Ar	0.000247670654414311	-0.00023308993643308956	0.003188352388194694	-0.01646594535493375	-0.017372976895472576	-0.00016593485192743017
Ar	7.756772810392883e-05	0.00010023883760318538	0.0027883745524960864	0.007046128889844541	-0.005667729635794746	-1.2439082330434493e-05
2
241600
Ar	3.7017092671212116e-05	-0.0003369983939995242	0.003186344897901236	-0.023883877844570304	-0.0025443991367286164	-0.0002227738554196181
Ar	0.0001236486761141725	2.4146795875225345e-05	0.002788075580955212	0.0017992783342477955	-0.008902997685732782	-4.886544456832653e-05
2
241800
Ar	-0.00019121567377501067	-0.00027973199811695695	0.0031846732542309673	-0.01987555814967807	0.01350361189764712	-6.589852483500201e-05
Ar	0.00011042567656106398	-6.339444538986161e-05	0.002787654489543961	-0.004316969504045247	-0.007864555423004507	-6.2558574690883e-05
2
242000
Ar	-0.0003281527601518674	-8.841119493897538e-05	0.0031849618570608104	-0.006376084246623143	0.023147679205706418	0.00010023993778704478
Ar	4.434726075647331e-05	-0.00012037596140674841	0.002787245825820583	-0.008347757978074084	-0.0030581099044244622	-2.2818838740451594e-07
2
242200
Ar	-0.0003078581292101149	0.00014541215804536402	0.0031864441631840506	0.010272930803888766	0.021659567447082844	0.00017712517702884193
Ar	-4.291701206914047e-05	-0.00011970395376565343	0.002787496557188732	-0.008366880286063094	0.0031923233018749213	5.458654981477816e-05
2
242400
Ar	-0.00013960558493084798	0.00030963497568431295	0.003188033994452772	0.021972561798549874	0.00979379736110107	0.00014352958825293634
Ar	-0.00010957406660245722	-6.165335189393518e-05	0.0027878728723392974	-0.004406389941640309	0.0079217357401626	5.925819673314745e-05
2
242600
Ar	9.568404147845178e-05	0.00032564079744119303	0.003188902496484892	0.023128336183153967	-0.006736712578322834	2.763719970603715e-05
Ar	-0.00012374400069443378	2.5990456137543918e-05	0.0027885388720289613	0.001656919808411951	0.008880423115420666	4.530192342364018e-05
2
242800
Ar	0.0002853936282923302	0.00018550961686337152	0.003188519290668149	0.013222111912455946	-0.020129868474188555	-0.00011322057343855114
Ar	-7.89602608203229e-05	0.00010163085848043408	0.00278882756936243	0.00693158098100971	0.0056049687942940785	5.807933433129211e-06
2
243000
Ar	0.00033816039882084847	-4.403636769496769e-05	0.0031869814890176183	-0.0031056350643192186	-0.023841479562277994	-0.00019231725531507435
Ar	3.810650611818149e-06	0.00012882962812973698	0.0027887164183554077	0.008924193062041333	-0.0003809789270813735	-1.8323678446673177e-05
2
243200
Ar	0.0002284272578633487	-0.0002526636914899205	0.003185186528811238	-0.0179148164071685	-0.016142304058849807	-0.0001287493375781698
Ar	8.503863926414423e-05	9.416708290766224e-05	0.002788391745749598	0.006646812374423203	-0.006256445821692183	-4.65147391108799e-05
2
243400
Ar	9.205854745497153e-06	-0.0003404796399065505	0.0031845801038670875	-0.024098436466091645	-0.0006715744450692877	1.6059749448812508e-05
Ar	0.0001256599468005456	1.4367015822745525e-05	0.002787785492981695	0.0011500520517031332	-0.009043771424767132	-6.188103321499946e-05
2
243600
Ar	-0.0002146368941927986	-0.00026520273413184334	0.003185622490069443	-0.01878727659129059	0.015116325115533102	0.0001820510213460551
Ar	0.00010592592554669251	-7.19731711884103e-05	0.0027871840783138735	-0.0049287299122393385	-0.007514885740552496	-5.0975809354548075e-05
2
243800
Ar	-0.0003358659872049007	-6.251176865482142e-05	0.0031873617398983974	-0.004420351316930271	0.023716205474327703	0.0001519581047668063
Ar	3.5161880201575076e-05	-0.00012395437164607287	0.0027871704177840377	-0.008619675032112289	-0.0024478275969965755	4.220538818980258e-05
2
244000
Ar	-0.00029577543960342237	0.00017042980551830724	0.0031883463558731746	0.012102468815103417	0.020904035987424817	2.751961020508451e-05
Ar	-5.238398726516401e-05	-0.00011660700604213094	0.0027879396809231873	-0.008176776187750869	0.003856586980304657	8.561487650292146e-05
2
244200
Ar	-0.00011330074407309199	0.00032147183633900677	0.003188110526737911	0.02285113763966537	0.008061539026669923	-7.62626511477804e-05
Ar	-0.00011511599433814391	-5.302795592428129e-05	0.0027886957847718056	-0.003819712087071538	0.008313990574593144	7.36618572570585e-05
2
244400
Ar	0.00012381855269722665	0.00031853424420745855	0.003187257809083402	0.02259206627461373	-0.008620971757978142	-9.611985763538867e-05
Ar	-0.00012269349436201888	3.597300843331437e-05	0.002789473466023397	0.002351316614693427	0.008741908245425346	7.343744570119472e-05
2
244600
Ar	0.000301859317233892	0.00016288888884480462	0.003186365896235758	0.011507607771843167	-0.02121093739525193	-9.837731778311285e-05
Ar	-7.182452624919243e-05	0.00010729211281454278	0.0027898468314698954	0.00739139702635239	0.004952654733223033	2.4183152321191576e-06
2
244800
Ar	0.00033497148273130614	-7.096751702775522e-05	0.0031854264299434926	-0.005139257820049008	-0.023612124871806375	-8.386221974981062e-05
Ar	1.329290833395767e-05	0.00012730100665120364	0.002789557231474899	0.0089201460664533	-0.0011268472741795795	-1.9824048439392995e-05
2
245000
Ar	0.00020783677695085023	-0.00027110972235166027	0.003185004698771815	-0.019218163598176734	-0.014699823028120073	-9.449433318318099e-06
Ar	9.218185699531918e-05	8.641875833617933e-05	0.0027892154507894716	0.00617488516485059	-0.006690678483575013	-3.8120800696416147e-05
2
245200
Ar	-1.858481917437695e-05	-0.00034110044214631397	0.003185585724997726	-0.02416535472868472	0.0012808407888246366	8.888232918875996e-05
Ar	0.00012670353198843948	4.431018201277175e-06	0.002788497605551214	0.0004231227231809707	-0.00904383676302723	-0.00012434906364425314
2
245400
Ar	-0.00023615539384835144	-0.0002475635930567523	0.0031866531457508166	-0.017500769825337745	0.016642350508715837	0.0001231970727522657
Ar	0.00010030277142265185	-7.946834595084453e-05	0.00278752089716196	-0.005478441829981493	-0.007068730985249867	-8.507617193698925e-05
2
245600
Ar	-0.00034013647270229956	-3.564576921381652e-05	0.003187630403986919	-0.002403092462351725	0.023950874471958913	4.457880598812401e-05
Ar	2.591510444978465e-05	-0.00012526136160481306	0.0027869486364727777	-0.008805266215478252	-0.0016963300340060712	-2.8868226196896668e-05
2
245800
Ar	-0.00028063620875163334	0.00019264283505631902	0.0031877936561222255	0.013801681138926545	0.01979334477797808	-2.3129073129451234e-05
Ar	-6.146831026822795e-05	-0.00011061531303229436	0.0027871149651363994	-0.007928017710127999	0.004478849460234734	4.5589741883139015e-05
2
246000
Ar	-8.65355543291609e-05	0.0003283480442479792	0.003187251927335948	0.02338551573226264	0.006189503964463094	-8.421984294201234e-05
Ar	-0.00011974422345293519	-4.286548033989817e-05	0.0027876360171118523	-0.0032430498817907294	0.008501301126632596	5.2122828340609605e-05
2
246200
Ar	0.00014916543444200148	0.00030638653832618584	0.0031863523212540663	0.021759034725856274	-0.010394831961055636	-8.268952210820192e-05
Ar	-0.00012084643591357884	4.5823609408105276e-05	0.0027881517265330334	0.0030310587432519653	0.008480242575081065	4.485701721942301e-05
2
246400
Ar	0.0003133966249689611	0.00013734817460004035	0.003185568328242221	0.00970698727834327	-0.021994644451221762	-7.847639212711181e-05
Ar	-6.417403905762054e-05	0.00011268184197632455	0.002788435192849791	0.007814795856541107	0.004321063870483729	3.872494295229894e-05
2
246600
Ar	0.00032730202779099283	-9.76875891741157e-05	0.0031849188211375027	-0.007026816897994117	-0.02302948227145641	-4.5754310533770284e-05
Ar	2.2646774095835564e-05	0.00012552242457065032	0.002788803475557317	0.008843213428065154	-0.001884382482195517	2.8183757240490328e-05
2
246800
Ar	0.0001844961746409188	-0.0002858652587543618	0.003185034661609287	-0.020348875626490005	-0.012995864249345542	7.337038061088166e-05
Ar	9.848865810873103e-05	7.828920204833621e-05	0.0027888800383887072	0.005680001570751121	-0.0071634094046433856	-1.7120941168285212e-05
2
247000
Ar	-4.6718351722861044e-05	-0.00033695955677973756	0.003186243508112346	-0.02395226332385425	0.0032270099195944187	0.00013838480987645588
Ar	0.00012715429190253845	-6.048609631591814e-06	0.00278850427500514	-0.00020609268531445832	-0.009014272331590505	-4.6170144723048094e-05
2
247200
Ar	-0.00025542042250741156	-0.0002264176432297024	0.0031877770367440207	-0.016026166160002513	0.017936828701935508	0.00013521582000283562
Ar	9.479886096255663e-05	-8.743579899263749e-05	0.002787965006106816	-0.005986052825427167	-0.006587667706304415	-6.505580510622667e-05
2
247400
Ar	-0.00034114429747689526	-7.360348139027771e-06	0.0031881664052639536	-0.00037797072938501825	0.024033395567986313	-6.054621389288413e-05
Ar	1.697740441327362e-05	-0.00012725676531534318	0.0027876792021061998	-0.008926502824488793	-0.0010063336793924447	3.09176544790394e-06
2
247600
Ar	-0.0002628446517170569	0.00021512646077891687	0.003186904112636903	0.015388593198661779	0.01861810361657429	-0.00015251558251639063
Ar	-6.908339606473048e-05	-0.00010597719532863526	0.0027877413008562703	-0.007536329578243745	0.005074169378404542	7.406062889871664e-06
2
247800
Ar	-5.857946596002436e-05	0.0003344853175971064	0.0031852780542247516	0.023747677540865316	0.004276672220593053	-0.00012584899364949398
Ar	-0.00012185197073831511	-3.389312529094258e-05	0.0027879505856724107	-0.0025648776819618578	0.008704503447790217	3.358530650058892e-05
2
248000
Ar	0.0001735049047249163	0.0002938059165921654	0.003184539483629757	0.02074493172988	-0.012088127941033606	-9.311641585814945e-06
Ar	-0.00011588651942601332	5.412495984200071e-05	0.0027879266577268184	0.003692221041972405	0.008162912255952965	-5.6727019798045166e-06
2
248200
Ar	0.0003226224818080098	0.000112316345699271	0.0031850246095900185	0.007838688991483468	-0.022671897469133707	8.597555557708133e-05
Ar	-5.3949735005633974e-05	0.00011602121146191453	0.0027878508894596545	0.008157479538857006	0.0036977011889431123	1.135428698942999e-05
2
248400
Ar	0.0003173690694841727	-0.0001229022737066872	0.0031862288217977376	-0.008862174536341355	-0.02241036281965883	0.0001330539343791018
Ar	3.3792119247033076e-05	0.0001221578022235127	0.0027883774176327074	0.008648520661923207	-0.0025181088631108044	5.589881873211927e-05
2
248600
Ar	0.0001601037359344254	-0.0002991503487991449	0.0031874830321172876	-0.021288475105130895	-0.01137738358842914	9.210659752775181e-05
Ar	0.0001048341026289595	6.968623368136703e-05	0.0027887420193961465	0.00496178000566016	-0.007512977026900559	2.2696430613245986e-05
2
248800
Ar	-7.384524789956113e-05	-0.0003322847918090434	0.003188016841183783	-0.023546720121796677	0.005041650913292285	-1.4088456501913488e-05
Ar	0.00012531116949617328	-1.594499122867685e-05	0.002788528628204518	-0.001037923792862251	-0.008905108503218925	-5.369051894128742e-05
2
249000
Ar	-0.0002726553476750346	-0.00020604262721585795	0.0031874917513574495	-0.014550826798716835	0.019134716413250017	-8.994556052306678e-05
Ar	8.555846733175075e-05	-9.378491750075458e-05	0.002787813033471494	-0.0065822618723485	-0.006022989250724818	-7.111648204419972e-05
2
249200
Ar	-0.0003407086584287504	1.8989752017333243e-05	0.003186156380971165	0.0015090169059848641	0.023982571494962822	-0.000161614924206764
Ar	4.588267762259481e-06	-0.00012670546735976484	0.002787280610397667	-0.008949198122301244	-0.0003132473428847429	-1.967704607557577e-05
2
249400
Ar	-0.0002452245341075097	0.000234844086794704	0.0031847933891548607	0.0167743015761586	0.01737438236970823	-9.583171946413616e-05
Ar	-7.876196275531845e-05	-9.918610453645836e-05	0.0027873906306501877	-0.007025964481353049	0.005568733850420059	1.5300890098909488e-05
2
249600
Ar	-3.244901242887873e-05	0.0003382277403873099	0.003184506492869264	0.023997346767718798	0.0024288055730066075	4.572120496852566e-05
Ar	-0.0001244325971018424	-2.4296654783648287e-05	0.0027875912109864573	-0.001692825661197947	0.008772796696407601	2.4714905083276552e-05
2
249800
Ar	0.00019577951810874206	0.0002795222934419447	0.0031856370755196347	0.019729801455073612	-0.013682793374061619	0.00019198809161331864
Ar	-0.00011011409734068605	6.208768118615297e-05	0.0027879106386196665	0.004441369050028578	0.007779723764132722	4.385927939768802e-05
2
250000
Ar	0.00033030572426136906	8.685436864941298e-05	0.0031877404502842505	0.006031585835095928	-0.023269413835611943	0.00019321347765237842
Ar	-4.310635366688535e-05	0.00011861183574317373	0.0027881941831787538	0.00839430750630971	0.0030466560859540425	3.5138289357698176e-06
2
250200
Ar	0.00030643684267821957	-0.0001476263106298309	0.003189010566651242	-0.010618207684628058	-0.021669373431279334	8.408155388555118e-05
Ar	4.4571651994627115e-05	0.00011819311049615564	0.002788094163659988	0.008399870965691685	-0.003148578518171856	-2.0836497086229107e-05
2
250400
Ar	0.00013535784293970256	-0.0003110157757716496	0.0031892028463808664	-0.022158197204158406	-0.009652393506579114	-5.607170196288544e-05
Ar	0.00011112707079978954	6.093316752993057e-05	0.0027880376249355588	0.004360387350749421	-0.007835362306804965	6.336263564651949e-06
2
250600
Ar	-0.00010060378250515453	-0.000325147489417566	0.0031879758272735648	-0.023065550902729805	0.006927329796639138	-0.0001977006470528418
Ar	0.00012449705025648783	-2.577875832630005e-05	0.00278803964076422	-0.001782683739330041	-0.008799351625241142	-1.7634574335776864e-07
2
250800
Ar	-0.0002882825517104943	-0.0001834282231172815	0.0031859323794053256	-0.012892086859916342	0.020227730144928752	-0.00020634832723840632
Ar	7.827983149090666e-05	-0.00010049275432197106	0.002788006599370694	-0.007068937332932157	-0.005499332551239512	1.3793954815760907e-05
2
251000
Ar	-0.00033748062538260906	4.6425707212027896e-05	0.0031844834808800004	0.0034488320139352074	0.023820679353194037	-8.451426112350753e-05
Ar	-5.719100617136796e-06	-0.00012705474834929394	0.0027882093909256584	-0.009007720173874653	0.0004147053599943502	4.4467167278085077e-07
2
251200
Ar	-0.00022521999289679543	0.0002541124200240762	0.003184292262515546	0.01806700268636197	0.015982873809206034	6.618827448463332e-05
Ar	-8.694193438664113e-05	-9.284772115540705e-05	0.0027881835099466323	-0.006544334575109657	0.006111539427628084	-1.2342034091339755e-05
2
251400
Ar	-5.060418124828306e-06	0.0003400618252386455	0.003185649648082206	0.02411427032747441	0.00048234781328115964	0.00020181420279829875
Ar	-0.00012598239670409865	-1.4625639466962172e-05	0.0027878941007167513	-0.0009105896741608534	0.008880364307858716	-3.3763923953928105e-05
2
251600
Ar	0.00021781071895176613	0.0002630344250986	0.00318756641587706	0.018559428530381856	-0.015247607549799863	0.0001311741897615751
Ar	-0.00010428610470407788	7.046798740278653e-05	0.0027874767096685085	0.005089497192956064	0.007410781883847238	-5.000252808554842e-05
2
251800
Ar	0.0003359543215142311	6.0120196532603966e-05	0.003188429194309401	0.004084491725187001	-0.023655103538177624	4.2053210701422705e-05
Ar	-3.221155740713336e-05	0.00012166722703146515	0.002787155074702527	0.008709042958702482	0.0023757687475147522	-2.735774101674958e-05
2
252000
Ar	0.00029308537596554136	-0.00017156917578277521	0.0031881009755419113	-0.012314832535429024	-0.02072550273130184	-8.10934847738148e-05
Ar	5.564883704356444e-05	0.00011420756347124507	0.002787124981034394	0.008135416349518157	-0.0038087657378589866	9.199853996718182e-06
2
252200
Ar	0.00010974014712779904	-0.00032077352821334795	0.0031870702764416337	-0.02281593687613445	-0.007830678697046994	-0.00011285189230770148
Ar	0.00011699189629003024	5.200390413236035e-05	0.0027873964147476027	0.003630595069843913	-0.008124785800151068	4.8010178501446815e-05
2
252400
Ar	-0.0001262877699164195	-0.00031595307521671746	0.003186029257482967	-0.02241474228800739	0.008757635168636644	-0.00010248482948303073
Ar	0.00012238399837275157	-3.5091370513925144e-05	0.002787966720212883	-0.0026210958512353157	-0.008567564109594885	6.543330476830044e-05
2
252600
Ar	-0.00030180343475942167	-0.00015963399344194005	0.003185305743419774	-0.011240436135989441	0.0211730955141738	-1.1973774701570584e-05
Ar	6.912650454476301e-05	-0.00010522923103835734	0.00278869125966286	-0.007584578875035634	-0.004875531749179082	7.407820883753338e-05
2
252800
Ar	-0.000332830215625131	7.321341626190735e-05	0.003185666747252861	0.005298075849274617	0.023441781304886028	7.831747573359881e-05
Ar	-1.683578014373604e-05	-0.00012505335008205747	0.0027893443768950746	-0.008903530622695237	0.0010972901705476586	4.1393666847772383e-05
2
253000
Ar	-0.0002043295260965517	0.00027114998726973335	0.0031867098666127115	0.019324574735146025	0.01447413954276456	0.0001230094330237748
Ar	-9.459505520638465e-05	-8.520042179572046e-05	0.0027891532732692748	-0.005993760315377187	0.006545548059890945	-7.162015961442877e-05
2
253200
Ar	2.213809157128196e-05	0.00033912912790015897	0.0031877912867972354	0.024064088120276814	-0.0014478149331123072	6.800454925837496e-05
Ar	-0.0001271609689946422	-4.91847368649662e-06	0.0027880197295693824	-0.00021900725353924316	0.008856756998107807	-0.00014396921498299842
2
253400
Ar	0.00023766144318460993	0.00024442859825385134	0.0031878764570312775	0.017209070102339023	-0.016690294720762527	-3.0539579537885556e-05
Ar	-9.86673714493189e-05	7.774909568357873e-05	0.0027869025417604975	0.005674146274975968	0.0069712045401453425	-7.990114026563253e-05
2
253600
Ar	0.0003387617651583233	3.259207996095696e-05	0.003187207576125939	0.002167568272753933	-0.02390547779015034	-8.74910731436925e-05
Ar	-2.2716427679907525e-05	0.00012294648988430939	0.002786532920984918	0.008870649205119945	0.0016985797392124833	1.4024185177371294e-05
2
253800
Ar	0.0002774815213798791	-0.00019459644209397425	0.003186500403080681	-0.01391437828014463	-0.019631203242576497	-4.9798868120028324e-05
Ar	6.423549734389606e-05	0.0001090870102848561	0.0027870396639831994	0.00779819301301441	-0.00433729106552482	8.636131983246643e-05
2
254000
Ar	8.31682345019541e-05	-0.0003283813386219786	0.0031865095280163374	-0.023333090330239722	-0.0059800150638329936	4.595030794674941e-05
Ar	0.00012038327455035039	4.294650303638172e-05	0.002787996523042586	0.002970724789303341	-0.00834076407677273	9.66844472818927e-05
2
254200
Ar	-0.00015125541646752785	-0.0003048441102130252	0.0031868660955890206	-0.021575832770176325	0.010489214764124911	3.286654926513963e-05
Ar	0.00011894929333241972	-4.4137657235558526e-05	0.0027887602803554025	-0.0032700933964439614	-0.008328069558184999	5.8448092656857854e-05
2
254400
Ar	-0.000312994868684285	-0.00013543462595524806	0.0031868730687553805	-0.009402716373025916	0.021969600994744536	1.985191296597451e-06
Ar	6.0335152005046094e-05	-0.00011004254142753806	0.0027893279417595222	-0.007967254012743178	-0.004291986524921816	3.298874367627966e-05
2
254600
Ar	-0.0003247029870576368	9.875957275278928e-05	0.0031870938386284135	0.0071830657698914386	0.02291523679845728	3.9087437800116195e-05
Ar	-2.7182149115437962e-05	-0.00012309872063323592	0.002789165446578383	-0.008813923803587049	0.0017939289906684288	-6.576061773054699e-05
2
254800
Ar	-0.00018110280367955017	0.00028599280512981226	0.0031875114033650858	0.020341714611532235	0.012939707537062807	4.3362643205140024e-05
Ar	-0.00010170189314962111	-7.718089816800474e-05	0.0027878962364866026	-0.005458659864937519	0.007004574548269888	-0.00017233650544312503
2
255000
Ar	4.926040426156675e-05	0.0003361062082978665	0.0031878214135442565	0.02379221793203582	-0.0033311720982609383	-7.325043992483877e-06
Ar	-0.00012767724101006103	5.711383270323043e-06	0.002786558671442125	0.00046902285727070395	0.008885176320315193	-8.214511857163854e-05
2
255200
Ar	0.000256102410156618	0.00022504663331763874	0.0031873120415468145	0.015830972321140897	-0.017961117016007517	-0.00011372406453959003
Ar	-9.276240602643218e-05	8.61096082923162e-05	0.0027862684604926017	0.0062099907548289575	0.006534776692265306	1.2542179180169772e-05
2
255400
Ar	0.0003403529925488283	6.314660001288791e-06	0.0031860836333806415	0.00031854169204322	-0.023982654018648117	-9.831334912739234e-05
Ar	-1.3277324944232934e-05	0.0001259080712181127	0.0027868460087940652	0.009008134407134398	0.0010806037075918628	0.00010467972738686152
2
255600
Ar	0.0002618415169069545	-0.00021572522287363933	0.00318562253918171	-0.01536206011070095	-0.01855773071701361	1.456885935776214e-05
Ar	7.2503059011204e-05	0.00010585654295108956	0.0027881055816906357	0.007448547199967238	-0.004946072174116589	0.00010957448804399221
2
255800
Ar	5.78826773531885e-05	-0.00033446025706795966	0.003185895968400714	-0.023713818364695282	-0.004199419128816374	4.44447040916483e-05
Ar	0.00012337877777252317	3.506397492219218e-05	0.002789185791151002	0.0022965396941188286	-0.00861386556251895	7.996446823313153e-05
2
256000
Ar	-0.0001739447750241873	-0.0002930445303678124	0.0031864328104283545	-0.020686340831561338	0.012161328071699706	7.559872498011247e-05
Ar	0.00011496724012656289	-5.2472553911646485e-05	0.0027895871384586773	-0.003912229130756472	-0.008156118657861573	-2.0203380606039493e-05
2
256200
Ar	-0.0003223421424615234	-0.00011151286193558142	0.003187190158436192	-0.007744897085172181	0.022618246310252676	9.264403303724101e-05
Ar	5.149234008859238e-05	-0.00011487955572828217	0.0027892355476757565	-0.00825787837818553	-0.0037973816059381394	-4.917702133772663e-05
2
256400
Ar	-0.0003164264430395972	0.00012304810604332116	0.0031879653702536243	0.008883168951529255	0.022341486145210948	6.552200571017504e-05
Ar	-3.6932432629541754e-05	-0.00012225861531813307	0.002788628446221461	-0.008688503109774304	0.0023957974928585234	-5.853617324571837e-05
2
256600
Ar	-0.00015920006516670308	0.0002989716840248731	0.003188306060827547	0.02127969069900978	0.01135207750803611	-2.6429775692618e-05
Ar	-0.00010775334148398616	-7.094596143852392e-05	0.0027878522451292944	-0.004909058654126001	0.007436769150239073	-8.406095476016378e-05
2
256800
Ar	7.46858579140768e-05	0.00033158202486941596	0.0031878146215438023	0.023511799448957822	-0.005114072978342591	-8.898978480622592e-05
Ar	-0.00012711341788468954	1.4386713408977986e-05	0.0027871271779144327	0.001198770921494254	0.008906159679498676	-5.003982651338328e-05
2
257000
Ar	0.00027274547739446843	0.00020510601486875993	0.003186565002734714	0.014410306877335993	-0.01912327967857837	-0.00015289467975100162
Ar	-8.570711287378954e-05	9.257050096167373e-05	0.002787015928217588	0.006765664256179769	0.00607549392832186	2.5009752214475696e-05
2
257200
Ar	0.0003397782677511282	-1.94644919221541e-05	0.003185409364142246	-0.0015463676932208723	-0.02393434721477204	-6.309867974818283e-05
Ar	-3.252413821249281e-06	0.00012602433642562084	0.0027874824819234772	0.009029262174105874	0.0003541586022937469	5.6207080453254145e-05
2
257400
Ar	0.00024409289734664353	-0.0002347866459797862	0.0031853171914614903	-0.01676310293548638	-0.017345388268732182	4.900061104142181e-05
Ar	8.009383981580356e-05	9.929106283634166e-05	0.0027880557533889495	0.006934602734898723	-0.0054769621288033	5.545809503280907e-05
2
257600
Ar	3.174551719264581e-05	-0.00033828780623465277	0.003186254574614413	-0.02393187380255324	-0.0024626752336012973	0.00014223169108847634
Ar	0.00012460202285303261	2.532837610568253e-05	0.0027885619644694116	0.0015773620989913595	-0.008665790782124537	2.6067720042866e-05
2
257800
Ar	-0.00019574852725898304	-0.00027987779560369685	0.003187660438188904	-0.01964664776331416	0.01364827855442555	0.00011673437666291335
Ar	0.00010922244190872807	-6.041260687393415e-05	0.0027887787525837384	-0.004536814724429365	-0.007752971516383194	4.726405190160208e-06
2
258000
Ar	-0.00032907972269000053	-8.734663271699406e-05	0.003188277483726665	-0.005902660633406351	0.023226149538613954	3.166311233128487e-05
Ar	4.146182084915497e-05	-0.00011723876991323862	0.002788564235110326	-0.008463202625176126	-0.0031391050753456695	-3.944502602965203e-05
2
258200
Ar	-0.00030447340870295623	0.00014700981192149065	0.003188306641986724	0.010620482703223359	0.021669399378892434	-4.303210768513313e-05
Ar	-4.588732745547496e-05	-0.00011808514951715998	0.002787906162937293	-0.008289382531939756	0.002981268252939729	-0.00010025149244484055
2
258400
Ar	-0.0001338850079771244	0.00031078226292986403	0.0031877208588710322	0.022053732324269302	0.00973481768066771	-8.10159618136332e-05
Ar	-0.000111108860837596	-6.238922532728765e-05	0.0027870540326136607	-0.004240381656770428	0.007679266953180459	-6.254539872972924e-05
2
258600
Ar	0.0001006132812069212	0.000325511257333764	0.0031866012310083048	0.022883305064216045	-0.006912745188315398	-0.00011985867584275613
Ar	-0.00012347755413805072	2.327815416547113e-05	0.0027867912927592594	0.0018748822935339784	0.008718388655264107	1.4102286006192321e-05
2
258800
Ar	0.00028660063886839517	0.00018380446222049664	0.0031854117101150024	0.012775236054817864	-0.020204578835610963	-7.112849715005912e-05
Ar	-7.644964794885956e-05	9.757611501270383e-05	0.0027872959501069345	0.007122387009465047	0.005533248949710776	9.29227420224025e-05
2
259000
Ar	0.00033518024980432265	-4.584053270650996e-05	0.003185359827084711	-0.003442324822354708	-0.023809152168497775	5.283458017746987e-05
Ar	7.070660283322982e-06	0.0001250139343151875	0.0027880012395332613	0.008877410302493347	-0.0002770609737377275	6.137270325073272e-05
2
259200
Ar	0.00022335574842951585	-0.0002536256125280315	0.003186476569167859	-0.017996778128448555	-0.016031216264723713	0.00015532793283139825
Ar	8.690655137531912e-05	9.283573411388976e-05	0.002788430319145059	0.006392035306907778	-0.005894487536022435	2.3256066613329228e-05
2
259400
Ar	4.370530010998592e-06	-0.00034017421730091554	0.003187994214294061	-0.023954973883857842	-0.0005568620827647678	9.067984054111225e-05
Ar	0.00012503027401066405	1.6398529220358804e-05	0.002788507987953256	0.0008852315564953177	-0.008766185663782329	8.701036893791435e-06
2
259600
Ar	-0.00021653187905868408	-0.0002637038157472912	0.003188175999578486	-0.01836667718040287	0.015208226128843387	-4.7395623717125287e-05
Ar	0.00010308220448429835	-6.839796970591282e-05	0.002788597772917431	-0.005091625689908809	-0.007478456532705538	1.5922307297378552e-06
2
259800
Ar	-0.0003333769981287443	-6.104699534083171e-05	0.0031876029168576357	-0.004017103346579635	0.02361794192845195	-7.170289323161626e-05
Ar	3.1540370499871654e-05	-0.00012058115348830536	0.0027884620503294166	-0.008612611216360254	-0.0025337389398186563	-4.889725089341294e-05
2
260000
Ar	-0.00029057459313724113	0.0001704639991174171	0.003186990739740015	0.012239181438271072	0.020767390911133728	-4.116897823077669e-05
Ar	-5.50936296215379e-05	-0.00011486335065737315	0.0027877481911052207	-0.007987594330401644	0.003621425406758089	-7.729879140497927e-05
2
260200
Ar	-0.00010819871922723367	0.000320535087806978	0.003186984538637696	0.02268780815360368	0.007977746127420709	-6.293396593398211e-06
Ar	-0.00011534536953355557	-5.3897397876533304e-05	0.0027870347198057327	-0.0035357654882132257	0.008074095180956456	-5.077450373737663e-05
2
260400
Ar	0.00012606462120608812	0.0003170190202062104	0.0031870259267012192	0.02219997532053022	-0.00865369457312455	1.5983996215086975e-08
Ar	-0.00012032304670000567	3.3431550157823024e-05	0.002786843604932507	0.0025835390957429875	0.008670140087561647	2.7632648783452657e-05
2
260600
Ar	0.0002996748741591359	0.00016153121654930385	0.003186886523889768	0.011049264656011316	-0.021146084153510165	-4.179165098666397e-06
Ar	-6.766164120246665e-05	0.00010504452712016119	0.0027874345591958984	0.0075027832235635035	0.005056546765773583	7.022984414328097e-05
2
260800
Ar	0.0003294728970183111	-7.151162464287575e-05	0.003187073924733653	-0.005356533145244605	-0.023485567205818837	5.098358841258787e-05
Ar	1.736853541414842e-05	0.00012629007635730274	0.0027877650396757425	0.008778531741966317	-0.000979585774991287	4.251639431738114e-06
2
261000
Ar	0.00020126888724339675	-0.0002703477304970699	0.0031875581197195173	-0.019198095150828924	-0.014634813766004456	4.0747249497645696e-05
Ar	9.399583738555381e-05	8.707751636086636e-05	0.0027877374466234632	0.005887664362843225	-0.006548588875315992	6.145655588391809e-06
2
261200
Ar	-2.3330024297939022e-05	-0.00033993558985270604	0.003187498097379618	-0.02385167715174692	0.0012730641788839573	-5.611886836925823e-05
Ar	0.000125578247471238	6.03249975825857e-06	0.0027878555156810544	0.00014978713227580781	-0.008995265104027454	1.3529455141640487e-05
2
261400
Ar	-0.0002366728029557651	-0.0002468350873128822	0.003186563333357955	-0.017031539487143248	0.0165745849074954	-0.00010945440095747932
Ar	9.694424105539099e-05	-7.819129719795185e-05	0.0027882318960749516	-0.005644955320830874	-0.007126519125467081	3.3278707275799704e-05
2
261600
Ar	-0.00033634936763136497	-3.540626790040138e-05	0.0031859157109064965	-0.002089211325245797	0.023930170217720148	-2.9481470749296924e-06
Ar	2.173021312671636e-05	-0.00012487144223181232	0.002788248480516894	-0.008748001225370573	-0.0018265369646377732	-2.697004277281342e-05
2
261800
Ar	-0.00027539377834010767	0.00019331361761356202	0.003186626373638158	0.013797771390567388	0.019870600103657772	0.0001226856624578741
Ar	-6.369761864302819e-05	-0.00011167326988952772	0.002788007511926242	-0.007617564023616965	0.004360544335757556	-2.1698089685993337e-05
2
262000
Ar	-8.232951359948959e-05	0.000329892735615594	0.0031877887586316002	0.023189536548775327	0.0062612987018997	9.956794425770698e-05
Ar	-0.00011821490931787401	-4.5032448708536945e-05	0.0027877216887347255	-0.0028476611778718475	0.008422628564359156	-3.404640265296957e-05
2
262200
Ar	0.0001501659197319925	0.00030824530271550475	0.003188306604541222	0.021359611293843006	-0.010424387894922069	-2.8377482285257957e-06
Ar	-0.00011607958152201184	4.317818434305522e-05	0.0027876010214462807	0.00326493487109875	0.008493817625523797	1.2499772044892748e-05
2
262400
Ar	0.00031000913997576766	0.0001388133729499327	0.0031877911237070413	0.009301399646300175	-0.022045085526595194	-8.827689400536947e-05
Ar	-5.817442256187035e-05	0.00011103552506431577	0.0027877861701610905	0.007829545468156425	0.004498344735582685	1.9052601643019774e-05
2
262600
Ar	0.0003213733019732758	-9.702482113890975e-05	0.00318702648346856	-0.007126236658582044	-0.023139002073072623	-4.893875654860303e-05
Ar	2.7750316911336173e-05	0.00012582510167089708	0.002787614013161946	0.00861475292670566	-0.001664413088640317	-3.8525999004321976e-05
2
262800
Ar	0.0001789849663320407	-0.00028629751828016886	0.0031867078099881807	-0.020173952944332378	-0.013125849368338358	-4.0605801513158085e-05
Ar	0.0001004518707064914	8.042683377767378e-05	0.0027873836920292603	0.005322545410838632	-0.00703485320937694	-1.1933415885576932e-05
2
263000
Ar	-4.909472512981938e-05	-0.0003380729861174244	0.0031860672089146645	-0.023522935751222322	0.003224510551727648	-0.00010700191092352411
Ar	0.00012517166091595997	-3.586718959297386e-06	0.0027874431909988753	-0.0006019310511646644	-0.009075462153802883	4.567156382068857e-05
2
263200
Ar	-0.0002534336508622896	-0.0002276990984321298	0.0031852923649378986	-0.015636674188543098	0.017913543500580786	-4.131280075725687e-05
Ar	8.984524856949461e-05	-8.594226908805666e-05	0.0027878892234538704	-0.006182442531753502	-0.006698856991238004	3.953586968188652e-05
2
263400
Ar	-0.00033664653902196374	-8.659332809665514e-06	0.0031856213563826855	-0.0002978922823596672	0.024071454289679155	9.227135662394305e-05
Ar	1.1540762923717943e-05	-0.0001268637669757268	0.002787785501538378	-0.008818697855241881	-0.0011375500177296467	-7.464617329236203e-05
2
263600
Ar	-0.0002589020221320819	0.0002147811303386119	0.0031867529824063812	0.015206443573075053	0.0187303001886935	9.457918613405067e-05
Ar	-7.210995648255667e-05	-0.00010683704913653655	0.0027871428185254534	-0.0072148232836451755	0.004956944097817118	-5.520155191759443e-05
2
263800
Ar	-5.714382427008791e-05	0.0003351246294467462	0.0031875465506878645	0.023443808491773493	0.004327161174050161	4.4345641933839896e-05
Ar	-0.00012101365050447832	-3.562101934117833e-05	0.0027867876823738777	-0.0021369327179799774	0.008696711308282971	-1.550211490988397e-05
2
264000
Ar	0.00017142922162854588	0.00029450311742812635	0.003187400206384635	0.02036266590704926	-0.012107824935634972	-4.620932708997105e-05
Ar	-0.00011150716270608942	5.31450663390076e-05	0.0027871630224423996	0.003940635829364941	0.008304613860532382	9.264795703112119e-05
2
264200
Ar	0.00031747129269169244	0.00011235870779770591	0.003187209158370259	0.007627249788533812	-0.02278026544013947	-1.5302394571183174e-05
Ar	-4.86643034951981e-05	0.00011662169508719816	0.0027881142997726238	0.008104512545647318	0.003849665366075188	7.13552053936692e-05
2
264400
Ar	0.000311761516720754	-0.00012413806458554103	0.0031873988710900453	-0.008735345137991969	-0.022549131910872686	2.534391373685986e-05
Ar	3.7436078759037797e-05	0.00012402937907588678	0.0027883341217661	0.008399792546306316	-0.0024138864840595317	-1.9213027746051022e-05
2
264600
Ar	0.00015703258350438357	-0.00030165950087356703	0.0031874587124576387	-0.020958014729111765	-0.011444297735547495	-1.9871938997019774e-05
Ar	0.00010572087219932906	7.206383670576193e-05	0.002787753444925188	0.0046733732970831235	-0.007561081956410011	-4.71535930237616e-05
2
264800
Ar	-7.288290255652084e-05	-0.0003343867025765449	0.0031870301077135585	-0.023092463414841644	0.005169109263580667	-5.795579004227561e-05
Ar	0.0001235741557148036	-1.4821922213361932e-05	0.0027875994711168616	-0.0012624526582185938	-0.009082133886690182	1.6811901080807448e-05
2
265000
Ar	-0.00026750744405818806	-0.00020647237995002188	0.003186535305089817	-0.014228615791341855	0.019289873520539128	-2.5445568894446455e-05
Ar	8.235023482117018e-05	-9.459299401775846e-05	0.002787863373434986	-0.006638714779885997	-0.006191152244572959	6.268783612329091e-06
2
265200
Ar	-0.0003345343296718604	2.0262468094935836e-05	0.003187014760389644	0.0014011974337023705	0.02416010783846906	0.00010080846451422304
Ar	1.937898153439758e-06	-0.00012876683082898717	0.0027874734263709875	-0.008781451352349406	-0.0003446530408351185	-4.4130694487369406e-05
2
265400
Ar	-0.00024153629295652147	0.00023775070059587952	0.00318783685746996	0.01642634967395099	0.01748644561653911	5.242513929373983e-05
Ar	-7.906404660189571e-05	-0.00010106836343471954	0.002786985353604066	-0.006764733406440193	0.005662959682171729	-2.4646993743167904e-05
2
265600
Ar	-3.284263530427963e-05	0.0003410683031716912	0.0031879133605943154	0.023558484930194856	0.0023166877862292132	-4.34949074131857e-05
Ar	-0.00012227435853936114	-2.4498906913194918e-05	0.0027871827124318614	-0.0015020701315592397	0.009008897583132199	8.174894700997531e-05
2
265800
Ar	0.00019145005423043152	0.0002803385868141595	0.0031873355257700693	0.01939367010147076	-0.01393381842090575	-6.228319267368587e-05
Ar	-0.00010683152475591896	6.417160812747628e-05	0.002788123607257034	0.004466607420072205	0.007963984430084652	9.945550004677207e-05
2
266000
Ar	0.0003242360392376668	8.517921091620679e-05	0.0031867027278418294	0.006048239807429538	-0.023477434234102545	-2.698748285408455e-05
Ar	-4.0100281376761205e-05	0.00012213272313104447	0.0027887372358125773	0.008294224029318507	0.003164821074538066	-3.576160252568448e-06
2
266200
Ar	0.0003023511204856411	-0.0001511542788219916	0.003186690930838017	-0.010254928629287435	-0.02178904851271533	-5.939611250027904e-06
Ar	4.5492351479787e-05	0.00012218231603235272	0.0027881232172144647	0.008107309773301628	-0.003162805013175539	-6.705228850921887e-05
2
266400
Ar	0.00013518283999179755	-0.0003152882567797422	0.003186532846901025	-0.02175691141580753	-0.009640692887003977	-1.3052693298899262e-05
Ar	0.00010948078448989473	6.370178656703232e-05	0.0027879369005689683	0.004138424194825906	-0.00802349633845847	2.2627685770101443e-05
2
266600
Ar	-9.700617204457525e-05	-0.0003279916837206716	0.0031864103954526786	-0.022726104843878114	0.007189710240174982	-1.1995871972249884e-05
Ar	0.00012120521363660365	-2.5239731414658792e-05	0.0027885676669102176	-0.001857842680937046	-0.009011059627819942	6.88465201220067e-05
2
266800
Ar	-0.0002826177313589101	-0.0001835636618835059	0.003186431524022122	-0.012844934042517072	0.020493347208173186	4.6828437790857256e-05
Ar	7.509506110758428e-05	-0.0001018189471335739	0.00278884154488245	-0.006966281199309821	-0.00565209402959207	-2.7196814542320605e-05
2
267000
Ar	-0.00033324286746600504	4.882376543758589e-05	0.0031873431170224074	0.0031906105510501547	0.024010953255515444	0.00010842513832069425
Ar	-6.738900538228755e-06	-0.0001294546155621875	0.0027880051441406747	-0.008738646199446838	0.00035811205484286105	-0.0001068377758078239
2
267200
Ar	-0.00022374728052092685	0.00025761265454182	0.003188021878090592	0.017787158740863167	0.015992363019815513	1.1895046329462453e-05
Ar	-8.574850481075324e-05	-9.501213701577875e-05	0.00278710876406569	-0.006393747253946976	0.006231764011513331	-5.468981198061706e-05
2
267400
Ar	-6.707526738569661e-06	0.00034250538686484794	0.0031875598138540696	0.02379031335123245	0.0002904557500182937	-9.239270625950144e-05
Ar	-0.00012404281017322556	-1.4821906621138338e-05	0.0027870820564451556	-0.0009397819210253391	0.009128452810469501	5.754237758079312e-05
2
267600
Ar	0.0002134921642103344	0.00026314296981680397	0.003186529923041211	0.018411550132780927	-0.015494386431451634	-7.815611807544984e-05
Ar	-0.00010296785661852064	7.252878641605494e-05	0.0027877715595514448	0.00498709557118167	0.007609184540992946	7.953522187548033e-05
2
267800
Ar	0.00033188796452924847	5.772684164857612e-05	0.00318625195658707	0.004272863114512627	-0.023867729493717973	3.3725975349876304e-05
Ar	-3.24433992675659e-05	0.00012509641906920048	0.002788327103936782	0.008502570378426819	0.0024514661898850346	2.8692020891889214e-05
2
268000
Ar	0.0002917527574836137	-0.00017555784855369417	0.00318684865071034	-0.011970826446015659	-0.020831210820216255	4.6197328252123554e-05
Ar	5.333510098536312e-05	0.00011788368600940474	0.0027883541187830093	0.007933334250846606	-0.0038310762006997217	-2.859638738547354e-05
2
268200
Ar	0.00011177380676965545	-0.00032455867774232745	0.0031868562936328937	-0.022518798122734947	-0.00772259715257701	-5.317442831178879e-05
Ar	0.00011333145412389302	5.417992899509427e-05	0.0027880799403430774	0.003561456420179908	-0.008367442558100522	-1.910656932117599e-05
2
268400
Ar	-0.0001218581165870263	-0.0003174843119257752	0.00318615161250537	-0.022249873503468093	0.00905200634439119	-8.491755372529687e-05
Ar	0.00011905223481388982	-3.587037816777467e-05	0.002788113057310191	-0.0024634009163586722	-0.008860212609809282	1.1911994921550866e-05
2
268600
Ar	-0.0002970672777291615	-0.00015864402839478118	0.003186112178725857	-0.011338787753700496	0.021393195206255704	7.199240131215237e-05
Ar	6.779535955590959e-05	-0.0001082385529107612	0.002787860842419474	-0.00736085707729933	-0.004990510303576715	-5.802695096535733e-05
2
268800
Ar	-0.00033006014960939716	7.597901437736978e-05	0.0031874418507555863	0.005043767499449478	0.023559852217600423	0.00013363094739002305
Ar	-1.6214499858302716e-05	-0.00012791877243851027	0.0027870766494957106	-0.008731981832934398	0.0012087877999239752	-5.89410153563552e-05
2
269000
Ar	-0.0002044400784077483	0.0002741898972547602	0.0031881958244839503	0.019009288528885355	0.014410774257830213	7.60827326383941e-06
Ar	-9.265604166979164e-05	-8.618896641064129e-05	0.002786837789712119	-0.005918721876822658	0.0067994423551367466	2.2740103229502033e-05
2
269200
Ar	1.920934375060174e-05	0.0003406956803477076	0.00318754691138383	0.023836602611562577	-0.0016519042053455557	-0.00012519268965273758
Ar	-0.00012519060841659842	-3.094815088433961e-06	0.0027876231026502047	-0.00030644381392941876	0.009128848330937864	0.00011213985006642257
2
269400
Ar	0.00023337706783343684	0.0002441009630772184	0.0031862719268786464	0.017237375923584024	-0.01686659248875321	-0.00010336308224743596
Ar	-9.80736490780411e-05	8.112065529575788e-05	0.0027888447820964145	0.005491216244898946	0.007023767431099239	0.00010949525975655804
2
269600
Ar	0.00033608266026033206	3.075089272608266e-05	0.0031857003407522676	0.002436218563708448	-0.024011795890562754	2.8257574491855568e-06
Ar	-2.423198393616024e-05	0.00012633311248689584	0.0027893254232187496	0.008672122755921191	0.00165201438943878	-3.979876439912898e-06
2
269800
Ar	0.0002779242084822414	-0.00019717258902737068	0.0031859832534596256	-0.013575856246769005	-0.019676765553056284	4.653816663638929e-05
Ar	6.118766559890733e-05	0.00011118406107311858	0.0027887621325657446	0.007689877646689716	-0.004576524803016796	-4.592126682929348e-05
2
270000
Ar	8.671109898532057e-05	-0.00033037031245078586	0.003186633695807585	-0.023057083552011075	-0.0058552954339504215	6.146587071251031e-05
Ar	0.00011717033454543465	4.2443324173169394e-05	0.0027883512793831044	0.0030383822557390207	-0.008603039151276809	-2.952772223492925e-05
2
270200
Ar	-0.00014606239641988582	-0.0003051904190989615	0.003187154309069886	-0.02153608198274771	0.010692909290009078	5.17300559248734e-05
Ar	0.00011711223006406526	-4.665204564418092e-05	0.002787777292035237	-0.0030732404407607735	-0.008485438864352665	-0.00010205945248536574
2
270400
Ar	-0.00030909413358307325	-0.00013387657475414546	0.003187688125372216	-0.009695438815549979	0.022140174521469748	6.707634841181948e-05
Ar	6.101921375016524e-05	-0.00011304433808706344	0.002786829809433356	-0.00766834691152824	-0.004248029755642096	-7.025218830940392e-05
2
270600
Ar	-0.00032394710423977685	0.00010165578812762737	0.003188037269669385	0.006863143627880599	0.022994662210562046	-2.0264076686522005e-05
Ar	-2.4107328747190052e-05	-0.00012489642657413947	0.002786570731695659	-0.008643376290824931	0.0019726422841956862	1.0023691959242235e-05
2
270800
Ar	-0.0001830430063547811	0.00028829616915769003	0.0031872577802502062	0.020140952297605395	0.012771216285383588	-0.00010699456241170044
Ar	-9.766433886208144e-05	-7.68389788554004e-05	0.0027873532284369254	-0.005462293871075833	0.007207908861973997	0.00011762941033189285
2
271000
Ar	4.577690547202643e-05	0.00033659332966752407	0.003186134236270249	0.023714637548123578	-0.003507310824166344	-7.862573154948428e-05
Ar	-0.00012450085741990034	7.778117053232933e-06	0.0027886732074386433	0.0003035409021878428	0.008996538712317838	0.00012190791945265462
2
271200
Ar	0.00025315759481006053	0.00022396893968730627	0.0031861245159918103	0.016009588020459924	-0.018093888226101206	6.499716915986255e-05
Ar	-9.210290025514843e-05	8.803483579487392e-05	0.002789362085694771	0.005886474509072292	0.006414735580709996	1.3310019473742553e-05
2
271400
Ar	0.0003396262269963506	4.148899128544206e-06	0.003186888051387827	0.0005501111172766355	-0.024033555646690546	6.307611658787037e-05
Ar	-1.6202317275941896e-05	0.00012583583212741033	0.0027888682321431735	0.008691162557245913	0.0008292069291787652	-8.252529588599812e-05
2
271600
Ar	0.00026338383397906545	-0.00021720876086951145	0.003187355661628607	-0.015163566628569134	-0.018368959398349136	2.160153255818861e-05
Ar	6.752578831054435e-05	0.00010328267654074703	0.0027877955485866857	0.007345967979467949	-0.005157667402315775	-0.00012873919171871935
2
271800
Ar	6.0886054387649196e-05	-0.00033367372235749586	0.0031874990114369984	-0.023620146717074325	-0.003954922702940764	1.1442381953963266e-05
Ar	0.00011871831575644058	3.100539911651113e-05	0.002786736542798805	0.00245536361248919	-0.008686753517405573	-9.391339510923528e-05
2
272000
Ar	-0.00017060395369529826	-0.0002902849434706695	0.00318770602162357	-0.020742926720168704	0.012273468025985553	4.994948192668374e-05
Ar	0.00011269468944502747	-5.604481884393886e-05	0.002785953644638634	-0.0036152421891686272	-0.008021936391555197	-5.76102408466737e-05
2
272200
Ar	-0.00032024340767266353	-0.00010808368186868131	0.003187888544993107	-0.007910092619882307	0.022645936987590567	-3.6864916555761157e-05
Ar	5.2443107860525415e-05	-0.00011652197171228284	0.0027856679686656684	-0.007957675977529857	-0.003582224532276714	1.8581422036673655e-05
2
272400
Ar	-0.00031576988875513636	0.0001259902378992199	0.0031872412038489086	0.008743282243840918	0.02218720058979663	-9.63568639488581e-05
Ar	-3.357635596937068e-05	-0.00012155593568789976	0.002786395845908631	-0.008522894618822089	0.00263643380445403	0.00013141382000451891
2
272600
Ar	-0.00015978525617647393	0.0002994554961680356	0.003186253284393402	0.021136936963274254	0.011057059718590468	-0.00010173660580609916
Ar	-0.0001039465662873261	-6.822295772075361e-05	0.0027880418975377353	-0.004966955357750225	0.007595932117980615	0.00016453785866012472
2
272800
Ar	7.272792658218282e-05	0.0003295741912811579	0.0031858891603919687	0.023395825652979898	-0.0052948467000902616	3.195974913495694e-05
Ar	-0.00012463317312911206	1.7958413701081645e-05	0.0027893618158205055	0.0009867401730407537	0.008913566052682481	7.630715457287484e-05
2
273000
Ar	0.0002704761666685256	0.00020194789332471315	0.003186895314803896	0.014487178099200203	-0.019138947392071098	0.00016209208494916285
Ar	-8.563630623497842e-05	9.536948100667915e-05	0.0027894767505520415	0.006466586084487679	0.005917628196914307	-3.4562086251792335e-05
2
273200
Ar	0.0003388927765543625	-2.2593257615292873e-05	0.00318848184453868	-0.0013941908913164484	-0.02386962123297319	0.00012080610729835451
Ar	-5.662921394580672e-06	0.00012689872375903251	0.0027888421376703323	0.00884969205733741	0.0001187077397099242	-9.000004147680407e-05
2
273400
Ar	0.0002446667695874255	-0.0002363372276227604	0.0031890374124316965	-0.016654311338784897	-0.01708831904876017	-2.9326975024007144e-05
Ar	7.699492341428879e-05	9.758032833161837e-05	0.0027879066212532196	0.006986808503520312	-0.005761770619694416	-9.982200437838547e-05
2
273600
Ar	3.2897733119067434e-05	-0.0003366692225355437	0.0031879501906681225	-0.023913120002135527	-0.002147783272774012	-0.00015868599072984028
Ar	0.00012281907460390693	2.106803218012758e-05	0.002787011027255042	0.0018126456487075671	-0.008887882160721906	-0.00010078197432181233
2
273800
Ar	-0.00019475084422855232	-0.00027570355831714737	0.0031865922588849268	-0.01969919461404804	0.013828152992599927	-0.00010530332280140617
Ar	0.00011000651077013946	-6.57913348959418e-05	0.0027862884569649945	-0.004259032092310746	-0.007745920305018644	-4.495006195684462e-05
2
274000
Ar	-0.000329155427689184	-8.2563231841555e-05	0.0031859017519760774	-0.006041254746090809	0.023143693016141945	-6.149598953609387e-05
Ar	4.4454120027900825e-05	-0.00012106302175106089	0.002786071880836501	-0.008308852728578434	-0.002818137274574098	2.7545860616017007e-05
2
274200
Ar	-0.00030582080734954003	0.0001497553588495699	0.003185336631184456	0.010518405902695028	0.02136338822536346	-2.8665862623199736e-05
Ar	-4.2503123745476535e-05	-0.00011798547936509599	0.0027869521110851026	-0.00834668407478637	0.0034085712641544006	0.00011938442283267298
2
274400
Ar	-0.0001360640850555209	0.00031035379618183794	0.0031856415064457984	0.022018431536847946	0.009404846104882824	0.00010657878218866679
Ar	-0.00010888918310704715	-5.8786634940132104e-05	0.002788285449684359	-0.004383730378108611	0.00796483452657217	0.00010494394531783073
2
274600
Ar	9.887939164708659e-05	0.00032262702123047904	0.0031873255310033047	0.023001855355557963	-0.007065519935197057	0.0002041132017051212
Ar	-0.0001228632921133242	2.831625827722423e-05	0.002789067245532459	0.0016962560489900936	0.008713004298608796	1.9122221057253117e-05
2
274800
Ar	0.0002863598616813786	0.0001804886165226476	0.003189461929098136	0.01294024735398904	-0.020175747338712028	0.00017749238469922935
Ar	-7.800397731480176e-05	0.00010153864491159279	0.0027889078040770707	0.00691388732691499	0.005332400198984633	-5.984912587604318e-05
2
275000
Ar	0.00033645498986008585	-4.827127847937027e-05	0.0031899639312579367	-0.003321636560827474	-0.023634649520027248	-5.09852710176115e-05
Ar	4.332649884948471e-06	0.0001263007214109393	0.00278793015740915	0.008851550685394893	-0.000600019922780243	-0.00011246470240128662
2
275200
Ar	0.00022540296007208193	-0.000253511410919035	0.0031884009236315966	-0.017961740035134913	-0.01570445176627954	-0.00023314558294457838
Ar	8.476788680252557e-05	9.049473679047349e-05	0.0027871269259396626	0.006565623097176827	-0.00624863490598415	-4.160976208321456e-05
2
275400
Ar	6.579752153477339e-06	-0.0003370424819331638	0.0031860359499136267	-0.02399508274277404	-0.00030185551135010133	-0.00019135415669493152
Ar	0.00012466106070513024	1.131389063581491e-05	0.002787005901989628	0.0010628565581638483	-0.008898756168550216	8.018378888014965e-06
2
275600
Ar	-0.0002158265884795203	-0.00025912214944808154	0.00318497045810853	-0.01861996537970927	0.01522372278431181	-1.1647312172202737e-05
Ar	0.0001046666830957888	-7.309850788027571e-05	0.002787076030607137	-0.0048923912337261125	-0.007274127767814814	2.9264687748328983e-05
2
275800
Ar	-0.00033537319640476016	-5.7030969630446845e-05	0.0031857057386886316	-0.004275439473116569	0.02350813099662297	9.92351235202618e-05
Ar	3.436014000659477e-05	-0.00012211465941550616	0.0027874556691814927	-0.008568725253762323	-0.002157320898966871	6.585482824771737e-05
2
276000
Ar	-0.0002940371803594747	0.00017251559482243681	0.003187021345243625	0.012170004856892288	0.020471334048107578	0.00014462857710125827
Ar	-5.255075397666113e-05	-0.00011271048670869673	0.002788272440560143	-0.008091573004273146	0.0039577722288929255	8.120163653741032e-05
2
276200
Ar	-0.00011169540830797315	0.0003191117260703636	0.0031882453978696536	0.022747026638873086	0.007655939820580548	0.00011366257102343712
Ar	-0.00011434909065957807	-4.944444439373132e-05	0.002789229598603768	-0.0037703673837204553	0.008171081315704657	7.133686115509258e-05
2
276400
Ar	0.0001242312232221051	0.0003129877636672696	0.003188918353073328	0.02245015301145056	-0.008847935301835056	-2.4580438394291098e-06
Ar	-0.00012172344235242896	3.739367445555825e-05	0.00278937407789505	0.002382675493066882	0.00844613778809372	-3.786260740726729e-05
2
276600
Ar	0.0003007753734351423	0.00015661159184261557	0.003188555256931324	0.011365611736330113	-0.02110543848346923	-0.00010605842194695897
Ar	-7.07637170596073e-05	0.00010589393795668895	0.002788806165040126	0.007381143472888642	0.004693857601350446	-6.859455490305362e-05
2
276800
Ar	0.0003331166953809392	-7.495222904912455e-05	0.0031868627108427865	-0.005190639218979551	-0.023245953809551873	-0.0002049922261915131
Ar	1.4083139929962618e-05	0.00012398675345325693	0.0027879606217102674	0.008858856293362253	-0.0012359764175855356	-8.160115470730703e-05
2
277000
Ar	0.0002055705405245824	-0.0002705375529072869	0.003184773066085451	-0.01924557955225486	-0.014224040863999149	-0.00017700275500658045
Ar	9.238372153101769e-05	8.283508714779673e-05	0.002787103996293491	0.006121737589813997	-0.0066379002852233766	-7.938519812144327e-05
2
277200
Ar	-2.0433852718894704e-05	-0.00033651335999367596	0.0031841549143369753	-0.024063900222894823	0.0015578004271803445	6.627891401050941e-05
Ar	0.00012627542659700205	2.275181281093318e-06	0.0027864515503182425	0.0003986686189193771	-0.008803170424127009	-6.426247040376268e-05
2
277400
Ar	-0.00023673160385975978	-0.00024153878539711702	0.0031855185044047866	-0.01736489101804757	0.01663173028184304	0.00019426228802922325
Ar	9.961846076252432e-05	-7.895964070268055e-05	0.00278626117859991	-0.005509075777231464	-0.006762075256728081	3.97215623395868e-05
2
277600
Ar	-0.0003395204890570544	-3.088753938081241e-05	0.0031877232099756154	-0.002318041055012205	0.023742972380676707	0.0002223829596992696
Ar	2.5083373355359894e-05	-0.00012252144199523254	0.002787273835864098	-0.008760280735274427	-0.001553977096825596	0.00016724653369577788
2
277800
Ar	-0.0002793582857692811	0.00019468075914655532	0.00318919121055084	0.013830350476956504	0.019463877486789165	1.537473867137163e-05
Ar	-6.162482523774312e-05	-0.0001073590616708162	0.0027893236287783907	-0.007840476672509086	0.004479493520750881	0.00019783763937045008
2
278000
Ar	-8.53465595386915e-05	0.0003269545277033811	0.0031889260107317886	0.02334547402516363	0.0059070553007127	-6.141284658845493e-05
Ar	-0.00011888215462737704	-4.0696183318304775e-05	0.002790693619324485	-0.0031069394906113198	0.008315391927550077	3.847902324836883e-05
2
278200
Ar	0.00014954619724346887	0.000303167428255928	0.0031880060890984146	0.021677180673522343	-0.010454313081771796	-0.00011901791432693578
Ar	-0.0001190634827604673	4.520104460900133e-05	0.0027900962141995866	0.0030953909874770493	0.008147215812746555	-0.00014398292601260136
2
278400
Ar	0.00031272088223443953	0.000134635007175143	0.003186579499315323	0.009600827950585865	-0.021845689159817997	-0.00017889160630756297
Ar	-6.212011695982585e-05	0.0001092945499388537	0.002788448591634242	0.007826065850127299	0.004126463871469705	-0.0001582340600338041
2
278600
Ar	0.00032591079917854507	-9.810846107234375e-05	0.0031848915967656907	-0.007033479014012529	-0.022748700221469683	-0.00012191191710018366
Ar	2.470675486550009e-05	0.00012109824515615433	0.002786763533799517	0.008811556113321463	-0.0019058334730992583	-0.00013740460815778844
2
278800
Ar	0.0001832556934008487	-0.0002838294935248854	0.0031845366807655563	-0.020286787548261652	-0.012814567578821627	6.40746819985322e-05
Ar	9.961340348212988e-05	7.441500067045944e-05	0.0027856383072641217	0.005570313651339612	-0.007034261041457198	-7.842469794192808e-05
2
279000
Ar	-4.706493799628393e-05	-0.00033368072539078064	0.0031860433370323824	-0.023846792478250067	0.003275240717117711	0.00023328766047479884
Ar	0.0001267436788771816	-7.796070324701574e-06	0.0027849747274876083	-0.00036653602772450335	-0.008718156499146151	-1.7620939389681508e-05
2
279200
Ar	-0.0002548388708584457	-0.00022346941719452576	0.003188310537174636	-0.01592768380178404	0.017864132128031358	0.00019438988578416794
Ar	9.290913829490451e-05	-8.61626326600799e-05	0.0027854246150134454	-0.006123252246297019	-0.006299493563231157	0.00010523148718288962
2
279400
Ar	-0.0003397287718317214	-5.817930534696393e-06	0.0031895220434607157	-0.0003465720833630136	0.023844592749752813	2.6201583966910695e-05
Ar	1.4099962835581087e-05	-0.00012352712821381317	0.0027869531906941293	-0.0089486856809499	-0.0008482887073797549	0.00020937377356515725
2
279600
Ar	-0.00026136687079580007	0.0002145100477144341	0.003189146805789128	0.01534809342623926	0.01835137709613124	-8.711565717505614e-05
Ar	-7.156652265519809e-05	-0.00010178029345961382	0.002788936375458044	-0.007469101467316846	0.005008912681830965	0.00014338691851254826
2
279800
Ar	-5.7833596436201e-05	0.0003318543146900824	0.0031878382881813674	0.023671676463553525	0.004114771354042584	-0.00015395780633897576
Ar	-0.000123036656115288	-3.1007543336393594e-05	0.0027896504957277296	-0.0023929702433422395	0.008515481488792173	8.182228693668607e-06
2
280000
Ar	0.00017359234298541196	0.00029019166369034213	0.003186635024552101	0.020686986011786868	-0.012108296241337989	-9.557727267930977e-05
Ar	-0.00011532241600641678	5.473432514471716e-05	0.002789218200425256	0.0038843196278251974	0.007927972713652195	-6.678062824355033e-05
2
280200
Ar	0.0003222698001850755	0.00010940037564808842	0.0031860746187038574	0.007764740897978631	-0.022508408575118124	-2.3158211790663346e-05
Ar	-5.186983996436437e-05	0.00011428709624383277	0.0027879875871407167	0.008275952436321218	0.0035047356723828488	-0.0001358751746534581
2
280400
Ar	0.00031633718096152883	-0.00012346519291896044	0.003186085026870886	-0.00887721437696337	-0.022121226905066852	2.5451983409966365e-05
Ar	3.656950652629537e-05	0.00011902931225683061	0.0027866111121538444	0.00866520852924357	-0.00261512254147524	-0.00012255599501608444
2
280600
Ar	0.00015892145056992395	-0.00029703652974827837	0.0031867226898911892	-0.02128472118329382	-0.011121517066333887	0.00010869915465801366
Ar	0.00010756958716769702	6.665183594392927e-05	0.0027858696450676545	0.004941745873412256	-0.0074156702171019285	-6.0501837619904564e-05
2
280800
Ar	-7.459132908567867e-05	-0.00032817058869956563	0.003188013540724227	-0.023472159453869736	0.005172195747361296	0.00011823623834302248
Ar	0.00012714519333768189	-1.7461801602685496e-05	0.002785866544595863	-0.0011800937436869604	-0.008703438795065825	3.6384973276503874e-05
2
281000
Ar	-0.00027231874847054733	-0.00020180738374623984	0.0031885727558863125	-0.014388058500909455	0.019026409800077495	2.119136979180787e-06
Ar	8.57147039162959e-05	-9.333269254663306e-05	0.0027865356075351716	-0.006749873844532665	-0.005837854242761421	9.486433996046046e-05
2
281200
Ar	-0.00033908244763756264	2.1429600320674977e-05	0.0031879862992090532	0.0016016705245219	0.023713349707068725	-0.00012521073887520278
Ar	2.971359129431439e-06	-0.00012465887636332472	0.002788193394256508	-0.0090911302771019	-0.00017223751718674287	0.00022186332709249663
2
281400
Ar	-0.00024322034616058058	0.00023432818154401773	0.0031870162868149546	0.016765376282587043	0.017077093035334254	-6.227583963611142e-05
Ar	-8.121002013558254e-05	-9.638734254223561e-05	0.002789752807128595	-0.0070312814294128485	0.005588883127135666	8.927731695764482e-05
2
281600
Ar	-3.0814100091890424e-05	0.0003356484588544657	0.003186938889994746	0.023925378922821802	0.0023190796941567698	6.194609805716852e-06
Ar	-0.00012619362900351142	-2.2107339146239524e-05	0.00278977751789849	-0.0016152183288512425	0.00862520636832668	-5.6290256952628186e-05
2
281800
Ar	0.0001964129077328323	0.0002764768653781721	0.003186910089653616	0.019621738020259356	-0.013643547652793263	-8.794761675105707e-06
Ar	-0.00011078144438871976	6.227334699049906e-05	0.0027888478812338577	0.0045557165198185715	0.00757335121957014	-0.00012918329816431838
2
282000
Ar	0.00032953889674587795	8.489443894951141e-05	0.003186938015872993	0.005878690402139102	-0.02305286216169085	-7.64950262325083e-06
Ar	-4.264596164070782e-05	0.00011708340276794225	0.0027871717326062254	0.008541645119412003	0.002927384322593401	-0.00016388885984712078
2
282200
Ar	0.00030446965725908036	-0.00014726981428109527	0.003186910392453515	-0.010649967529606947	-0.021427445497317725	1.612346014756123e-05
Ar	4.61862386245756e-05	0.00011580005782253553	0.002785673621804991	0.008495583324954393	-0.0031667523526571276	-0.00014058477554605567
2
282400
Ar	0.00013389982626335275	-0.00030896622351965416	0.003187379144322521	-0.022081188513862836	-0.009551915740840286	8.190776278368223e-05
Ar	0.00011307677284264527	5.881133921077481e-05	0.0027848582979237047	0.0043408560491096934	-0.007738810063398884	-1.9880409541288258e-05
2
282600
Ar	-0.00010127311827228605	-0.0003224583554721809	0.0031879518501849165	-0.022948063288824004	0.006943875572590087	4.7170490449449835e-05
Ar	0.0001260860404505359	-2.664890685803916e-05	0.0027853228442898817	-0.001846308169987353	-0.008630651885642314	0.00012775966682060128
2
282800
Ar	-0.00028763868815746493	-0.00018147451365477815	0.0031880806608517473	-0.012757227750551416	0.020068072441981465	-3.1552327852685415e-05
Ar	7.8674387713563e-05	-9.932660012160896e-05	0.0027874063426230303	-0.007229034884827508	-0.005291784012403382	0.0002766254590230031
2
283000
Ar	-0.0003358909855318399	4.6384673618891246e-05	0.003187214001401126	0.0035056306747557335	0.023584922116116916	-8.650701004228886e-05
Ar	-6.4874454027044935e-06	-0.00012423424298164487	0.0027901715719833094	-0.009072754483957477	0.0005185365377354411	0.00022331435113079424
2
283200
Ar	-0.0002233258251174476	0.00025218313088266306	0.0031864671483878724	0.018051425653202547	0.01585662760016666	-2.3129463716356467e-05
Ar	-8.798965191474785e-05	-8.96669987883466e-05	0.002791477759283332	-0.006554246929251215	0.0060729054476416616	1.3717769075261216e-05
2
283400
Ar	-3.907427804393048e-06	0.0003378183025636005	0.003186502598316178	0.02399783534555464	0.0005393705043079804	3.922198016911108e-05
Ar	-0.0001268621015103493	-1.2512410413927718e-05	0.002790342356671461	-0.0009098339745979226	0.008705904246477856	-0.00021746322538996344
2
283600
Ar	0.00021740903038896606	0.0002618254962772259	0.0031870362186062315	0.018391678107585283	-0.015111277682477367	6.204749292777928e-05
Ar	-0.00010458509828644275	7.043073421644043e-05	0.002787830432804676	0.005160096821782028	0.007195939671100269	-0.00028183986377404386
2
283800
Ar	0.00033420100355490703	6.023299255823399e-05	0.0031875755418811305	0.0039546651901898626	-0.02350254651487211	7.338692528281446e-05
Ar	-3.212020021452707e-05	0.00011960782280989867	0.0027855650330802467	0.008732300963514225	0.002204064665260069	-0.0001564718421107657
2
284000
Ar	0.00029041328899542644	-0.00017008867522578085	0.0031880393452656665	-0.012346508243172863	-0.020613408211424405	3.7024691538255475e-05
Ar	5.596788824555309e-05	0.00011143912535382835	0.0027845234847168987	0.008165182967368017	-0.003766771361602587	-4.395929001466058e-05
2
284200
Ar	0.0001073495487998764	-0.00031885398176430306	0.003188204254980911	-0.022765502427604566	-0.007871379757036069	-1.6649389790569897e-05
Ar	0.000117818607145994	4.9677185489383055e-05	0.002784797119959375	0.0036844008094569177	-0.008067555363766049	8.230163779649191e-05
2
284400
Ar	-0.0001276062971020676	-0.00031445653303775376	0.003187651062510045	-0.022259157969957567	0.008715012558595274	-8.10993212088256e-05
Ar	0.0001232215157376465	-3.661527354610531e-05	0.0027863739222983483	-0.0026216676492703153	-0.008454844027611081	0.000224210248357594
2
284600
Ar	-0.00030153643738586427	-0.0001588972060857931	0.0031867745672548207	-0.01107384603436078	0.021084475235610235	-0.00010113046617998496
Ar	6.959318484026123e-05	-0.00010581973103250048	0.00278864674194772	-0.00763875679168515	-0.004795823883797714	0.00021080560775492874
2
284800
Ar	-0.00033113056138185654	7.307293875390807e-05	0.0031859079804349134	0.005377409836189251	0.023340989273468487	-7.73188651765084e-05
Ar	-1.7108791790053383e-05	-0.00012454763519819775	0.0027901851236945894	-0.00897053159006256	0.0011873264199433746	7.360085832835811e-05
2
285000
Ar	-0.00020231333400433162	0.0002703827357541871	0.003185666536461614	0.019294791053097535	0.014457746578223374	2.7010626999648413e-05
Ar	-9.532748720760713e-05	-8.384730069124516e-05	0.0027901454090700903	-0.006030368044536001	0.006614695341875385	-7.803175138305483e-05
2
285200
Ar	2.3542598403270108e-05	0.0003388332167114855	0.003186709128798256	0.0239660958312521	-0.001370756223347124	0.00014846294060453667
Ar	-0.00012780062480966138	-3.1807495571549507e-06	0.002788721682619324	-0.00019589896206166174	0.008840873934085582	-0.00019745672286197797
2
285400
Ar	0.0002382465088917986	0.000244998963280172	0.0031878875352834984	0.017141321024282723	-0.01660211240134697	6.360231001342394e-05
Ar	-9.880198372396655e-05	7.881078961171413e-05	0.002786779734410243	0.005739382521631374	0.006853305785519371	-0.0001929610856312442
2
285600
Ar	0.00033836487333896995	3.343416297694976e-05	0.003187951707717687	0.0020522170333339205	-0.0239088321019627	-4.315979162994445e-05
Ar	-2.2244438914589223e-05	0.00012315620443236678	0.0027851975130295213	0.008954857164949676	0.0016170499532603422	-0.00011674604721137719
2
285800
Ar	0.00027605091746735286	-0.00019405474992922843	0.003187497622270924	-0.013998803896437132	-0.019668096862084896	-5.089843234627137e-05
Ar	6.54189539541573e-05	0.00010835365845370493	0.0027846334641989973	0.007857661894595452	-0.004458495924029172	-3.3222640735432102e-06
2
286000
Ar	8.103129119262895e-05	-0.0003284238067219559	0.0031869630139330406	-0.02337919975952688	-0.0060386701241071546	-3.910929137152502e-05
Ar	0.00012190895924273574	4.120438187176823e-05	0.002785184451496063	0.002967808843202414	-0.008423154783931942	0.00012965544750241192
2
286200
Ar	-0.00015329927226478913	-0.0003051440938475187	0.0031864430697542767	-0.021529706300644675	0.010496631653878395	-6.055678913532869e-05
Ar	0.00011999724524432693	-4.595005278518038e-05	0.0027871609845558027	-0.003333456167128021	-0.008254665324163364	0.00023671891163332712
2
286400
Ar	-0.00031421021836339674	-0.00013544693758720298	0.0031858575913627663	-0.009321536039131438	0.022025702769356045	-3.092187240041713e-05
Ar	6.061220261282933e-05	-0.00011084664449329555	0.0027895943259506843	-0.008052045435467706	-0.004186653760478285	0.00023997426474794503
2
286600
Ar	-0.0003243873441180199	9.937162396342742e-05	0.0031861412006874952	0.007366198860784688	0.022984361737205136	7.365386500283235e-05
Ar	-2.7694646421307446e-05	-0.00012244477150731762	0.0027913632166358658	-0.00885629375442343	0.0019618670601232583	8.03215381724754e-05
2
286800
Ar	-0.00017918788568059118	0.00028680176581233054	0.0031872655983288547	0.02046367604126191	0.01293791143483578	0.00012170656435394769
Ar	-0.00010211914733441376	-7.568590200096569e-05	0.002790989522924772	-0.005399967449801403	0.007013267025852893	-0.00015738469640783466
2
287000
Ar	5.2025508937021504e-05	0.0003370971267955668	0.003188394824609619	0.02379815485965356	-0.003320939057032031	8.501432394535776e-05
Ar	-0.000127054702138969	6.743711240290617e-06	0.0027886124082377793	0.00060216333835082	0.008796344073265051	-0.0002817102534896442
2
287200
Ar	0.00025802738156164553	0.00022556037649296612	0.003188550641712624	0.015643870486858214	-0.018046134280507116	-6.336576213170817e-05
Ar	-9.112942164125155e-05	8.619002027440348e-05	0.002786229956943091	0.006304801348259076	0.0064289945935202325	-0.00019887868412334477
2
287400
Ar	0.0003396775248400837	5.801285029908953e-06	0.0031874818514167477	-6.560809487868356e-06	-0.024072832209375537	-0.00013499773272058544
Ar	-1.1354794577141798e-05	0.00012469302591087966	0.002784884396630293	0.008994053407318257	0.0009192557966489361	-6.884239474236589e-05
2
287600
Ar	0.0002581818833799139	-0.00021664449867103233	0.0031864814426762218	-0.015606087011459152	-0.01857445888720807	-8.441442056741715e-05
Ar	7.418170272651442e-05	0.0001029445444726138	0.0027846997530800214	0.007370767525733237	-0.005067321548459716	5.6841971143438114e-05
2
287800
Ar	5.28417953924105e-05	-0.0003356895408204083	0.0031857009816677316	-0.02372099852700377	-0.004223263861602522	-4.828676680357002e-05
Ar	0.0001240796745124251	3.168807345023549e-05	0.002785746258311389	0.0022149116741369684	-0.008582951448090974	0.00016829079879608592
2
288000
Ar	-0.00017778091149522817	-0.00029427291152047926	0.0031854037314140377	-0.0204653044065641	0.0121819330938941	-2.164588508936082e-06
Ar	0.00011457559428935081	-5.489944329827176e-05	0.0027881121800199795	-0.0040288145653956855	-0.008013735732620925	0.00030806021116811086
2
288200
Ar	-0.0003233020920279875	-0.00011175721845296555	0.0031855913779207995	-0.007398457255578157	0.022795104723435027	5.793765705421815e-05
Ar	5.047760186435435e-05	-0.00011519588098330525	0.002791128499024045	-0.008254253156890544	-0.0035418705989426597	0.0002509141527010449
2
288400
Ar	-0.000314133516451746	0.00012466837886127572	0.0031865268226821124	0.009152293541247308	0.022492706858410566	0.00013236230872299337
Ar	-3.710296059550743e-05	-0.00012035336507031272	0.0027922297006460527	-0.008521841545816056	0.0025451180555647736	-7.119702809520021e-05
2
288600
Ar	-0.00015491978131038466	0.0003017187911119193	0.0031880114886468944	0.021330927636385385	0.011424049130957535	0.00013348435756093546
Ar	-0.00010634763772020083	-6.831262305592518e-05	0.002790455986053685	-0.004762072342304171	0.007440351138498253	-0.0002623295953580642
2
288800
Ar	7.80589822821972e-05	0.0003343290012716008	0.0031887040502505	0.02331720542720299	-0.005218574590825747	-8.534834863215066e-07
Ar	-0.00012472108629736623	1.6427926076840942e-05	0.0027875332647873258	0.0012634134939445271	0.008798369177136346	-0.00027443794524640354
2
289000
Ar	0.00027334830264081283	0.00020609877423252842	0.0031874944528059866	0.014100047083659488	-0.01933246696519326	-0.00021341136041244817
Ar	-8.279607091530456e-05	9.357836371658845e-05	0.002785432428571331	0.006751865151686921	0.005972467929187477	-0.00015161808767347139
2
289200
Ar	0.0003372926162025755	-2.0819611485014514e-05	0.0031853057693696286	-0.0018356107828578518	-0.024141526793896362	-0.0001881726743607835
Ar	-8.367197926024492e-07	0.00012601432146684306	0.002784579355979229	0.008928677714533689	0.00023620622819640468	-2.422173072053731e-05
2
289400
Ar	0.00023981361177464124	-0.00023752268248887032	0.0031844125768417013	-0.016877214981656456	-0.01739898809062342	7.2244961472915095e-06
Ar	8.144119159646849e-05	9.816403100424896e-05	0.00278505701422042	0.006849770758786411	-0.0055890705633353304	0.00013768242776063556
2
289600
Ar	2.709653279987706e-05	-0.00034059161323636783	0.0031851592675692653	-0.023887428832765855	-0.002343180647218559	0.00013649585765708528
Ar	0.00012509041477723544	2.3028617772691117e-05	0.0027867946310032076	0.0015119864133093218	-0.008808459161657444	0.00022555424444634044
2
289800
Ar	-0.00019916292228918962	-0.0002801003623253679	0.0031869107498010973	-0.019445039931148794	0.013925843824927883	0.00016919842355178784
Ar	0.0001088446744938174	-6.345601049516486e-05	0.002789120974446512	-0.004628097996299475	-0.0077615136527720814	0.00021595747510275116
2
290000
Ar	-0.0003302203892756513	-8.502375421450671e-05	0.0031882104537622126	-0.005644552181186283	0.023436011338757296	8.356450657859988e-05
Ar	4.0434664838461966e-05	-0.0001192748512796207	0.0027906039806937736	-0.008462887551967111	-0.002952760637403074	6.553431574292546e-05
2
290200
Ar	-0.0003029993894028651	0.00015085609006780642	0.003188787340447653	0.010845432349442227	0.021747368339042714	2.4013033686015462e-05
Ar	-4.663294617346275e-05	-0.00011767644907538181	0.0027904178460679656	-0.008247146173926453	0.00326382084368637	-0.00010053438831552784
2
290400
Ar	-0.00013093203691267173	0.0003143473314129907	0.003188489622922214	0.02212053511994938	0.009576877204253159	-7.816761518607698e-05
Ar	-0.00011112985236423219	-5.966558732136101e-05	0.0027888533004878273	-0.004108973270052129	0.007878603455092913	-0.0001849480299721657
2
290600
Ar	0.00010385180390498856	0.00032668381027814236	0.003187435848098957	0.022849039963549544	-0.007193051219820707	-0.00015877630823351528
Ar	-0.0001224240048790703	2.7075751158827475e-05	0.0027872489648942795	0.001965123285492941	0.008742295229483867	-0.00013410303522228792
2
290800
Ar	0.0002887419955383506	0.00018230381966834763	0.003185762973213523	0.012587005899969759	-0.020478076625422528	-0.00012348715385641465
Ar	-7.490391028081723e-05	0.00010079484410735449	0.0027861225094449136	0.007111918737869423	0.005400567350631956	-9.127098336105808e-05
2
291000
Ar	0.00033525229068134913	-4.977740765127729e-05	0.0031851411287911165	-0.0036753441405058813	-0.023961870760426163	7.402501034404119e-07
Ar	8.435481257366486e-06	0.00012625065907116787	0.002785863601634041	0.008835049931726825	-0.0005176825971977004	2.9172927402975413e-05
2
291200
Ar	0.00022103111829795114	-0.00025801822369969326	0.0031856138516496908	-0.018208228102907224	-0.015940235269780386	7.517032641020336e-05
Ar	8.783350706353776e-05	9.144957945622902e-05	0.0027866233832373613	0.006382491023961927	-0.0061477710010806	0.0001067455321860551
2
291400
Ar	7.696862286011457e-07	-0.0003423139562122285	0.003186539589175731	-0.024016296540608825	-0.00019298400341566645	9.391969516987756e-05
Ar	0.0001253768663153198	1.2944442712188024e-05	0.002788211039640895	0.0008058818901904408	-0.008904192193259077	0.00018387599684751578
2
291600
Ar	-0.00021972443005105298	-0.00026222384239524434	0.003187434694063633	-0.018270641079678043	0.01555757007618813	4.527093302474496e-05
Ar	0.00010268157078749736	-7.215882947887392e-05	0.0027897839883219877	-0.005125227214148917	-0.007374755613559307	0.00010263030421758065
2
291800
Ar	-0.00033495062930781743	-5.650433476938722e-05	0.003187713347906562	-0.0037894009851794836	0.023864958094905853	5.461694268266997e-06
Ar	3.0798818312018874e-05	-0.00012243147702914272	0.0027901177710091822	-0.008640056815804565	-0.002255366013093719	-4.1155107719840556e-05
2
292000
Ar	-0.00028968680820203935	0.0001763789278960449	0.0031874375677167603	0.01246104612805007	0.020768961641514705	-4.418063875551495e-05
Ar	-5.572585369092108e-05	-0.00011384367193680337	0.0027893090699179237	-0.007957361805837858	0.0039047894853149233	-9.661586775267142e-05
2
292200
Ar	-0.00010584215824434372	0.00032493544142207965	0.0031869727277292533	0.022781662086986714	0.0076807777103523045	-5.748454294248151e-05
Ar	-0.00011538743896275355	-5.0523418314608895e-05	0.0027881473174073655	-0.0034803697234375847	0.008223285960022716	-0.00011089250333912976
2
292400
Ar	0.0001285915541024722	0.000317649868596271	0.0031863246981089963	0.0221502586154617	-0.009056045442474722	-5.9788750892258844e-05
Ar	-0.00011970192894962284	3.7121757546054884e-05	0.002787256183761598	0.002659769154695575	0.008556268708414446	-4.03739001875593e-05
2
292600
Ar	0.00030139193490318495	0.00015827842825333726	0.0031859902890820015	0.010956596837336676	-0.021480911721320054	2.9857937444176707e-06
Ar	-6.690326208274625e-05	0.00010677116083593585	0.0027870920064150717	0.007479236880827683	0.004765699587932751	-5.173413656158474e-07
2
292800
Ar	0.00033011621229348025	-7.683158380984077e-05	0.0031862873869307807	-0.005462198939488102	-0.023570098510974503	6.292614794163561e-05
Ar	1.7968242362494946e-05	0.00012493079979922905	0.002787113904236868	0.00879188295295664	-0.0012871359926456875	7.897675506894403e-06
2
293000
Ar	0.00020094369688188873	-0.00027495298190921785	0.0031871133183616184	-0.019270040870227687	-0.014368362045646173	9.101682735004755e-05
Ar	9.452852887834215e-05	8.301956949904581e-05	0.0027872460148183893	0.00587942813030699	-0.006726237999134899	1.5317388023900743e-05
2
293200
Ar	-2.415534869204839e-05	-0.0003408872997481598	0.003187778976875148	-0.023860546215730964	0.0017258977600689849	3.3943376221150875e-05
Ar	0.00012606964036724532	1.507753339029603e-06	0.002787743679577302	0.00017360366889312788	-0.008925288239287931	6.544557721673277e-05
2
293400
Ar	-0.00023748593644873928	-0.00024325274574261784	0.003187751302463774	-0.01703778842582216	0.016968696509906196	-3.3942062683939956e-05
Ar	9.741957068222738e-05	-8.08638564545724e-05	0.0027886685906909296	-0.0056706971499302355	-0.006846622051426126	8.637302860807135e-05
2
293600
Ar	-0.0003372113100669457	-2.9008202121063465e-05	0.003187362898023656	-0.0020828061573646924	0.02407836605414527	-2.2934382213909927e-05
Ar	2.2221527037761245e-05	-0.00012453636635134324	0.002789379463906245	-0.008757036607426893	-0.0015402108082835562	3.146946227544417e-05
2
293800
Ar	-0.0002754612165933501	0.00019889149166747442	0.003186876970393427	0.013896136953115784	0.019601474291297556	-4.771073778879655e-05
Ar	-6.357471096069133e-05	-0.00010881282588064221	0.0027893657988118164	-0.007673373386517442	0.004542755395857557	-2.1789881068245927e-05
2
294000
Ar	-8.192537031883888e-05	0.00033157837869435497	0.003186656543243047	0.023225673302726887	0.005784371455294396	-1.632355121832754e-06
Ar	-0.00011886354143824782	-4.093286154453809e-05	0.00278892630529765	-0.0029223412157347484	0.008461363036493674	-8.565554853877654e-05
2
294200
Ar	0.00015096441200811248	0.00030543936826161046	0.003186580124370277	0.021395207407978893	-0.010825486028377001	5.041326312847933e-06
Ar	-0.00011734623801194934	4.629451471521734e-05	0.0027879310091035816	0.003193135520281935	0.008260440132841938	-0.00011109938281247363
2
294400
Ar	0.00031128965057893173	0.00013275430300203583	0.0031866680238778725	0.009341633269606282	-0.02223667983160865	1.744839775504214e-05
Ar	-6.0042025417600525e-05	0.00011123733482187923	0.002786888543787904	0.007812541779606873	0.004151237184578519	-9.08923026336784e-05
2
294600
Ar	0.0003224387617304103	-0.00010321843857975557	0.003186845496221731	-0.007185773165419854	-0.022987657410341655	2.6422641091604945e-05
Ar	2.6169193627264656e-05	0.0001226541903828774	0.0027862171595401178	0.008706071132858154	-0.0019764536927206118	-1.7029255145906516e-06
2
294800
Ar	0.00017912075395701412	-0.0002895612029489694	0.0031871514794135727	-0.020281365493540298	-0.012714596765851502	1.842211952868135e-05
Ar	9.972878782875326e-05	7.506650672813516e-05	0.0027864807829185135	0.00538303752399415	-0.0071520362286217245	5.2956002310367534e-05
2
295000
Ar	-5.014890558982403e-05	-0.0003368903085147646	0.003187210321248797	-0.02366063997226759	0.0036399361051707097	-1.4300854534334682e-05
Ar	0.0001251602398958716	-8.74555186149279e-06	0.0027872577229782645	-0.000520405757133181	-0.008918998597391085	8.194821566818193e-05
2
295200
Ar	-0.00025517194483480696	-0.00022268512478631545	0.003186849076132522	-0.015646948898797967	0.018234999979273175	-4.907845613303297e-05
Ar	9.02845165210868e-05	-8.87497443975573e-05	0.002787881246591006	-0.006159389808532557	-0.00639092982753803	7.77000132442352e-05
2
295400
Ar	-0.0003379552386077615	-1.891796803117236e-06	0.0031864852193183224	-0.00021146351181158503	0.024078056110525735	-2.4927923141833558e-05
Ar	1.2264284743014106e-05	-0.00012641835017874288	0.0027883276163363333	-0.008791274311615204	-0.0008000243274349751	1.4890159950871021e-05
2
295600
Ar	-0.0002590198466810204	0.00021988311080656472	0.0031863996305628627	0.015329528210076332	0.018397236933391084	-3.5769353615674115e-06
Ar	-7.145136009299121e-05	-0.00010309800264053188	0.002788001864402762	-0.007229106670551301	0.005258054082297426	-4.708230742571062e-05
2
295800
Ar	-5.616802951387048e-05	0.0003359774865831502	0.0031869368118275835	0.023542776801845793	0.0038645737708289784	7.311351950502037e-05
Ar	-0.00012067402964749876	-3.009478489098631e-05	0.002787571658581305	-0.0021916224811083748	0.008736043814973421	-4.290736719128954e-05
2
296000
Ar	0.00017375337613309208	0.0002908980580466898	0.003188054232152145	0.020520451779656668	-0.012501775306371633	0.00013279573707058182
Ar	-0.0001119296625350092	5.730891695507897e-05	0.0027872630630088715	0.0038866534511019543	0.008008616081176393	-1.5662225316506616e-05
2
296200
Ar	0.00032078224531475975	0.00010601401874974204	0.0031890321808932284	0.007641844710552241	-0.022916255439611906	5.161785858742063e-05
Ar	-4.936297098451376e-05	0.00011714581909413116	0.002786887934975004	0.008087278298923454	0.003464457710380374	-3.244286605783648e-05
2
296400
Ar	0.00031386516001470275	-0.00012977213388574679	0.003188802695251847	-0.00895695654896046	-0.02227100715245408	-0.00011166975952343861
Ar	3.716769444909319e-05	0.00012084983662471742	0.0027867380392629826	0.008492356617889966	-0.0027770922423896523	3.2540026164835865e-05
2
296600
Ar	0.000156180319458044	-0.0003031531976697901	0.003187273297907496	-0.021220071640082456	-0.010952746819503402	-0.00016799123416002835
Ar	0.00010648952869930691	6.610409094836886e-05	0.0027873370183209615	0.004777445481493001	-0.007696252380045033	7.530531495658609e-05
2
296800
Ar	-7.637435635347778e-05	-0.0003311732358962524	0.0031858365412452566	-0.023340199348324424	0.005608138392816991	-8.912639487120802e-05
Ar	0.00012477978238223156	-2.0559183301846616e-05	0.0027878976224505027	-0.0012430649574029181	-0.008912540372340415	4.8563432674836215e-05
2
297000
Ar	-0.00027265316649275825	-0.00020035941535671674	0.003185757277480392	-0.014267257408964971	0.019457605803619615	6.851422197645295e-05
Ar	8.349356967760203e-05	-9.731794438390439e-05	0.0027880973203364885	-0.006651632965502522	-0.005798999632508777	8.203019986086688e-06
2
297200
Ar	-0.0003384506174135069	2.6603373898511696e-05	0.0031865636823563085	0.0016637677518627667	0.024025762370845073	8.405350125643442e-05
Ar	2.517520308106915e-06	-0.00012713769022256146	0.0027878867053649304	-0.008857883300693543	2.9659799663105232e-05	-4.089509662437485e-05
2
297400
Ar	-0.00024201419206929846	0.00024080310243497735	0.0031874848558176333	0.01681619255419108	0.017039706064663544	9.149808857837091e-05
Ar	-7.956111381604294e-05	-9.647808904353823e-05	0.0027878202724334698	-0.006876723776441678	0.005850754938815752	1.4442988304653796e-05
2
297600
Ar	-2.93853363240313e-05	0.00033976457520963925	0.003187989150747307	0.023894732316582956	0.0019217801760055058	-5.087400271135522e-06
Ar	-0.00012374032343647384	-1.9691120578409563e-05	0.0027879429528548	-0.0015842453234480212	0.008863283253160457	4.024209836850783e-07
2
297800
Ar	0.00019721125050958517	0.0002760918387793263	0.0031875874711909968	0.019501699542793707	-0.014129909054389071	-5.364438646955088e-05
Ar	-0.00010888250564946114	6.66658847843514e-05	0.00278786341260218	0.004445055637723012	0.007671347241474905	-2.885420554039312e-05
2
298000
Ar	0.00032912101978170783	8.000884850144605e-05	0.0031869585064136807	0.005787000652802758	-0.023436283446469596	-8.21312248137915e-05
Ar	-4.188351707762209e-05	0.00012121717816999665	0.002787314183372412	0.008398955884714565	0.002742742167394148	-4.959480912495998e-05
2
298200
Ar	0.00030361799145907673	-0.00015454208060058423	0.00318618177304104	-0.010693825815850978	-0.02149545951560998	-9.185213636478024e-05
Ar	4.5313483466020295e-05	0.00011710954709018374	0.0027870557294403945	0.008293278774025975	-0.003496022567471348	-9.195248605944681e-06
2
298400
Ar	0.00013252730480715636	-0.00031497662045517174	0.0031852626398868648	-0.02207056553461934	-0.00925270240313479	-5.577215754210439e-05
Ar	0.00011081936598269872	5.696239081604015e-05	0.002787223124799652	0.004241859640246234	-0.008038652070692676	3.581144523376307e-05
2
298600
Ar	-0.00010198123644417962	-0.0003246024690371147	0.0031854693603884368	-0.022859187072341913	0.007391820910911007	9.898061514268034e-05
Ar	0.00012319344325430393	-3.0448140481586718e-05	0.0027876441485170573	-0.0018626249054105246	-0.008702227454434712	3.312645982287876e-05
2
298800
Ar	-0.00028759883283058517	-0.00017896110313389045	0.0031869470700604217	-0.012698488836381722	0.020532383114189916	0.00017968944455384097
Ar	7.656465573614006e-05	-0.00010294472088271048	0.0027881222413234773	-0.007077161111497656	-0.005190672686307067	4.745510918264994e-05
2
299000
Ar	-0.00033516960204349206	5.264466267000059e-05	0.0031885161977149787	0.0035940970355479796	0.023829796205503975	0.0001206733956045766
Ar	-6.793007869624925e-06	-0.00012595184915976774	0.0027883887849970467	-0.008912620837295774	0.0007752899458085062	3.1116749831049777e-06
2
299200
Ar	-0.00022183540331016508	0.0002587459361599625	0.0031889913122687317	0.018119738173611143	0.015667821044113992	-3.4693732725490066e-05
Ar	-8.696466105093959e-05	-8.849421896613855e-05	0.0027882511987061907	-0.0064734462678447706	0.006400570700242566	-3.505385795774173e-05
2
299400
Ar	-2.1933432137148507e-06	0.0003405539956572413	0.0031881394508797003	0.023955406024152755	9.798869212692887e-06	-0.00014231958430284977
Ar	-0.00012540016522788995	-8.419561851409056e-06	0.0027878027868136535	-0.000894046962122657	0.008928490225039842	-5.074308540613742e-05
2
299600
Ar	0.0002185238524665679	0.00025890586319561663	0.0031866145521980316	0.01833776706747472	-0.01563486877303995	-0.0001450950625843276
Ar	-0.00010360114767611405	7.567195924200104e-05	0.002787058623679755	0.005074581295483635	0.00720078447264628	-8.403325426976228e-05
2
299800
Ar	0.0003349298729691256	5.292277493068328e-05	0.003185556745270015	0.003942774504415124	-0.023839167585661243	-6.13162740725203e-05
Ar	-3.2219823629154303e-05	0.0001236428484089145	0.0027863824259900284	0.008593585918852063	0.0019957331816807446	-3.884613369566366e-05
