2
0
Ar	-4.244687332088716e-12	4.311395110953106e-11	0.0032248049271837976	-1.6978749328354865e-07	1.7245580443812426e-06	-1.2953531525493392e-06
Ar	-5.275642641594614e-11	-1.4972291083856112e-11	0.0027427471316917493	-2.1102570566378455e-06	-5.988916433542445e-07	1.021147546746471e-06
2
200
Ar	-1.3106486637661137e-07	5.5364335336533723e-08	0.0032248299198481584	-7.907547418842993e-06	5.329502158431792e-07	2.1905203192103613e-05
Ar	-2.612314836218291e-07	-2.1025841585808122e-07	0.0027428505779074023	-2.5044949805834107e-05	-8.240238704083286e-06	7.16317701221073e-07
2
400
Ar	-1.3521498575387048e-07	2.1292675944809232e-07	0.0032250251551841835	2.1526979611862474e-05	5.806192589707123e-06	2.0948054260169664e-05
Ar	-4.909779372695989e-07	-2.15869047611271e-07	0.002742736912646726	8.087160575980575e-06	5.257351992880146e-06	-4.611013536364457e-05
2
600
Ar	5.876449366213721e-08	1.2075464069642098e-07	0.0032251904097059707	2.645491694744295e-05	-4.873619031952505e-06	9.129693802447277e-06
Ar	-3.6320080148090776e-08	-6.19824154043188e-08	0.0027422771333675063	7.06209164975969e-05	2.2680344777512184e-05	-3.6911321440491804e-05
2
800
Ar	1.975924791204881e-07	2.685728924016014e-07	0.003224944824021166	6.7160844193311995e-06	2.4137961279438658e-05	-6.274039945391936e-05
Ar	3.214185325720158e-07	1.317601640759882e-07	0.002741794079774917	1.7847722927067012e-05	2.2790237470891567e-05	-5.875687882984808e-05
2
1000
Ar	1.1559100289282806e-07	2.7394604538506974e-07	0.003224326175465658	-4.1493080211984126e-05	-2.1294394083898997e-05	-6.238034442846426e-05
Ar	2.9643588077766953e-07	5.974233520077112e-07	0.002741512586418155	-1.8492815339649642e-05	5.220183826680951e-05	1.5030267326977607e-05
2
1200
Ar	-2.7917534082406467e-07	1.3275273487407255e-07	0.003223756735309085	-2.8985210226504883e-05	-1.4733476243677072e-05	-2.4103445941036413e-05
Ar	5.060083327107414e-08	6.741579071870401e-07	0.002741690534081926	-2.9750560303826768e-05	-3.0377726948464025e-05	2.6231143089131452e-05
2
1400
Ar	-6.131823930122123e-07	-9.816967406021829e-08	0.003223643373056879	-2.815683001338221e-06	-2.0871053484752838e-05	9.648718023551806e-06
Ar	-3.312306019361241e-07	2.8792998576287367e-07	0.002742219423684871	-4.7242194032257146e-05	-5.819537006696406e-05	5.517447051222515e-05
2
1600
Ar	-4.5134991648740567e-07	-1.829188028911326e-08	0.003224070667462291	5.4432367014550576e-05	2.7218213001829085e-05	8.908217245719071e-05
Ar	-5.534222170012309e-07	-2.740829638302282e-07	0.0027426195835213436	-2.4919179186185095e-05	-5.204670124464454e-05	3.437054636846086e-05
2
1800
Ar	4.243657659866163e-07	1.1128839180749522e-07	0.003225412316807049	0.00010262805558463589	-7.053457270649726e-06	0.00011959163743263894
Ar	-5.524327743890484e-07	-9.166415721600028e-07	0.0027430407885333193	2.1490956371378524e-05	-6.240567639759665e-05	4.544519810764323e-05
2
2000
Ar	1.2756082317493552e-06	-1.05716206923088e-07	0.0032263518723835865	6.060426072096349e-05	-1.8001902187565573e-05	6.25206397006305e-05
Ar	-4.352293653995354e-07	-1.6154901522061844e-06	0.002743403688470326	1.4174775116732587e-05	-3.77099389376161e-05	1.220333779094702e-05
2
2200
Ar	1.1954042125397858e-06	-4.415677013980743e-07	0.003226461083864227	-6.554259125855506e-05	-1.2900139121036079e-05	-5.014970050024605e-05
Ar	-1.029242972411708e-07	-1.8289470724672715e-06	0.002743392944322237	5.645418881998888e-05	1.246134130874326e-05	-1.284391479295382e-05
2
2400
Ar	5.482129928409077e-07	-4.6470922651449303e-07	0.003225558740237006	-7.279334025104264e-05	4.414486210399482e-06	-0.00012427457658126248
Ar	4.567703518466139e-07	-1.1169430973845093e-06	0.00274311979560701	5.6400025325344824e-05	0.00011166426678294409	-2.3711087373067498e-05
2
2600
Ar	-3.365269582221149e-07	-2.6984683985936757e-07	0.0032241643034720087	-8.469538577123177e-05	3.5188730597868346e-05	-0.0001434828149905739
Ar	1.0913791791244012e-06	2.7781657200342728e-08	0.0027429561528762507	5.519620546182199e-05	0.00011176625703657681	-6.937045882218019e-06
2
2800
Ar	-9.789750060192067e-07	2.0294038842926412e-07	0.0032233795011175005	-5.6790564000007636e-05	4.486456399012384e-05	-5.031690891873734e-06
Ar	1.4329274578575157e-06	1.0242481336000086e-06	0.0027427818979370174	2.3795113563558573e-05	8.133067341074813e-05	-4.378946566174431e-05
2
3000
Ar	-1.4281609455066346e-06	7.205770193533386e-07	0.0032239589174387637	-2.954295456464886e-05	5.0265603262119994e-05	0.00013261264944318065
Ar	1.0091132937400282e-06	1.6226165752518653e-06	0.0027421468356792975	-8.694798707783747e-05	3.0324376069315533e-05	-3.8401912030391713e-05
2
3200
Ar	-1.3582581863456332e-06	8.179634792112117e-07	0.003225302077130722	4.6928078755993096e-05	-4.755108387424845e-06	0.00011652810237472394
Ar	-6.781697244466659e-08	1.4957937434036665e-06	0.0027418690023344842	-0.000124923045168286	-4.5325571665057886e-05	5.464531139845634e-06
2
3400
Ar	-4.3471982354193677e-07	6.575196205078004e-07	0.003226050226132687	0.0001087204865119027	-1.7533852676568444e-05	3.97843679367751e-06
Ar	-1.0481023880019672e-06	1.1334919561024578e-06	0.002742423551389851	-5.234097211242613e-05	-3.156410979017456e-05	8.338842333762398e-05
2
3600
Ar	7.716611319252498e-07	2.536249828258071e-07	0.0032256577792681347	0.0001089125400828266	-6.103951150920637e-05	-7.392615996204762e-05
Ar	-1.2113489203821636e-06	5.357600069464414e-07	0.0027434022564531784	1.9995882294907497e-05	-7.614163944108824e-05	9.957174608504455e-05
2
3800
Ar	1.706534538528588e-06	-4.138149168766025e-07	0.0032247276594557246	7.417820965711547e-05	-6.707876771348343e-05	-0.00011204238654939371
Ar	-9.246321968304724e-07	-2.3788599256143558e-07	0.002743940796853433	2.6504442747032652e-05	-7.323643427188182e-05	5.358330309771606e-06
2
4000
Ar	2.02184745228315e-06	-7.070278132695001e-07	0.0032238507185239837	3.205095489466984e-06	2.494556166111474e-05	-3.2365151271736964e-05
Ar	-6.095555311217476e-07	-7.718482129652032e-07	0.002743743317855149	4.3083275549257234e-05	-5.120150363000015e-05	-2.9919272758785382e-05
2
4200
Ar	1.48305023044949e-06	-2.4838933800377136e-07	0.0032240568301616884	-9.248786121945271e-05	5.4689443616927295e-05	5.51537734352802e-05
Ar	9.253980599505431e-08	-9.412374999173813e-07	0.0027430170861909957	6.741903697778813e-05	3.231320638408712e-05	-0.00010172559659769267
2
4400
Ar	3.968978963134922e-07	1.916096108092727e-07	0.0032250383493264735	-0.00013197213779407962	3.454571110917097e-05	0.00010854529345219386
Ar	7.442748840929918e-07	-3.267404715780452e-07	0.0027421061632870486	5.822794476895737e-05	9.910915701897099e-05	-5.640915828987597e-05
2
4600
Ar	-8.058924353364798e-07	3.869961646679039e-07	0.0032259708062794897	-0.00011306235447411562	5.301956502165216e-06	7.619176959408783e-05
Ar	1.2662790595670128e-06	7.912564049116319e-07	0.002741686213539415	4.4209116188600777e-05	0.00011558824826207712	5.161042062565874e-06
2
4800
Ar	-1.8454525736063811e-06	1.2367402068785539e-07	0.003226334082649052	-8.872971840812201e-05	-4.708339582030335e-05	-1.6322160745140103e-05
Ar	1.2910100302229143e-06	1.6642989256272513e-06	0.002742215696153175	-3.874121388097133e-05	7.447428511250178e-05	0.00010036858725871518
2
5000
Ar	-2.2888332694315835e-06	-5.840049938735556e-07	0.003225526436561325	1.0666410327061838e-05	-8.623048766285206e-05	-0.00011817796097269488
Ar	6.325055458921982e-07	1.5076006235563844e-06	0.00274323431467202	-0.00010581346373720831	-8.706372969739223e-05	9.972745422717595e-05
2
5200
Ar	-1.3492662612960177e-06	-1.2229403461427483e-06	0.003224536958137361	0.0001537219020448074	-4.0990297141887605e-05	-8.004301438401349e-05
Ar	-4.570877681757797e-07	4.4682061575612686e-07	0.0027440288663698135	-8.543246736629911e-05	-0.00012300308571119829	2.4177762963069556e-05
2
5400
Ar	3.1634575705281103e-07	-1.318972798438998e-06	0.003223963569311396	0.00018148648268515627	8.899854480744623e-06	-2.0261038873966493e-05
Ar	-1.2864279702705854e-06	-9.473361732183223e-07	0.002743633934963483	-7.99291376798919e-05	-0.00013241573601902005	-9.450001083433256e-05
2
5600
Ar	1.974085696085859e-06	-9.487284310042058e-07	0.0032240011138108308	0.00013731394599308255	8.396258217619952e-05	4.374251389648615e-05
Ar	-1.49228599580997e-06	-1.8875005656536492e-06	0.0027424530896222876	4.053128848561366e-05	-4.6556842490283245e-05	-0.00011485831110325173
2
5800
Ar	2.947924233004708e-06	1.5591774305235468e-07	0.0032248111776648825	4.450582005749081e-05	0.00012874215851991252	0.00010312277800544561
Ar	-8.451343342996151e-07	-1.984641003867723e-06	0.002741703148229438	8.745737450081363e-05	4.030275012941927e-05	-4.6212868161729074e-05
2
6000
Ar	2.8564910388363688e-06	1.416924234459269e-06	0.0032255213152119666	-7.1946833253091e-05	0.00012037997739436701	2.5756596011766188e-05
Ar	4.2932355655191287e-07	-1.27316217064172e-06	0.0027419714734591	0.00013072712118926714	0.00010062445072258609	7.909537158618169e-05
2
6200
Ar	1.5350102151661299e-06	2.2533452840623506e-06	0.003225203849861592	-0.00017371632522495005	1.0972135385827077e-05	-7.185038731384496e-05
Ar	1.7440158222608554e-06	-2.584996775295532e-07	0.0027429259518364974	0.00011374871465076826	0.00010542176184869607	8.283399439518518e-05
2
6400
Ar	-4.655441955965618e-07	1.578938978216584e-06	0.003224419968244974	-0.00020170091788647315	-0.00011984385302192035	-8.523808316753633e-05
Ar	2.389528862488241e-06	6.75548019995544e-07	0.0027436182949997574	6.298774833436623e-06	6.128007716479571e-05	3.823310347196701e-05
2
6600
Ar	-2.5005885387346977e-06	6.87645388349959e-08	0.0032241852009203664	-0.00017878641174024195	-0.00016023532108508848	2.5272518208013984e-05
Ar	1.8621385636237133e-06	1.0851341791018974e-06	0.0027436698972712475	-0.00012863899555303987	1.5036230759570889e-05	-4.4542856732631976e-05
2
6800
Ar	-3.6024135742550144e-06	-1.522183219500283e-06	0.00322497260020862	-5.177205497723071e-05	-0.00016028284454293538	0.00010989175329232002
Ar	4.1787724863812297e-07	7.556508970188418e-07	0.0027430450499063732	-0.00016657810884183522	-8.039556224878e-05	-6.25294114905203e-05
2
7000
Ar	-2.97057809298207e-06	-2.656965546314252e-06	0.0032260433151970387	0.00014554985355314784	-3.7575047639004204e-05	6.219202943231931e-05
Ar	-1.174148871108658e-06	-9.457360692576098e-08	0.0027424034895676187	-0.00014989332614614732	-0.00011002484284227799	-6.42262978858183e-05
2
7200
Ar	-8.009129890363698e-07	-2.2360318311419896e-06	0.0032260912097978865	0.00026965982477487486	0.00014114393546996005	-6.987312055444174e-05
Ar	-2.374401493839537e-06	-1.0572060057202616e-06	0.0027420389306337225	-7.021339590592705e-05	-7.81178321268318e-05	3.298056258354603e-06
2
7400
Ar	1.8219249108508872e-06	-4.916269944777421e-07	0.0032250208204035015	0.0002379853878544259	0.0002016242448734757	-0.00013217956463750449
Ar	-2.6693068428941107e-06	-1.5803182129305133e-06	0.0027426018839244878	4.820125346530659e-06	-3.1973061837786614e-05	8.896550980117961e-05
2
7600
Ar	3.820944382373181e-06	1.6868487857816936e-06	0.0032238250913872515	0.00013888551654320778	0.00020510540478015806	-5.114512524122056e-05
Ar	-2.109842647871243e-06	-1.511722124353718e-06	0.002743525448415227	0.00010197540759174504	5.0516626408869676e-05	0.00011119706694669438
2
7800
Ar	4.389879926503841e-06	3.1847745290753802e-06	0.003224118207640626	-4.10028672343247e-05	9.51927362034784e-05	9.774211102789085e-05
Ar	-6.640923689503174e-07	-6.182963544087564e-07	0.0027442766557444136	0.0001600640824561555	0.00011361011108261978	2.935575574259986e-05
2
8000
Ar	2.932493902512385e-06	3.3542687241646495e-06	0.0032256062698598283	-0.00022382231301937215	-8.392909213294956e-05	0.00015444575160639427
Ar	8.715937331355173e-07	6.605428494830409e-07	0.0027440695274587165	0.0001464357264904229	0.0001382827458545234	-6.669290278999031e-05
2
8200
Ar	1.59495362230279e-07	1.6977176301951997e-06	0.003226530395710363	-0.00030556751683391423	-0.0002435227648258706	3.7923186029041126e-05
Ar	1.981425015813213e-06	2.0574880478216822e-06	0.0027429674863989843	5.737290718125811e-05	0.00012351552821599266	-0.00013434974198114086
2
8400
Ar	-2.9408866865204444e-06	-1.1126672581021462e-06	0.0032262305732219877	-0.000292748245680539	-0.00027985293744195103	-0.00010141899002318363
Ar	2.011746498317696e-06	2.5774508394984496e-06	0.0027421059648075822	-3.0673654752899226e-05	-2.606359426797395e-05	-3.640361240036452e-05
2
8600
Ar	-5.09998063477485e-06	-3.5068566983667882e-06	0.003224781320366069	-0.00012017538247101963	-0.0001915461689176463	-0.00015646088900856054
Ar	1.2903593043280685e-06	1.4277215885345696e-06	0.0027418965656468577	-0.00010147389489669708	-0.00017280677690239022	-7.276862101818411e-06
2
8800
Ar	-5.069203771867075e-06	-4.748920914039219e-06	0.003223367695392154	0.0001225278427781206	-3.270007392934031e-05	-9.968085345927165e-05
Ar	1.8031551422039548e-07	-5.704367917377784e-07	0.002742160815317555	-0.00010990740439681778	-0.0002086694193665932	6.726799807008845e-05
2
9000
Ar	-2.8543152185892824e-06	-3.8680346601858145e-06	0.003223389908630641	0.0003018998966192621	0.00019036135909336635	8.800315685858691e-05
Ar	-7.694005139234735e-07	-2.1516345723944433e-06	0.0027429871364127926	-8.62095116778873e-05	-0.00010997293094198817	7.559193437016029e-05
2
9200
Ar	6.45201182194109e-07	-1.1385694728094363e-06	0.003225141954402709	0.00036735812908636516	0.00031561965067485796	0.00020219115597628118
Ar	-1.3614137329807717e-06	-2.72182507855894e-06	0.0027434002212435235	-3.080456556750605e-05	1.0214894999360635e-05	1.018838763112782e-05
2
9400
Ar	3.825800115088098e-06	2.1444592048299117e-06	0.0032266991190807192	0.00023561208098742332	0.0003238063198140239	8.707938541284686e-05
Ar	-1.1255287038843468e-06	-2.027434371034648e-06	0.0027436219063102984	4.175072238029288e-05	0.00011843689939901039	3.458521246556822e-05
2
9600
Ar	5.24247637402578e-06	4.36761213125291e-06	0.0032269013860388844	2.9370647705949545e-05	9.905312710495044e-05	-4.9677472434434644e-05
Ar	-5.36284651609145e-07	-5.13451995786347e-07	0.002743829673679494	5.404838557925996e-05	0.00016028589457758624	-5.266415055856758e-06
2
9800
Ar	4.05162342858665e-06	4.163800542413922e-06	0.003225812165854771	-0.000249804094616599	-0.00013757755740083233	-0.00016691805605620105
Ar	4.262332572522134e-07	1.1812127982193977e-06	0.002743730679165551	9.175746357596773e-05	0.0001603293211992413	-1.6288981851394846e-05
2
10000
Ar	7.145256395317782e-07	1.7609518782564245e-06	0.003224141284321278	-0.00038100987331027064	-0.000288262263870816	-0.0001639443750474705
Ar	1.0569597430036833e-06	2.4378421984232244e-06	0.0027432926616851646	6.855949961814331e-06	7.417436591898509e-05	-5.165444729296722e-05
2
10200
Ar	-2.838904758362794e-06	-1.2104550997084583e-06	0.0032229782538431605	-0.00034574732779205585	-0.00029944882079415596	-7.375715593532525e-05
Ar	1.2250196960806475e-06	2.5508996803263657e-06	0.002742629888043516	1.6422203200768145e-05	-6.0598534076360975e-05	-8.085514442515308e-05
2
10400
Ar	-5.333550070398458e-06	-3.817843105050332e-06	0.0032230306042309335	-0.00013999408082962303	-0.00019448039342913543	9.1994394679173e-05
Ar	9.46036599557324e-07	1.4218301291697156e-06	0.0027418185300493586	-4.8670159316979334e-05	-0.000159205792535458	-9.260959435511014e-05
2
10600
Ar	-5.437622754856036e-06	-4.313390483309266e-06	0.0032243807177550626	0.00012935115188993852	6.259618896588689e-05	0.00015965239540539095
Ar	2.613762058139006e-07	-2.3379605989240537e-07	0.002741409066949515	-7.245471761503996e-05	-0.00015384453278648446	5.129969484862791e-06
2
10800
Ar	-3.1409406682847716e-06	-2.669831322150172e-06	0.0032255823090516604	0.000303505560603551	0.00024337733935082625	7.297119876485348e-05
Ar	-4.650115671978556e-07	-1.5006241433616703e-06	0.00274185200648804	-8.399262378434023e-05	-9.968125438298283e-05	5.6169359774891076e-05
2
11000
Ar	4.3460706213662105e-07	1.8140530916504504e-07	0.00322571254132836	0.00039441927921107165	0.0002912578987276558	-4.6853223953183594e-05
Ar	-1.1170029682896296e-06	-1.973338765490633e-06	0.002742758484368415	-5.5516592094797896e-05	1.2097509569556782e-05	0.00011987359198840255
2
11200
Ar	3.9442010482164235e-06	2.875098976308191e-06	0.0032247835159788696	0.0002873502323084376	0.00024024801792092067	-8.846794136627208e-05
Ar	-1.3296564245397506e-06	-1.4057990721154014e-06	0.00274372656973697	2.006659599970758e-05	8.880423256649795e-05	8.514789417936139e-05
2
11400
Ar	5.815406869399976e-06	4.514461868978039e-06	0.003224302599611645	7.616223350354153e-05	8.648296667656321e-05	-2.776471171130456e-05
Ar	-7.270924691432983e-07	-1.4707177395498034e-07	0.002744150007442376	8.205708731235265e-05	0.00014755931096307537	-2.815972629057248e-05
2
11600
Ar	5.570485417886232e-06	4.302759835292462e-06	0.003224617120972763	-0.00015312365534287184	-0.00012838502797610956	5.1689924458343684e-05
Ar	2.7519135751576685e-07	1.0985596841553385e-06	0.0027433462348605215	0.00011281680888403867	7.856879108663329e-05	-0.00011567986494630374
2
11800
Ar	2.9058739392905315e-06	2.3450812024724123e-06	0.0032251253260217865	-0.000349019626110492	-0.00027775925136968845	5.25404920334547e-05
Ar	1.1953027425070843e-06	1.4530886778015246e-06	0.002742300164368349	6.103718143226954e-05	-3.46209364140094e-05	-7.321969543496635e-05
2
12000
Ar	-9.520661831366423e-07	-6.851733534055737e-07	0.00322546303664464	-0.00038425122460942086	-0.00032609226582841554	1.07060135386614e-06
Ar	1.1324987799028125e-06	5.560063685848437e-07	0.0027417811964068946	-8.351475355781389e-05	-0.00011927789236020445	-2.168620289810118e-05
2
12200
Ar	-4.434941189705696e-06	-3.5267927345077873e-06	0.00322479739559452	-0.00025943364501657476	-0.00021319722886743337	-9.689338704861467e-05
Ar	4.84800203410004e-08	-8.062310725508258e-07	0.0027419507684888207	-0.0001397252535945644	-0.00013948397337004123	5.13076460539254e-05
2
12400
Ar	-5.841357588312151e-06	-4.6819433100467e-06	0.003223999846465458	-1.198648469798584e-05	-1.4946508396933805e-05	-7.361837948339536e-05
Ar	-1.2620377588569849e-06	-1.878724244476842e-06	0.00274268635109761	-0.00010764054552576386	-6.433093419994406e-05	7.722075911427823e-05
2
12600
Ar	-4.722144563066142e-06	-3.540324188103397e-06	0.003223693294892528	0.000261140865351682	0.00022325119782886014	1.900620125849064e-05
Ar	-1.907204171818951e-06	-2.174781117370345e-06	0.002743103182989823	-1.8185433744327367e-05	7.001302225242711e-06	-1.3795937736773839e-05
2
12800
Ar	-1.1513633060139828e-06	-5.903949831214118e-07	0.003224218433946715	0.00042616838914208855	0.0003362580998310257	9.564538846920821e-05
Ar	-1.4180250432298033e-06	-1.543136503601141e-06	0.00274301572136643	9.780869550592534e-05	0.00010572821382697921	8.357405387644262e-06
2
13000
Ar	3.131320905289208e-06	2.5484010270757904e-06	0.0032252973603405	0.0003904317923394534	0.0003007468307319945	0.0001124043088351476
Ar	-2.678160035828666e-07	-1.6158717489592684e-07	0.0027428087937443795	0.00012832474588789144	0.00015243394387920098	5.1713584871273565e-06
2
13200
Ar	5.801854503046114e-06	4.4952654368179335e-06	0.0032260408664995456	0.00012422892170393222	8.442314900705133e-05	8.106232932068766e-06
Ar	9.471810215421738e-07	1.462499569652637e-06	0.0027430189111315854	9.877994285570516e-05	0.00014575790280868848	4.862312140017436e-05
2
13400
Ar	5.737888310488617e-06	4.391816517715046e-06	0.0032254632890554497	-0.000133358902418831	-0.00011109783168692886	-0.00014335803999387928
Ar	1.3836754359795315e-06	2.4256781822910314e-06	0.002743378386134895	-2.3920300583599936e-05	3.260797635451678e-05	3.3587357579834715e-05
2
13600
Ar	3.1234658689853607e-06	2.3662401473851975e-06	0.003224268692500237	-0.0003739477496387154	-0.0002800928457111431	-8.36150991577599e-05
Ar	9.38980936188641e-07	2.393558562910994e-06	0.0027431271467925292	-8.352012332107124e-05	-7.233095805070038e-05	-6.383634513819219e-05
2
13800
Ar	-1.1005063320737276e-06	-5.66867923506963e-07	0.0032237254811429464	-0.000445415325233512	-0.0002614121034034598	-1.980388627818821e-05
Ar	6.888182135421733e-08	1.1055759821980475e-06	0.002742302222980044	-8.582260898548767e-05	-0.00016758775035206086	-0.00010455312008505644
2
14000
Ar	-5.04146113088395e-06	-2.8522482815925484e-06	0.0032240723771579474	-0.0003135779039524819	-0.00015762806204449727	6.60538071413039e-05
Ar	-6.810674728763742e-07	-7.028634790166875e-07	0.0027416370812256706	-4.284893625860524e-05	-0.0001793902916461103	-2.3646610274511935e-05
2
14200
Ar	-6.829094640808714e-06	-3.552744367158717e-06	0.003224947274607082	-3.57362778748535e-05	4.093619034929284e-05	9.38064789053298e-05
Ar	-9.452581733612375e-07	-2.129410710454429e-06	0.002741725604592825	-2.2827067736067206e-05	-9.332408566096812e-05	4.8730342606783705e-05
2
14400
Ar	-5.5323946440660095e-06	-2.260308119760079e-06	0.003225472212895393	0.00027761541232281607	0.00019833258134937758	8.272059860900135e-06
Ar	-7.592895829484624e-07	-2.5639786733562815e-06	0.0027428440725370063	4.225661734875228e-05	-2.142834952503421e-06	0.00015553467109440938
2
14600
Ar	-1.8278744405043026e-06	1.262071610550918e-07	0.0032252777114708826	0.0004336203872826796	0.0002689852811941394	-3.543159525188545e-05
Ar	-3.385109309797518e-07	-1.9632647668217276e-06	0.002744119750694864	2.184370130471553e-05	0.00012924515819185954	8.761947141025934e-05
2
14800
Ar	2.468479748249516e-06	2.5780141360384305e-06	0.0032251880765945813	0.0003807674456983501	0.00020072918837267116	2.319299281013075e-05
Ar	8.797190298865284e-08	-2.8134449853379303e-07	0.0027443568711817226	5.951133431506525e-05	0.00021061839913995848	-2.0237326836155267e-05
2
15000
Ar	5.424095444736526e-06	3.771942330665058e-06	0.0032255992654715705	0.000179582206626864	1.818573688679257e-05	1.58292416333446e-05
Ar	5.768514126832225e-07	1.9214083190103035e-06	0.002743765507744541	3.0516943443656366e-05	0.00020605341887486902	-8.501859257780364e-05
2
15200
Ar	5.769629485236722e-06	3.0278500195695203e-06	0.003225511332277773	-0.0001254320589259485	-0.00017584658377721188	-3.0378997141806983e-05
Ar	7.422346113537657e-07	3.529737861413805e-06	0.002742824200472912	-2.904256701631508e-06	9.39193984161436e-05	-8.622122472893402e-05
2
15400
Ar	3.157952697493899e-06	6.624313686154515e-07	0.003224947192624951	-0.0003653338209943485	-0.00025644872581151315	-0.00010669185972910395
Ar	6.316766489370188e-07	3.5562808903141616e-06	0.0027421136615381077	-1.7295856670153008e-05	-0.00010699214346965549	-5.3203511878502955e-05
2
15600
Ar	-8.114434244215049e-07	-1.9561875270485263e-06	0.003224206255587078	-0.00041496230930172475	-0.0002516023264753781	-5.024845152422156e-05
Ar	2.929272475021322e-07	1.795242883656209e-06	0.00274189447326821	-4.881838978895818e-05	-0.00020696314065421303	-1.0307341260709739e-05
2
15800
Ar	-4.39986367811212e-06	-3.919742744676539e-06	0.0032242213860608757	-0.0002705278677709828	-0.0001455319998251912	3.203169849135086e-05
Ar	-3.551421272955128e-07	-3.7320719313321533e-07	0.002742137606559995	-5.7749053238016553e-05	-0.00022548696451651633	2.829401913868616e-05
2
16000
Ar	-5.636049364590638e-06	-4.438601368998596e-06	0.003224509366780641	3.642024278244576e-05	8.04123276111387e-05	4.5839614027469765e-05
Ar	-9.355962907038929e-07	-2.3958220295117013e-06	0.002742641473849163	-5.7131248236350074e-05	-0.0001787336658416983	5.343126944252877e-05
2
16200
Ar	-3.936911642246198e-06	-2.511970772914431e-06	0.003225131381048166	0.00028339598036126475	0.000280266269606928	4.9915377362553944e-05
Ar	-1.369021999215761e-06	-3.3502795391260837e-06	0.0027432051831370896	-1.5980214915722098e-06	-1.8550765799416868e-05	6.605942978912756e-05
2
16400
Ar	-5.259170290937646e-07	8.668557861412672e-07	0.003225395946867644	0.0003668975418391606	0.0003502004169612856	2.9302428379834204e-05
Ar	-1.2011465018039972e-06	-2.631321054245463e-06	0.0027436778943198794	4.1530529382169025e-05	0.00014796504110364708	2.8463127041662097e-05
2
16600
Ar	3.0870285955270988e-06	3.8219333900815955e-06	0.0032254797443067263	0.00032160059965431883	0.00022612257103289273	-7.136620993049639e-06
Ar	-6.963643467224358e-07	-7.974324259155759e-07	0.0027435200367358806	8.16970703485055e-05	0.00021278519664415547	-2.0998594511314023e-05
2
16800
Ar	5.421675215321039e-06	4.883475386177316e-06	0.003225314271277711	0.00012785164246904886	-2.650131752563034e-06	-2.882584893295433e-05
Ar	1.6653351228686243e-07	1.2353579634671371e-06	0.002743278608619463	9.368317217800377e-05	0.00019856529271457447	-5.194847932209144e-06
2
17000
Ar	5.4947376352471925e-06	3.6264453496462783e-06	0.003225141597113538	-0.00012621759835398553	-0.00023251187669285045	-2.1148380384365243e-05
Ar	1.1731095805631243e-06	2.8663986277201826e-06	0.002743241612222659	0.00010324910391095418	0.00012957329366467633	-2.5513545689722207e-05
2
17200
Ar	3.0518089411327295e-06	5.623962956004464e-07	0.0032248325973273555	-0.0003408107989053773	-0.00036119024473118926	-5.040024639576646e-05
Ar	1.7087560117833327e-06	3.3155948083231192e-06	0.0027428388524139485	-2.421798749507002e-05	-2.423119361310584e-05	-4.278668682437097e-05
2
17400
Ar	-7.700921098588385e-07	-3.0564269435446105e-06	0.003224350688922629	-0.00037464221709341877	-0.00033327633217126383	-4.209147330614386e-05
Ar	9.445904200814043e-07	2.391516773396021e-06	0.0027423955552881027	-0.00011012526828076495	-0.0001342135757977194	-4.295278075790377e-05
2
17600
Ar	-3.991379330324713e-06	-5.507158755201538e-06	0.003224076079329954	-0.00023312103342225886	-0.00012357396812233054	-3.981957212558324e-06
Ar	-3.3046735879336083e-07	7.428791841198422e-07	0.0027419029915753956	-0.00010835523994053676	-0.0001997245683638015	-6.205984366755011e-05
2
17800
Ar	-5.072321933980921e-06	-5.388730603021167e-06	0.0032239667911783017	2.5247288295282985e-05	0.00014883573107491121	-1.5836467602413464e-05
Ar	-1.4114890013973152e-06	-1.3697080746657961e-06	0.0027416975621629177	-8.643057610843511e-05	-0.00019502488665539642	2.5588721835217405e-05
2
18000
Ar	-3.5438696921167684e-06	-2.6772025382003026e-06	0.0032241245317903484	0.000265595762985884	0.00035539364476795535	3.868207585788751e-05
Ar	-2.107373441893098e-06	-2.654956143805931e-06	0.002742093352775137	-1.4567019921902432e-05	-6.397781441101713e-05	5.946407785621122e-05
2
18200
Ar	-1.9680568295075913e-07	1.3106342951088018e-06	0.0032248054687379355	0.00037299072323175586	0.00039393645390631933	8.360351473336855e-05
Ar	-1.719869486579493e-06	-2.4959482278864346e-06	0.0027427759532936196	8.95381788856251e-05	9.322298063790601e-05	6.460678138500933e-05
2
18400
Ar	3.1676772567342974e-06	4.7859158285033125e-06	0.0032256612768003685	0.00029600288909833653	0.0002707230170713545	9.868239975636756e-05
Ar	-2.4818655155097083e-07	-1.153985614275314e-06	0.0027433823464295517	0.00018349293772043916	0.00016309352472254062	4.171063913511848e-05
2
18600
Ar	5.170159478606797e-06	6.377537363320065e-06	0.0032266624398453077	8.056506286092996e-05	2.9030678828977057e-05	7.590382007719765e-05
Ar	1.6464274867546939e-06	5.62052791987923e-07	0.0027435576170333443	0.00020376180151870783	0.00017196998239723125	-1.0361619962470419e-05
2
18800
Ar	4.348236483675755e-06	5.138457376122268e-06	0.003226609820270376	-0.0002249963302547987	-0.0002775822308411087	-9.723430593774498e-05
Ar	3.280454149614306e-06	1.851267062698979e-06	0.0027432842312505954	9.618808384578513e-05	0.00010299164629892637	-5.0971574596538587e-05
2
19000
Ar	1.0832888289659487e-06	1.192854519765645e-06	0.0032248912552159995	-0.0003981321835802696	-0.00048399297065851394	-0.00019265769871155977
Ar	3.336923186544416e-06	2.3035280346673077e-06	0.002742774998584495	-6.420872630591297e-05	-1.9107941453801712e-05	-5.182088011508402e-05
2
19200
Ar	-2.970020221505346e-06	-3.4876974695422054e-06	0.0032232921332639272	-0.0003710499676651397	-0.00038564897578509394	-0.0001180793517619969
Ar	2.0415535116649273e-06	1.4285683031958483e-06	0.0027421607888959898	-0.00020520214302299978	-0.00015888668782296691	-8.327061976767531e-05
2
19400
Ar	-5.8512306563069014e-06	-6.243409536012485e-06	0.003222732522057167	-0.00017441194969790682	-0.00011382888234550765	-9.558018216093644e-06
Ar	-6.042044100469271e-07	-4.783903164737624e-07	0.0027415847099483246	-0.0003060487970258509	-0.0001882277326512511	-3.3502827143711765e-05
2
19600
Ar	-6.053597539831691e-06	-5.863245596633461e-06	0.0032232024749163472	0.00011409150189711983	0.0001959208774067265	7.846477009789631e-05
Ar	-3.3609913995041438e-06	-2.110549922583086e-06	0.002741542046660723	-0.00020595787441015365	-0.00012941801120152545	2.7625943138981227e-05
2
19800
Ar	-3.44370936101173e-06	-2.6859554900227207e-06	0.0032243656964469616	0.0003904301323364857	0.00041996390305359087	0.00014369648435586768
Ar	-4.418313461104077e-06	-2.8672408656574815e-06	0.002742347063235492	1.867284164367715e-05	-2.8026953301036657e-05	9.762856042238804e-05
2
20000
Ar	1.051584744517931e-06	1.9958217673385556e-06	0.003225672639418298	0.00046454972873796627	0.00046473305621235486	8.816060756176873e-05
Ar	-3.0540355863756693e-06	-2.4819643304427773e-06	0.0027432789336422733	0.00023829364631826623	9.715786061776793e-05	9.145560092493417e-05
2
20200
Ar	5.140489881182332e-06	5.810775807158859e-06	0.003226211631856115	0.0002949681537428916	0.0002769103239579297	2.6552105863674678e-05
Ar	1.1152338795080269e-08	-1.0298734769888453e-06	0.0027440589781693473	0.00033087385838976544	0.00018971792565074586	6.728057421254204e-05
2
20400
Ar	6.460840320897967e-06	7.22423334020886e-06	0.003225806459645873	-4.8695343931825755e-05	-1.7852382535808854e-05	-9.410632286334135e-05
Ar	2.6969746010768054e-06	1.2584194154158679e-06	0.0027443949427378754	0.0002109924966489918	0.00023844590052909086	-2.3867713788256922e-05
2
20600
Ar	4.377680065820187e-06	5.2097170547474715e-06	0.0032247200901067605	-0.00035950792127468464	-0.000359271848556257	-8.721428918778683e-05
Ar	3.972780496799182e-06	3.3481670455773433e-06	0.002743634030065646	1.5912959468137132e-05	0.00015730830765965377	-0.00013003252630888575
2
20800
Ar	6.664156793384825e-08	8.491267920592409e-07	0.003224038787087608	-0.0004841263190081027	-0.0004881938165568488	-5.0410237688393734e-05
Ar	3.2049257435360985e-06	4.116745028923282e-06	0.0027421580024207352	-0.00016422006714378426	-4.280235176124217e-05	-0.00016591252637545965
2
21000
Ar	-4.383845721843809e-06	-4.149183587517691e-06	0.0032236452447643683	-0.0003693435164098048	-0.00046883591983978574	-1.7905381181708443e-05
Ar	8.735280820782523e-07	2.4137888732285408e-06	0.002740881298622723	-0.00028765695953284094	-0.000266087841924972	-7.37929826720077e-05
2
21200
Ar	-6.832415788349808e-06	-7.431663944129862e-06	0.003223839884319855	-9.467217202644848e-05	-0.00017293865233606988	6.126145400517283e-05
Ar	-1.957680231586542e-06	-6.098256067293422e-07	0.0027406257781323745	-0.00023221149995026867	-0.00030636460421002603	4.021941596731817e-05
2
21400
Ar	-5.755450166256599e-06	-7.2256874468418615e-06	0.0032245828336698898	0.0002994069135994707	0.00023125439238194203	8.593707932136352e-05
Ar	-3.4514896231187935e-06	-3.213588874976972e-06	0.0027417525361364352	-5.9917739612127005e-05	-0.00019588385077909487	0.00015609730815878883
2
21600
Ar	-1.4248293734671425e-06	-3.4193613442323723e-06	0.003225324081723434	0.0005207867044808121	0.0004930218276134257	5.260581843175381e-05
Ar	-3.1514396025260374e-06	-4.461368940025517e-06	0.002743517727205646	0.00010124609770531516	-3.71220970485934e-05	0.0001826703418407442
2
21800
Ar	3.5188112809798205e-06	2.4084430148190047e-06	0.003225883434329333	0.00042656954198784996	0.0006126402959116211	4.7478797023199096e-05
Ar	-1.4473822282913175e-06	-3.817760579155599e-06	0.002745032258285463	0.00022875653796153907	0.00016191494812935759	9.06890656761066e-05
2
22000
Ar	6.741420867471853e-06	7.224969627521609e-06	0.0032263797617944614	0.000188198759586022	0.0003107742139850952	2.981190390900444e-05
Ar	1.1521299136041055e-06	-1.3782709528418068e-06	0.002745316239004159	0.000273833016315705	0.00030810121142217927	-5.498054529464634e-05
2
22200
Ar	7.0460038005209526e-06	8.31324984312686e-06	0.0032261606278734807	-0.00014071064290068768	-0.00010646721813616214	-6.290543673506475e-05
Ar	3.396256352037787e-06	2.0512924480142364e-06	0.0027438530764153216	0.000147271721411723	0.0003187526151828062	-0.00020161440579525756
2
22400
Ar	4.04512763798723e-06	5.236728055135876e-06	0.003225120350608932	-0.00043262607285869935	-0.00045080234814895464	-0.0001231364566831146
Ar	3.7473129553447794e-06	4.47091709618186e-06	0.0027418439458561433	-5.244602224088384e-05	0.00014741395115521545	-0.000180362268436383
2
22600
Ar	-7.463415303741503e-07	-2.960796535635393e-07	0.0032239009881958234	-0.0005094286530555033	-0.0006246048004875213	-0.00010640588726974976
Ar	2.2155095730803624e-06	4.907058383792639e-06	0.002740408948328295	-0.0002164033983151613	-4.73195719211865e-05	-9.733676630379522e-05
2
22800
Ar	-5.272871966725272e-06	-6.0911240235945905e-06	0.0032232701256939464	-0.0003669834902924512	-0.0004844452594653279	-3.629898564647078e-05
Ar	-1.6846004305754822e-07	3.3191729274591156e-06	0.0027399142351107056	-0.00026294419917555017	-0.00028075176557832115	1.4190605818648444e-05
2
23000
Ar	-7.487128064015316e-06	-9.183300447979909e-06	0.003223331925393498	-3.565588351459318e-05	-0.00011755130866573968	4.5617046869311106e-05
Ar	-2.5654644700018896e-06	-1.1202320958006518e-07	0.002740714964444714	-0.00022146726854979773	-0.00039554546234482553	0.00015948927220324138
2
23200
Ar	-6.148833557771585e-06	-8.261052432053849e-06	0.003224228918612153	0.0003076366928939207	0.00029762009331761797	0.00014214522235053345
Ar	-4.127284201240224e-06	-3.9032633834194755e-06	0.0027427108107239734	-8.509324633886991e-05	-0.0003095400322650336	0.000197480342400794
2
23400
Ar	-1.3991890827582716e-06	-3.3514728660442025e-06	0.0032256982714781875	0.0005903842557513756	0.0006441843744325422	0.000146886427278548
Ar	-3.935535826781658e-06	-5.729631462405438e-06	0.002744412299125071	0.00011886275714339808	-5.1295847176468215e-05	0.00014624191986803948
2
23600
Ar	4.376588928056843e-06	3.665211246662094e-06	0.003227083226516697	0.0005176133115655904	0.0007002555836165065	0.00010195950775652071
Ar	-1.883923246490897e-06	-4.8788043578162994e-06	0.0027449598150450154	0.0002619340173918874	0.00019905775596084732	-3.0232765487720843e-05
2
23800
Ar	8.160514817378516e-06	9.504600062887631e-06	0.0032272766450952726	0.00020681731276891857	0.0004244186954108096	-7.336881863361824e-05
Ar	7.816084553240267e-07	-1.8218879088029811e-06	0.0027442583273575246	0.0002526945340958063	0.0003797009180163753	-9.131933331139759e-05
2
24000
Ar	8.126883193075326e-06	1.1143612133594657e-05	0.003225540332689876	-0.0002289674147283809	-0.00011951303349874662	-0.00021931835670615553
Ar	2.9136239697619883e-06	2.2127321321053668e-06	0.0027431208900633632	0.00014613876407721472	0.0003704017744411905	-0.00011354026457527571
2
24200
Ar	4.111158556146248e-06	7.230030256790357e-06	0.0032231925359924194	-0.0005458343466855945	-0.0006081819268602853	-0.00020449213647667463
Ar	3.375082491467234e-06	5.118218240497411e-06	0.002742032948848973	-5.3478581200894986e-05	0.00017943459199901883	-0.00010099855819763797
2
24400
Ar	-1.786026367444364e-06	-2.928252493409072e-07	0.0032220886885963706	-0.0006105964390909689	-0.0008342768613282718	-1.6262075137817688e-05
Ar	2.0951041338478496e-06	5.938140440062104e-06	0.0027409046616265003	-0.00018118005733597554	-2.3006813482643033e-05	-9.643948164783836e-05
2
24600
Ar	-6.944480763601771e-06	-8.147768888114864e-06	0.003222736178297971	-0.00038287266447415173	-0.00066728240056582	0.00013103096765730901
Ar	-1.4044857709793124e-07	4.267069122524906e-06	0.0027405418453989106	-0.0002510712238310001	-0.0002939564729514981	5.673955314967698e-05
2
24800
Ar	-8.980213371583963e-06	-1.22507182516513e-05	0.003224462964538176	-1.3448874631761683e-05	-0.0001280638926180749	0.00017197420097876432
Ar	-2.4449191476003153e-06	6.126602785511805e-07	0.002741718000823829	-0.00018439626692224172	-0.00041673976619882076	0.00017906644828681942
2
25000
Ar	-7.16472626658299e-06	-1.095277620147404e-05	0.0032261190536552204	0.0003814461503943791	0.00040644400285750823	0.00012367864074580212
Ar	-3.558366388922133e-06	-3.511537264738064e-06	0.0027437488763018057	-4.8190349073532874e-05	-0.0003602883441458206	0.00019317604230732803
2
25200
Ar	-1.999275586525904e-06	-4.889556569831979e-06	0.0032269921408827344	0.000630967017295355	0.0007820911783128887	3.887177160311529e-05
Ar	-3.2822468496961727e-06	-5.807149409572431e-06	0.002745105000050181	7.322688092409976e-05	-8.2783798615533e-05	8.861812452607958e-05
2
25400
Ar	4.150244880910961e-06	3.748423306603988e-06	0.0032265957111067703	0.0005649521479773242	0.0008618851650151647	-0.00011000256096127691
Ar	-1.962307385611304e-06	-5.297804705920734e-06	0.0027452233691746234	0.00019543073476466192	0.00017447047352274264	-6.595516322690465e-05
2
25600
Ar	8.476045086362708e-06	1.088516556572795e-05	0.0032251719033606695	0.00026488719272859957	0.000495731596417987	-0.0001710910475092536
Ar	1.7934029387867473e-07	-2.5400002371917252e-06	0.002744014042038658	0.00020368746238182567	0.00037073965489533694	-0.00017019678778306543
2
25800
Ar	9.147216483989183e-06	1.2989924747704663e-05	0.0032235053154068103	-0.0001426626500428959	-9.304616704420172e-05	-0.00014775155507534986
Ar	1.970328562845468e-06	1.4505052496207913e-06	0.0027423640047415437	0.00013838925371760735	0.0003917855481305274	-0.0001717912637024398
2
26000
Ar	5.579061271877141e-06	8.882095551319074e-06	0.003222577661348913	-0.0005136561795661385	-0.0007027112615643974	-2.17000331864572e-05
Ar	2.6821782521866397e-06	4.608927331605946e-06	0.0027407687861640113	3.6470916674777326e-05	0.0002276468199012197	-0.00013013478133620186
2
26200
Ar	-3.7343160780399333e-07	2.530300324176524e-07	0.0032229355695598204	-0.0006342871195083107	-0.0009787504429728839	9.235868239749719e-05
Ar	2.16673129786664e-06	5.7209363458327526e-06	0.0027400384439499733	-0.00010695733281802126	-5.632509567228025e-05	-3.4635392014242e-05
2
26400
Ar	-6.0948505108653154e-06	-8.901524337700554e-06	0.00322409553053821	-0.0004583380112997511	-0.0007505922786690733	0.00013503434365844577
Ar	6.27183569204435e-07	3.9687354940165815e-06	0.0027407354292286563	-0.00018580765587734757	-0.0002925203352623563	0.00018114357045812278
2
26600
Ar	-8.811937590755942e-06	-1.3622001565093334e-05	0.0032253591858985298	-5.946022356700066e-05	-0.00016646899311233143	0.00010943205683803853
Ar	-1.5886740216746175e-06	1.1726333721547804e-07	0.0027429586583924757	-0.00023299337421084715	-0.00043677557212887247	0.0002240081857138869
2
26800
Ar	-7.1977692944379005e-06	-1.2382194738771318e-05	0.003226046940464496	0.0003577399178652167	0.0004210524115896522	2.92061613756432e-05
Ar	-3.293193990433165e-06	-4.303249906468291e-06	0.0027450096247718745	-0.00010320508618954857	-0.000361911580024654	0.00018209639620527375
2
27000
Ar	-2.135149599368702e-06	-5.601837597657495e-06	0.003226167403667787	0.0006134673192234736	0.0008904931964304831	2.4053937945705003e-05
Ar	-3.4068803663643043e-06	-6.580458841606112e-06	0.002746146692520409	0.0001003170442017912	-7.593643080784557e-05	3.9933509222302114e-05
2
27200
Ar	4.061891755282837e-06	3.9281855417911016e-06	0.0032263004673284703	0.0005668312859505936	0.0009699706292265834	-5.324505845869736e-06
Ar	-1.5403745899259736e-06	-5.572631925161289e-06	0.0027452368856139935	0.00027534393358442884	0.0002676968415789576	-0.00020084327616450923
2
27400
Ar	8.309324687448053e-06	1.2227275160701937e-05	0.0032258287587947515	0.00022597814263598958	0.0006123570167294884	-9.834413445124439e-05
Ar	1.5077082163293323e-06	-1.5863950348378913e-06	0.00274305922166398	0.0002978930177575807	0.0005076849946484014	-0.00021775367921735703
2
27600
Ar	8.356205398402789e-06	1.4854248314502036e-05	0.0032245406518978787	-0.00023511211815767995	-0.0001113222055339271	-0.00014243320909078892
Ar	3.902907997774884e-06	3.508968513552654e-06	0.002741210895771257	0.00017445597385937805	0.00048298626808756666	-0.00013916612210683541
2
27800
Ar	4.116538214500207e-06	1.0433231856910465e-05	0.0032231795761338	-0.0005788458662061674	-0.0007399540172574948	-0.00011042332000907428
Ar	4.507586007497031e-06	7.230297298207241e-06	0.0027405773598605724	-6.889783013108794e-05	0.0002087064045247822	2.0279012070612688e-05
2
28000
Ar	-2.262912283582556e-06	1.0294019724010313e-06	0.0032229068676628745	-0.0006453426094774813	-0.001073371507180033	2.8205972735921805e-05
Ar	2.7682545883824437e-06	7.682864485098387e-06	0.002741529294474895	-0.0003073718960033896	-0.00014779676843590446	0.00018262074483410377
2
28200
Ar	-7.667149530924799e-06	-9.09849942144169e-06	0.003223793780131716	-0.0003989011646003631	-0.0008756206665716962	0.00014759032960099836
Ar	-8.688168125156461e-07	4.626310277546985e-06	0.002743673453653092	-0.00039677262954048993	-0.0004582907707265732	0.00020513979889398706
2
28400
Ar	-9.529107624804569e-06	-1.533294385712018e-05	0.0032252880741368895	2.7032001016810915e-05	-0.0003297102456893422	0.00014951686431611196
Ar	-4.133817388927425e-06	-5.741781372607145e-07	0.002745117209620139	-0.00022559034263726412	-0.0005627090747722214	9.220306996094501e-05
2
28600
Ar	-6.815955410238361e-06	-1.4679085716493153e-05	0.0032265912428999675	0.0004660578610299564	0.0004452810620991778	0.00010569215054580244
Ar	-5.469899050419873e-06	-5.530687760067636e-06	0.0027453689324183073	-3.052818091232295e-05	-0.0004039871829701011	-2.9510499212687075e-05
2
28800
Ar	-7.029596516855548e-07	-7.0491624278544135e-06	0.003226945859376639	0.0006898304599862238	0.0010018976845358309	-4.940662293605157e-05
Ar	-4.216920932518704e-06	-7.829849988057141e-06	0.0027445174523432593	0.00025114725811261577	-2.0426774804291527e-05	-0.00015645115724131494
2
29000
Ar	5.698294495285672e-06	4.0367452117532525e-06	0.003225843269117256	0.0005559151722334675	0.0011172879014807009	-0.00015001388314515944
Ar	-1.0725101420732055e-06	-6.341067465045998e-06	0.002742687341819776	0.0003323274430039654	0.0002995449509371475	-0.0001888794641986453
2
29200
Ar	9.44531877979349e-06	1.348959597764473e-05	0.003223976854298875	0.0001353877052254611	0.0006812320468788716	-0.0001860925313596055
Ar	2.3557024249630363e-06	-2.0995782860676017e-06	0.0027410993373187123	0.0003032682338553157	0.0005239610165983052	-9.351873989540538e-05
2
29400
Ar	8.31849924673961e-06	1.68705902000718e-05	0.003222429623743438	-0.0003475310400937014	-4.971583865232055e-05	-7.076392338743365e-05
Ar	4.796650388162179e-06	3.5329572054437775e-06	0.0027407177753271577	0.00015498245070209827	0.0005425836474361697	2.5916453030023865e-05
2
29600
Ar	3.057709002807655e-06	1.239543742490877e-05	0.0032223630096377036	-0.0006857236529773095	-0.0008275536346387226	9.347673956503715e-05
Ar	5.103439625255634e-06	7.735254762806321e-06	0.002741399546130956	-0.00011106909852235303	0.00026671248217474046	9.01128106874735e-05
2
29800
Ar	-4.092800396918888e-06	1.7366736264586445e-06	0.0032241732674182038	-0.00068171749797985	-0.0012246534440029445	0.00022559270563858174
Ar	2.662478399250845e-06	8.258232429595566e-06	0.0027427300422544075	-0.00034870298638750845	-0.00016309092692687785	0.00015097681083655007
2
30000
Ar	-9.415610076323436e-06	-1.0123949162934389e-05	0.0032262395930353076	-0.0003495253188115647	-0.0010286306424474032	0.00016927353884927052
Ar	-1.247951554103052e-06	4.61818350524796e-06	0.0027441926454732997	-0.0003833127581401588	-0.0005181847223403549	0.00012351849992452206
2
30200
Ar	-1.0166076714773444e-05	-1.7453774175054572e-05	0.003227242604405797	0.00021936739396588513	-0.0003730870860417842	2.098957378688503e-05
Ar	-4.534532634243822e-06	-1.3361844475574227e-06	0.0027449253793526813	-0.00024371366893446433	-0.0006248856646211338	2.1658974397416847e-05
2
30400
Ar	-5.599916771632202e-06	-1.664707083469116e-05	0.003226505112644584	0.0006633587196787478	0.000521050516182328	-0.0001533929357544717
Ar	-5.72775327159717e-06	-7.026242640289996e-06	0.0027446060572153363	1.535267881159397e-05	-0.00044770065395584855	-0.00010575927274148878
2
30600
Ar	2.1407855559169938e-06	-7.895036905324911e-06	0.0032246425685539533	0.0008048598642832147	0.0011524984439248516	-0.00019512579072211
Ar	-4.17083381644032e-06	-9.819979038850769e-06	0.0027431117804999944	0.0002744677214213945	-6.229802361560663e-05	-0.0001713093096919179
2
30800
Ar	9.185408235899818e-06	4.5735874839496e-06	0.0032230257742680603	0.0005516365921300458	0.0012457855495462025	-9.763242032406362e-05
Ar	-5.790522027377734e-07	-8.128784869103851e-06	0.0027413106922857815	0.0004102614578386384	0.00040133464232899326	-0.00014669361492055093
2
31000
Ar	1.1896694859534389e-05	1.506288130569242e-05	0.0032226136774311195	-2.935664826111679e-05	0.0007606698698410789	2.3169473751199154e-05
Ar	3.5550545503706105e-06	-2.5748799071245424e-06	0.002740284993219408	0.0003628139761604232	0.0006831217321394435	-4.158563512364533e-05
2
31200
Ar	8.557414503136304e-06	1.8629435277505843e-05	0.0032232350975188793	-0.0006013211999856412	-0.00010680294195982517	0.0001282455387494447
Ar	6.293803164580301e-06	4.540236978914334e-06	0.002740417255375715	0.00013287722646989454	0.0006582538719114082	8.16968224493224e-05
2
31400
Ar	8.066337799579156e-07	1.3163564949601668e-05	0.003224585589069999	-0.0008936062331862534	-0.0009563068294411033	0.0001459013510260685
Ar	5.843477691078529e-06	9.567264959737058e-06	0.0027417340692087655	-0.0001996578707038151	0.0003231221414469088	0.00018633520216679194
2
31600
Ar	-7.822330484514316e-06	1.2164400332664683e-06	0.0032260589309236042	-0.0007285142563321435	-0.0013323739031276976	0.0001212093206711105
Ar	2.7103994032061174e-06	1.0251230771214542e-05	0.0027439682868351596	-0.00039375193570221684	-0.00021289922474104385	0.00022810025657196207
2
31800
Ar	-1.2700297150170833e-05	-1.1701021862897858e-05	0.003226897406217779	-0.00020914815165736192	-0.0011314752177788837	3.4375618787924765e-05
Ar	-1.9151225841326804e-06	5.648526339596218e-06	0.0027456935766118997	-0.0004663004459596242	-0.000658550133869816	0.00012234414109967308
2
32000
Ar	-1.169236736897877e-05	-1.9546657789001984e-05	0.0032267203915283555	0.00040462363594497567	-0.0003582162972876951	-7.091355016190855e-05
Ar	-5.91953568607194e-06	-1.923573691664084e-06	0.002745755364502935	-0.0003147104007676882	-0.0008017873751877811	-9.987652837351594e-05
2
32200
Ar	-5.038967463343563e-06	-1.8131039349030825e-05	0.003225686811796261	0.0008552049300137506	0.0006473998571134067	-0.00012222403158375226
Ar	-7.43465082976391e-06	-8.981477531900803e-06	0.002744164590004815	2.9227704798502194e-05	-0.0005399264748970353	-0.00021821546418727682
2
32400
Ar	4.077959577919537e-06	-7.695536550917823e-06	0.0032242678026075246	0.0008961056615384833	0.0013522351080821175	-0.0001261839540556435
Ar	-5.4341752397636596e-06	-1.17161356285998e-05	0.0027417364553249187	0.0003878106175633757	-3.3143871794263114e-06	-0.00023568098008376167
2
32600
Ar	1.155197875472649e-05	6.901675018109653e-06	0.0032234940859774603	0.0005225616201469289	0.0014316065887978948	-6.731766455684535e-05
Ar	-5.45644514079428e-07	-8.639428915925983e-06	0.0027397111974587964	0.0005331504811045102	0.0005843940128541345	-0.00012435431137040512
2
32800
Ar	1.3359447208496633e-05	1.8761058041930266e-05	0.0032231286961167294	-0.00017242062145082952	0.000810203966628574	-1.621523812080929e-05
Ar	4.485828585685874e-06	-8.918951909565306e-07	0.002739365566296949	0.0004174667326772612	0.0008966058373851407	5.3651211002682176e-05
2
33000
Ar	8.39851673640186e-06	2.1708858819128253e-05	0.0032232186683579856	-0.0007707948400009554	-0.0002240481014423882	3.53465750766247e-05
Ar	7.268866328795267e-06	7.536328616732683e-06	0.0027407129407781582	0.0001396228799245866	0.0007109198942357333	0.00020193343881019766
2
33200
Ar	-1.1424504421223555e-06	1.4488931546515874e-05	0.003223688922666916	-0.0010459230409962177	-0.001174641972238683	9.218126191741349e-05
Ar	6.947456136021356e-06	1.216287002804578e-05	0.002742820698493664	-0.00021168712685602138	0.00016753804717237685	0.00020517259772967415
2
33400
Ar	-1.0715579838569135e-05	-1.7756851955026426e-07	0.003225057274725072	-0.0007913676740934092	-0.0015959346582410281	0.00016474822501024336
Ar	3.3643258050748727e-06	1.084642771739427e-05	0.002744444410669449	-0.00048310033223690463	-0.00041505393774818615	0.00010988264327439387
2
33600
Ar	-1.5727808888133683e-05	-1.5153016069505026e-05	0.0032266847167783832	-0.00013719907688686036	-0.00128659034199363	0.00012138394753212145
Ar	-2.038438764013643e-06	4.363784871997998e-06	0.0027448029791167436	-0.0005489303380120048	-0.0008354680567588853	-2.2400296857731856e-05
2
33800
Ar	-1.3309487235192167e-05	-2.352661553921322e-05	0.003227346202230483	0.0005931232079636444	-0.0003125306377731623	-5.197103091530411e-06
Ar	-6.592612416763886e-06	-4.423462093676941e-06	0.002744046892479939	-0.00032870478983427717	-0.0008614995123069022	-0.00011304737701989508
2
34000
Ar	-4.75671755721766e-06	-2.0678659244281253e-05	0.003226489413656576	0.0010628414535380857	0.0008591821356376955	-0.00015852507573271097
Ar	-8.155711218929271e-06	-1.1323532531878634e-05	0.0027428659409021766	3.8489455754864e-05	-0.00047765399152575384	-0.00010876313501723139
2
34200
Ar	6.432979868090633e-06	-7.7344587800447e-06	0.003224338748025946	0.0010789852896021543	0.0016207939687623723	-0.00024171499807313103
Ar	-5.8208171822627235e-06	-1.310301470366564e-05	0.002742058659772762	0.00042054547984760634	0.00014278658738620727	-7.25243430622603e-05
2
34400
Ar	1.4871136248705276e-05	9.573206690849475e-06	0.003222295091002514	0.0005352708701895514	0.0016874837390368064	-0.00011923745020027799
Ar	-5.1262142239519e-07	-8.336814426216597e-06	0.00274161272677931	0.0006315127978697043	0.0007324934977332973	-1.893036381399686e-05
2
34600
Ar	1.619081018828691e-05	2.3025855651893215e-05	0.0032219156452162837	-0.00028741394764291925	0.0008961553136279995	5.7509515470249446e-05
Ar	5.254922734628159e-06	4.892113692271458e-07	0.0027419252588016716	0.00046652117534658167	0.0009760472867979279	5.5484290546479704e-05
2
34800
Ar	9.627014267238305e-06	2.603493015307286e-05	0.0032231793732325005	-0.0009939007257593459	-0.00033413335433328523	0.00017833803367954345
Ar	8.416005724547262e-06	9.427543147046765e-06	0.002742316923229281	0.00013369248860799012	0.000729631652477867	3.85797834617014e-05
2
35000
Ar	-1.8392070300144135e-06	1.657831698780435e-05	0.003225234282598757	-0.0012024788421795397	-0.001469834778624135	0.00023526395000323562
Ar	7.828787420739449e-06	1.4096351059531114e-05	0.0027427198302972153	-0.0002323809155042158	0.00018462018363074142	6.258107455707476e-05
2
35200
Ar	-1.2675747464914003e-05	-9.805403134547756e-07	0.0032269695578142016	-0.0008870028370203118	-0.0019136860007437555	8.735007832667728e-05
Ar	3.80181352801923e-06	1.2511851162057392e-05	0.0027434280448159778	-0.0005464425400917928	-0.00048602066336097795	7.656781548008674e-05
2
35400
Ar	-1.7925781896071213e-05	-1.86200378029741e-05	0.003226903334283432	-0.00012358845953258093	-0.00145073201632067	-0.00011229846749151009
Ar	-2.2508632106472756e-06	4.903095552759085e-06	0.0027441679896285957	-0.0006190395862975887	-0.0009814875610386733	6.511567087178102e-05
2
35600
Ar	-1.4762613260982725e-05	-2.762345732362849e-05	0.0032250043810431706	0.000730813304044406	-0.00025539801415420314	-0.0002046723647536575
Ar	-7.587435836154224e-06	-5.384874587961004e-06	0.00274447754588437	-0.0003859645283212995	-0.0009881286333166075	1.1745712725499336e-05
2
35800
Ar	-4.374344414879493e-06	-2.3127653927907155e-05	0.003223327817236686	0.0012707759116838283	0.001118495409999172	-8.057510870053462e-05
Ar	-9.401796079348335e-06	-1.3300078599933189e-05	0.0027440480107343954	4.399738320914828e-05	-0.0005252301561694567	-0.00010563788720190093
2
36000
Ar	8.722403065174482e-06	-7.260714940969099e-06	0.0032232395868309932	0.0012539904252073248	0.0019464579469287027	3.871599002641294e-05
Ar	-6.720447432773511e-06	-1.5069214412560409e-05	0.002742614580373177	0.00046009041425852605	0.0002018027740889976	-0.00016117470308396183
2
36200
Ar	1.84039735039275e-05	1.281413231716592e-05	0.0032240669367281437	0.0005828393163130356	0.0018942662437717158	0.00010458867449547576
Ar	-7.994452345785162e-07	-9.543057298966085e-06	0.0027413724911228743	0.0006804906626395553	0.0008661260369735462	-7.435326559190606e-05
2
36400
Ar	1.968517663913079e-05	2.738970249334859e-05	0.003224827665521163	-0.0003697649611806273	0.0009037836095807763	2.965982825405531e-05
Ar	5.739184185011822e-06	1.0967596957202976e-06	0.002741365151300937	0.0005549363273111608	0.0011665871179790473	8.471394261828285e-05
2
36600
Ar	1.1485125995868079e-05	2.9243992932596063e-05	0.0032249116282106	-0.0011954714336100925	-0.0005632448618527739	-1.3247674830560946e-06
Ar	9.343332269300807e-06	1.1774946648743473e-05	0.00274258199064332	0.0001622302275481235	0.0008528950170861266	0.00013393490796439155
2
36800
Ar	-2.5080382518982013e-06	1.6966645718810063e-05	0.0032248603738214763	-0.0014900007363219867	-0.0017974082326361537	-4.111368225530931e-05
Ar	8.831057506677885e-06	1.711116953927906e-05	0.0027438212958794104	-0.0002697952472727178	0.00013071472977560912	0.00011597610583509362
2
37000
Ar	-1.5681268933894917e-05	-3.718389422887816e-06	0.0032245068094763473	-0.0010589127790331214	-0.0021795628222821975	-1.1684629195047525e-05
Ar	4.3860077177979245e-06	1.4145919943723418e-05	0.002744456750213089	-0.0005985784944827698	-0.0006845878600295045	-9.839498577053038e-06
2
37200
Ar	-2.2119440315065614e-05	-2.350948731843121e-05	0.003224559236889632	-0.00017474022523681184	-0.0016040820789889982	1.6013503299420184e-05
Ar	-2.513855970860201e-06	4.550571216517926e-06	0.002743950357322209	-0.0007010347073251723	-0.001172506708200991	-8.246623277745941e-05
2
37400
Ar	-1.836172891177761e-05	-3.3032719922259744e-05	0.0032247027223845336	0.0008895462236466537	-0.00022440987340012838	7.0548004174023355e-06
Ar	-8.49728674232264e-06	-7.447751186272059e-06	0.0027427639404923225	-0.0004576661169156574	-0.0011497604192377494	-0.00013167723917730735
2
37600
Ar	-5.584296305519754e-06	-2.7140822106062335e-05	0.003224701785153236	0.001548085547434239	0.0013687388311342688	-2.9301758040924298e-05
Ar	-1.053630665861959e-05	-1.6655900695020807e-05	0.002741812729709957	4.640624135603939e-05	-0.0006008239821873027	-6.497051032035394e-05
2
37800
Ar	1.0224290475144928e-05	-7.93590067360285e-06	0.003224270248930939	0.0014683828923466923	0.0023152941467319524	-2.8652908093024916e-05
Ar	-7.598943574968095e-06	-1.8296314863015413e-05	0.0027417122009448687	0.000517360146312765	0.00029361828492834214	2.3938950201777738e-05
2
38000
Ar	2.1528347179603186e-05	1.5308131025628494e-05	0.0032240867661511466	0.0006893296691204114	0.0021510216301805227	-2.7787842284411837e-05
Ar	-1.0585943121273955e-06	-1.1313292024683857e-05	0.002742376949013062	0.0007132897581397242	0.001043371034784309	0.00010870344732919114
2
38200
Ar	2.3025392167084872e-05	3.176970532907308e-05	0.003223956946709295	-0.00041706264816862874	0.0009848840819410897	1.00608280348223e-05
Ar	5.937139554923269e-06	1.134297706247367e-06	0.0027435178660677366	0.0006330572461078264	0.001341185689727979	0.00012030140908303783
2
38400
Ar	1.3449870939771958e-05	3.3288163339468785e-05	0.0032240580037882194	-0.00139867034942359	-0.0006986109599011164	3.660145040801744e-05
Ar	1.0344685990125421e-05	1.3411037730204607e-05	0.0027442593859043915	0.0002261324110982919	0.0009996264375857634	3.2194150004443576e-05
2
38600
Ar	-2.8720668171872805e-06	1.8725559327337838e-05	0.003224949541639607	-0.0017469545226513447	-0.002092953785522013	0.00013893489391830777
Ar	1.0118892359305137e-05	1.9492184624256027e-05	0.0027441322992660462	-0.0002895889860908598	0.00015918907353053177	-5.024626820211883e-05
2
38800
Ar	-1.8716208287093026e-05	-5.248959518176792e-06	0.003226014215338763	-0.0012824828631128411	-0.00252632833548714	7.666973347893126e-05
Ar	4.920743325715838e-06	1.61345939354239e-05	0.002743392411057868	-0.0007029274188246767	-0.0007954572350689997	-8.114329830831795e-05
2
39000
Ar	-2.6318040533615897e-05	-2.7609980037808302e-05	0.003226092475385085	-0.00018712166783056198	-0.0017443212265577164	-7.888342699257115e-05
Ar	-2.896112483847755e-06	4.76399483488369e-06	0.0027428909294038113	-0.0007957706489233025	-0.0013694084876041597	-5.834757025047647e-06
2
39200
Ar	-2.1679486167823264e-05	-3.7288947829658035e-05	0.003224757370696852	0.0010664273026399725	-0.00010116301409176059	-0.0001594599173579093
Ar	-9.706470497053855e-06	-9.123244420175149e-06	0.002743408689401001	-0.0004879441664136718	-0.0012855112970258959	8.009242756826776e-05
2
39400
Ar	-6.909593462985648e-06	-2.9180546367715778e-05	0.0032233173547274825	0.001784485943800853	0.0016687155620512442	-7.925070186650583e-05
Ar	-1.1679060782872563e-05	-1.8955948179808934e-05	0.00274378800811467	8.681428560274966e-05	-0.0006017232776543778	-1.8202909581594037e-05
2
39600
Ar	1.1288287901812524e-05	-6.417076706040595e-06	0.003223180500471838	0.0017163157944855225	0.0026836689528264906	7.168223840284798e-05
Ar	-7.9449533455013e-06	-1.9852222402271227e-05	0.002743209500272747	0.0006208609345498208	0.0004230641757054097	-9.0036572053086e-05
2
39800
Ar	2.461449218450395e-05	2.025348466630829e-05	0.0032240783853349233	0.0008156788922785278	0.002438734733271299	8.652652802875586e-05
Ar	-3.703549986730236e-07	-1.1247883221622033e-05	0.0027422485239525602	0.0008488741690289335	0.0012538552695488168	-7.067803452215711e-05
2
40000
Ar	2.644838719004013e-05	3.8329023961586186e-05	0.0032249241142511906	-0.0004992933454149579	0.0010065522263006585	5.9378233571876216e-05
Ar	7.803615249018056e-06	3.245017535523849e-06	0.0027419248258572435	0.0007197769349748058	0.001515116385903721	1.7997675560256208e-05
2
40200
Ar	1.5567442507670526e-05	3.846791102728984e-05	0.0032250964232329485	-0.0015973633145103386	-0.0009861899678071935	-5.410020099890232e-06
Ar	1.2753671285042244e-05	1.662139705975984e-05	0.002742553954261925	0.0002249599763533266	0.0010206689950643727	7.369576094725519e-05
2
40400
Ar	-2.9396826042899843e-06	1.989686703308825e-05	0.0032249359082795453	-0.001960494023096103	-0.002569046832042542	-2.000020472329519e-05
Ar	1.1678495796794556e-05	2.2425207612793883e-05	0.0027433613201569376	-0.0004243028727175105	8.024866107578588e-05	8.348978540639884e-05
2
40600
Ar	-2.0782379438136315e-05	-9.058896477778849e-06	0.003224774026584993	-0.0014478866726187812	-0.0029913320031437003	-8.928336392694973e-06
Ar	4.9762419834779284e-06	1.788771772157407e-05	0.002743901611450475	-0.000873550026699977	-0.0009294007487747081	5.059041884961089e-05
2
40800
Ar	-2.9283574291289217e-05	-3.4727974455659164e-05	0.003224566417559887	-0.0001661605067530039	-0.0019487490762725868	-2.971704040434674e-05
Ar	-4.485529577360834e-06	5.086651695644676e-06	0.002744268022810197	-0.0009247484042016102	-0.0015242448803299085	2.036788945270891e-05
2
41000
Ar	-2.3971380811639202e-05	-4.44961529178795e-05	0.0032242413287627207	0.001196437597368236	7.670916072647308e-05	-3.968534767976829e-05
Ar	-1.2063193897625152e-05	-1.0456247422631365e-05	0.0027441086850707092	-0.0005767651661257817	-0.0014494822515290742	-4.7756655887157386e-05
2
41200
Ar	-7.03517008049128e-06	-3.288249284071864e-05	0.0032242652474644903	0.0020260739550889903	0.0021640431852675045	3.8799278135014456e-05
Ar	-1.4371779384814696e-05	-2.1288928260419384e-05	0.002743307576614622	0.00013439076654538535	-0.0006190633483789036	-0.0001274046373836793
2
41400
Ar	1.3521988501448349e-05	-4.787384830837531e-06	0.0032248045596789516	0.001920175856771242	0.0032260490846263788	3.8567775159411084e-05
Ar	-9.880488270678264e-06	-2.2090234907323103e-05	0.0027420852022412476	0.0007590110146186516	0.0004755630881122391	-9.344687152883376e-05
2
41600
Ar	2.8178830627935767e-05	2.672014871287157e-05	0.0032246756638642385	0.0008913633533026203	0.0028095850999567394	-5.570413105910677e-05
Ar	-2.856970739719436e-07	-1.229176947812463e-05	0.00274175595768917	0.0010644502667829644	0.0013800462509013435	3.085952435337365e-05
2
41800
Ar	2.988728010327643e-05	4.677557034419959e-05	0.003223766762554984	-0.0005635679815008033	0.0009961600425001126	-0.00011690214727284777
Ar	9.819666025696053e-06	3.546839873806327e-06	0.002742723176595512	0.0008520494533318664	0.0016627422876823927	0.0001431344871025606
2
42000
Ar	1.7523311352971804e-05	4.506538396805414e-05	0.0032227705445766605	-0.0018098042563237458	-0.0013316549868506416	-3.778920087585301e-05
Ar	1.5441652508559893e-05	1.809670475168042e-05	0.0027440509722225677	0.0002190173457782866	0.0011359252704939826	0.00010284546538676978
2
42200
Ar	-3.547376302215972e-06	2.188811958013206e-05	0.00322337222855132	-0.002236048372964722	-0.0031132846087248926	0.0001697306676204822
Ar	1.3907640428256771e-05	2.456613431938686e-05	0.002744510315645634	-0.0005315534425597458	0.0001079352919028679	-4.718816069279328e-05
2
42400
Ar	-2.377614925961636e-05	-1.2518184578715543e-05	0.0032253464524160643	-0.001648357522319736	-0.0034619070112826655	0.00016445857313153873
Ar	5.5112835781373096e-06	1.9714757698705717e-05	0.0027435217430464556	-0.001067816353867428	-0.0010352523600528133	-0.00012172986829053173
2
42600
Ar	-3.345187413156243e-05	-4.162512365042225e-05	0.0032261308567065007	-0.00018885308176747073	-0.0021190938524491823	-3.4284493872947874e-05
Ar	-5.734216922393001e-06	5.285484513339934e-06	0.0027425919746499167	-0.0010944390612024047	-0.0017085329381136415	-4.9282778026041474e-05
2
42800
Ar	-2.7279712860556613e-05	-5.166368409383709e-05	0.003224828765575424	0.0013783873572338174	0.000215647513126018	-0.00019756581688958652
Ar	-1.4750343213642407e-05	-1.2008263494074905e-05	0.0027428501690106404	-0.000626706126549099	-0.0015973301817978534	6.326868442161081e-05
2
43000
Ar	-7.933423216306311e-06	-3.765242749627641e-05	0.0032231119080639273	0.0023443504192699176	0.0024920823016331083	-0.00014081440221560084
Ar	-1.724620781087184e-05	-2.3974372863123784e-05	0.0027435260238257405	0.00015219894498767823	-0.0006915844050006788	3.908742640422448e-05
2
43200
Ar	1.597657662920849e-05	-5.4406612423688685e-06	0.003222770853201531	0.002239431981850348	0.0036942515577617643	4.2445548777558326e-05
Ar	-1.137736599413542e-05	-2.465901380180183e-05	0.0027436593102799786	0.0009705054174380547	0.0005626605342520174	-4.318072728839251e-05
2
43400
Ar	3.3159880393574475e-05	3.048425656353324e-05	0.0032235460368729096	0.0010761239750823439	0.0031865851918523656	0.00010355472375054179
Ar	2.7717950548239993e-07	-1.3515749052212397e-05	0.0027431323177649824	0.0012623749081563588	0.001568238883836059	-5.0855386663685445e-05
2
43600
Ar	3.52971068456365e-05	5.307827575093162e-05	0.003224360526283157	-0.0006815655223566176	0.0011134129710530308	5.214496200181141e-05
Ar	1.1898351381369641e-05	4.126476827565505e-06	0.0027429494668255614	0.000984643672461552	0.0018342672113538334	1.468903671325978e-05
2
43800
Ar	2.040074391051979e-05	5.1171630871320396e-05	0.0032249328513073326	-0.002177285779303402	-0.0015274633688025364	5.173501176781781e-05
Ar	1.8362188429360312e-05	2.0432094637708308e-05	0.002743261555061342	0.00024147873067159847	0.0012736760009540852	5.085953935583869e-05
2
44000
Ar	-5.069498188135683e-06	2.451524210192847e-05	0.0032254224588129377	-0.0026942293236284207	-0.003564345239813466	4.970967077937911e-05
Ar	1.6292676160042473e-05	2.7677199215834214e-05	0.0027437394270336006	-0.0006586374194127901	7.92085735848699e-05	3.135047995485117e-05
2
44200
Ar	-2.9261763479955448e-05	-1.4597468944714873e-05	0.00322541583000133	-0.0019339648777572567	-0.003955411491030558	-6.159082071410854e-05
Ar	6.252208466280859e-06	2.167345505380185e-05	0.0027439473097191315	-0.0012794212569766314	-0.0012236521255558869	2.163715488082314e-05
2
44400
Ar	-4.016660567119451e-05	-4.797302629771998e-05	0.003224256067388325	-0.00015431999266233318	-0.0024363551201797584	-0.00017147513913701526
Ar	-6.98950930408785e-06	5.167155040025466e-06	0.0027442436460200373	-0.0012649230167009033	-0.0019330271673753247	3.5441533488286847e-05
2
44600
Ar	-3.228295733554437e-05	-5.952711483946726e-05	0.0032224483726440638	0.0016555181365818163	0.00023552511715053544	-0.00014390743756102222
Ar	-1.7108767511382905e-05	-1.4045706724232509e-05	0.002744509484267674	-0.0007079784725314228	-0.001757532390323349	-1.0628061073840057e-05
2
44800
Ar	-9.043731551083216e-06	-4.3332422736907624e-05	0.00322194997595398	0.0028110496111373126	0.0028801387660164516	9.481553973724529e-05
Ar	-1.981604372233487e-05	-2.7225309242639093e-05	0.0027435980604462776	0.00019740967880200005	-0.0007519228695067353	-0.00014875882445365823
2
45000
Ar	1.9499773131783194e-05	-6.433633946714142e-06	0.0032241248845106055	0.0026472953077506	0.004207659768297757	0.0002853068017897023
Ar	-1.3064345347896995e-05	-2.7762254159870795e-05	0.002741762132311322	0.0010872781241634479	0.0006455657033158964	-0.00017351987214612877
2
45200
Ar	3.9567083332547015e-05	3.439052922006739e-05	0.0032261542359665893	0.001199913642013268	0.0036173718358797147	7.995747627667005e-05
Ar	3.458181846451528e-07	-1.5211503336309795e-05	0.002740803094317069	0.001498989950065002	0.001776526912368899	-6.036585506057608e-06
2
45400
Ar	4.128973209975662e-05	5.998980187370841e-05	0.0032254238975188694	-0.0009052239329079532	0.0012837445153448424	-0.00020817965844745011
Ar	1.4404228994659004e-05	5.098760961914752e-06	0.0027422053858724613	0.0011825962510813282	0.002105380706883909	0.00027259795713368884
2
45600
Ar	2.2814331671266127e-05	5.778087187720639e-05	0.003222817655251982	-0.002638745669551751	-0.0017191610654995527	-0.00024788999453292335
Ar	2.1827539452924113e-05	2.3450535531409183e-05	0.0027453071256363384	0.0002392858241915069	0.0014224575499051653	0.00025431932579411844
2
45800
Ar	-7.583603362001959e-06	2.7864398168606948e-05	0.0032217261864329605	-0.0031805014671517813	-0.004038650189132213	6.185987724019051e-05
Ar	1.8909469033314705e-05	3.1067886588027846e-05	0.0027467589186290346	-0.0008084104211935027	3.975399308787098e-05	1.9927921614831125e-06
2
46000
Ar	-3.5679490820861807e-05	-1.6541988956213897e-05	0.003223914210722987	-0.0022079848115634727	-0.004470553558724337	0.0002759589765400961
Ar	7.156810927370913e-06	2.4180777980780325e-05	0.0027454389836656773	-0.0014375468676094169	-0.0013611901675306159	-0.00024456458043572044
2
46200
Ar	-4.78591789926556e-05	-5.4216077243080995e-05	0.0032261094263797254	-0.00011665748078625586	-0.0027422427403754938	0.00011190364008468786
Ar	-8.062485244866522e-06	5.627279578023636e-06	0.002743073555784639	-0.0014692301045669692	-0.002215751599556441	-0.00019349794922661378
2
46400
Ar	-3.752934410449341e-05	-6.688557493679814e-05	0.0032259860430900325	0.0020991865290166554	0.0003567357585950584	-0.00014276900093832914
Ar	-1.9981915117575302e-05	-1.651570992498983e-05	0.00274196250532201	-0.0007788692647593018	-0.0020225938750209854	-1.6742109306528713e-05
2
46600
Ar	-8.913110177796924e-06	-4.751376645115059e-05	0.0032239370805995683	0.0033859460711364035	0.0033839526421921193	-0.00022135582370173154
Ar	-2.2691407424705034e-05	-3.1563878461091036e-05	0.002742556887162963	0.00026885866647665047	-0.0008578334351856648	0.00012312968771228732
2
46800
Ar	2.4863785195918476e-05	-4.591110387326786e-06	0.0032223023208486717	0.0031186254990514463	0.004856910325192738	-6.199549899630678e-05
Ar	-1.4695540294420012e-05	-3.2158318538824854e-05	0.002743810575435899	0.0012567478447977718	0.0007749839368466967	9.67495016462083e-05
2
47000
Ar	4.802839616268545e-05	4.1921056891234623e-05	0.0032221814100675226	0.0013400750772127692	0.004067529321439295	2.711979799137167e-05
Ar	5.576243230773965e-07	-1.713983792685233e-05	0.0027445804276318344	0.0016967768055352985	0.0020833231434688342	7.149732733028683e-05
2
47200
Ar	4.9051031126274235e-05	7.024926812485845e-05	0.0032228789037358004	-0.0011220168429060724	0.0013277578831885934	0.00010259137358539985
Ar	1.647677979580721e-05	6.600603868965503e-06	0.0027452284829791963	0.0013309056104457923	0.002467150261292627	5.8363119263668775e-05
2
47400
Ar	2.6804499343565994e-05	6.611764979805976e-05	0.0032241082310230694	-0.0031364183578731952	-0.0021476966530876336	0.00015536908842158107
Ar	2.5052257325590066e-05	2.8071102613387943e-05	0.0027454905760081008	0.00030016111139981045	0.0016605698973125686	-2.9457879559674293e-05
2
47600
Ar	-9.120690311419315e-06	3.060720031547837e-05	0.0032258362013964023	-0.003751960975500301	-0.004682375533023837	0.00017350736938997712
Ar	2.2018126537812043e-05	3.653805401929078e-05	0.0027444948493457557	-0.0008837426459813584	-8.606374298222555e-06	-0.00015485582255421462
2
47800
Ar	-4.2169158982234484e-05	-2.036781426765715e-05	0.003226601346344881	-0.0025604784735008437	-0.005101538818848527	-7.722358985253519e-05
Ar	8.321388943794054e-06	2.7894245152153448e-05	0.0027428947272759912	-0.0017303045802162477	-0.0016729296611635266	-0.00011820097179968062
2
48000
Ar	-5.6248927462083276e-05	-6.278700524879628e-05	0.0032240445242057263	-0.00013350871815553502	-0.003002135782225387	-0.0003973587739478607
Ar	-1.0030338458573919e-05	5.690018924629227e-06	0.0027428829934025827	-0.001793699251528184	-0.002570711533289726	0.000120180069976633
2
48200
Ar	-4.4090425507411905e-05	-7.572600541358801e-05	0.00322033161570093	0.0024644486924546684	0.0005418444458718674	-0.00027482862637065024
Ar	-2.4666943644854047e-05	-1.957339190591192e-05	0.0027446383852534817	-0.0009909437135665851	-0.0022532874023852407	0.00017644194568046265
2
48400
Ar	-1.07265071020267e-05	-5.286116853936095e-05	0.0032197185039343607	0.003945037766249517	0.003854244022170862	0.00020487333691526842
Ar	-2.811129652920461e-05	-3.6164757144766196e-05	0.002745549479274693	0.0003506955223353243	-0.0009117749359524035	-4.9736306489886936e-05
2
48600
Ar	2.8766614706770995e-05	-4.0406514217720764e-06	0.0032237084999897246	0.00361717732844398	0.00550474241569396	0.0004905986184065425
Ar	-1.807961972262264e-05	-3.624232177002036e-05	0.002744070921235748	0.0015649579308682794	0.0008850351363013532	-0.00021628938395750087
2
48800
Ar	5.576735345931553e-05	4.81114075174759e-05	0.003227456300063192	0.0015278256945161774	0.004484276049138151	0.00015557832835609242
Ar	8.61823002595611e-07	-1.934466316607877e-05	0.0027426640092976964	0.0020711557379276485	0.002371559295397075	-3.430548261109479e-05
2
49000
Ar	5.683892738706113e-05	7.856767097856059e-05	0.003226422822413556	-0.0013720779295012572	0.001362709606267755	-0.00032274697337803665
Ar	2.022931502598839e-05	7.825819374085009e-06	0.0027437135427350436	0.0016288409031973217	0.002857895895583207	0.00022120699455232667
2
49200
Ar	3.036345494066426e-05	7.237138583374216e-05	0.003222370213526076	-0.003704227698510702	-0.002562290767823076	-0.00038494203720511566
Ar	3.050866144430861e-05	3.274676944020838e-05	0.0027462746069966074	0.00033289593274501473	0.0018839786582122947	0.00018826627552442226
2
49400
Ar	-1.1767418708715599e-05	3.102877041379288e-05	0.00322037355968447	-0.0043581695209247194	-0.005367891190983634	-1.1938082267565185e-05
Ar	2.636374689085901e-05	4.243985592823105e-05	0.002746783123833752	-0.0011325219025956862	-3.8732303214925615e-05	-7.572742683003234e-05
2
49600
Ar	-4.9949353708780146e-05	-2.6638780317964556e-05	0.0032219616720311627	-0.0029630954856056657	-0.005642392506537381	0.0002198837450939224
Ar	9.452477065577437e-06	3.185186123697788e-05	0.0027448589902832735	-0.0021586161504237793	-0.0020037344043213217	-0.00023205416799665674
2
49800
Ar	-6.566938648505389e-05	-7.320675017809483e-05	0.0032235723955566973	-4.601334019887571e-05	-0.003275553247205759	5.934357967841263e-05
Ar	-1.3030837222878331e-05	5.400675657689102e-06	0.0027431705542107976	-0.0021363976955128886	-0.003083387845326917	-6.494702856413622e-05
2
50000
Ar	-5.0389308380676594e-05	-8.622705595582678e-05	0.0032232149123482498	0.0029989497529659295	0.0007688403732997788	-8.740642162647247e-05
Ar	-3.0273785034843334e-05	-2.4607985444042096e-05	0.00274353026688404	-0.0011436922602525244	-0.0026553237943703085	0.00011148058565650593
2
50200
Ar	-1.0301310355848473e-05	-5.825952420395475e-05	0.0032227683245470433	0.004692813546687358	0.004612484489595986	7.94016435573128e-06
Ar	-3.347271719111826e-05	-4.363606804091339e-05	0.0027445074857580126	0.00050610106925795	-0.0009879924634043232	9.177992106254002e-05
2
50400
Ar	3.6464237669749375e-05	-9.64276919095444e-07	0.003223609175707886	0.004253414729551537	0.006388815365702907	0.00011404555648691851
Ar	-2.076919519902042e-05	-4.240965706454917e-05	0.0027446075502925928	0.0019280459592981847	0.0012451762450046634	-3.199389758881586e-05
2
50600
Ar	6.741965885902867e-05	5.8947393234362495e-05	0.003224203927499756	0.0016773628915553883	0.005087750291009234	-4.560990505147773e-05
Ar	2.29825333522314e-06	-2.0643573543495268e-05	0.002744698864418087	0.002452181815223351	0.002956395540376525	7.245708129726619e-05
2
50800
Ar	6.697860193113994e-05	9.229395725378105e-05	0.0032226952097670863	-0.0017808911929592627	0.0012982733503045288	-0.0002268748561340522
Ar	2.4964329139576024e-05	1.1739054276829075e-05	0.0027460312057160183	0.0018712419612855664	0.0032635470003428064	0.00016664627247228858
2
51000
Ar	3.440668170922807e-05	8.238470597949069e-05	0.0032211104797299525	-0.0044896543834660125	-0.0032212539180760057	-3.640167435864876e-05
Ar	3.6349383823385984e-05	3.929221077204234e-05	0.0027471327138092207	0.00031795673677360707	0.001999548471397029	1.0367767877834061e-05
2
51200
Ar	-1.571601238756296e-05	3.2749799396655216e-05	0.003222461625952107	-0.005144811816162662	-0.006311735855894456	0.00028475255992579414
Ar	3.063236909511588e-05	4.8401531478309435e-05	0.002745538406052455	-0.0014154664351095933	-0.0002558460036542182	-0.000286856272367392
2
51400
Ar	-5.993763026988752e-05	-3.404741304664605e-05	0.0032253852541754974	-0.003316427123890749	-0.006505689547203658	0.00017471574275988594
Ar	1.0118036767972005e-05	3.457307602403235e-05	0.0027427746815989226	-0.002510880961602688	-0.0024092016667176127	-0.0001974811083987498
2
51600
Ar	-7.64799764121e-05	-8.645360150352874e-05	0.0032247540364508686	0.00016354199247040717	-0.0035094703609171093	-0.00029610669551362974
Ar	-1.603532992841217e-05	3.916823309010367e-06	0.0027428769028305677	-0.0024859321754410937	-0.0034936500306668	0.00019217016259895134
2
51800
Ar	-5.679549476151883e-05	-9.828034779487386e-05	0.0032206934455406475	0.0036337811143249223	0.001269898245886961	-0.0004072090848449004
Ar	-3.5535806009616015e-05	-2.9877608991251615e-05	0.0027459940249245944	-0.001210471331593831	-0.0029546155042933526	0.00032205945912175074
2
52000
Ar	-9.181180127877174e-06	-6.31069363153031e-05	0.0032188338826323946	0.005504577429995979	0.005497363610022709	9.333084651102275e-05
Ar	-3.8503540640344756e-05	-5.0139789865914356e-05	0.00274749939863061	0.0006434988772196402	-0.0009475851938061699	-8.090211624024095e-05
2
52200
Ar	4.4528708447111316e-05	3.2304110701718856e-06	0.0032219235547337305	0.004806001075810432	0.007229877500573848	0.00045109121580146414
Ar	-2.3052088150023687e-05	-4.693237569516628e-05	0.0027451511895353093	0.0023157739033349166	0.0015810101617160443	-0.00030350865690556653
2
52400
Ar	7.873552924124055e-05	6.996661049040904e-05	0.0032255779053355573	0.0017423439908335035	0.005539597606411112	0.0001914927034168991
Ar	3.994865576100278e-06	-2.114486908163371e-05	0.002743051077391939	0.0028567363274483457	0.003394117578581373	-1.7123266622147343e-05
2
52600
Ar	7.59716363355394e-05	0.00010451146495471353	0.0032249728003978166	-0.0022700372145502217	0.001070991984761248	-0.000273888016580839
Ar	2.976340509958261e-05	1.567365538293583e-05	0.0027448962976229403	0.0021007429103698278	0.0036596390698527825	0.0003284833820587711
2
52800
Ar	3.652475578230342e-05	8.958653076026706e-05	0.0032215265138497316	-0.005315727191118655	-0.003955271281093833	-0.0002840711869704259
Ar	4.2316698870368694e-05	4.61476087751478e-05	0.002747945216350452	0.00029572616180714034	0.002148718468750259	0.00017851549496897048
2
53000
Ar	-2.2226768785236735e-05	3.132546698579353e-05	0.0032209451935290897	-0.0059478535132558566	-0.007262076580156861	0.00014746144958842198
Ar	3.517254621980073e-05	5.512843587742805e-05	0.002747695222364061	-0.0016783941571917513	-0.00043067321530273594	-0.0001993293147464904
2
53200
Ar	-7.298928008529155e-05	-4.412357162556106e-05	0.0032229611452596874	-0.003730576952664605	-0.007184251431335207	0.0001581612924796871
Ar	1.1302483540498884e-05	3.8190920022897654e-05	0.002745342784619321	-0.0029265357711221606	-0.0028497835159421963	-0.00019852592466992216
2
53400
Ar	-9.045744023941242e-05	-0.00010054997152269185	0.0032227356447669634	0.00039607856861422435	-0.003608102510758278	-0.00020144586335542493
Ar	-1.860535510168899e-05	2.462167875387791e-06	0.002744936677376326	-0.0028175833029317732	-0.004026945446087404	0.00013441469751251028
2
53600
Ar	-6.53462715881302e-05	-0.00011031936028081337	0.00321989973594631	0.004407149131010813	0.0017542478805449534	-0.0002762190649412383
Ar	-4.033111501460742e-05	-3.5683545470548975e-05	0.002747165328564513	-0.0013543427633196596	-0.0032663702611888203	0.00022963636060434851
2
53800
Ar	-8.618761207802372e-06	-6.764541425703642e-05	0.00321938071895697	0.006467889762022617	0.00646432179067485	0.0002241750357845705
Ar	-4.326154208394593e-05	-5.7514787043910586e-05	0.0027479345854777367	0.0008099992046873627	-0.000918189272354713	-0.00014027553554257416
2
54000
Ar	5.4149022719560424e-05	8.881899432215019e-06	0.003223405562290332	0.005562032621192372	0.008217000437879287	0.0004540875512672052
Ar	-2.5457596494797028e-05	-5.2291495010644784e-05	0.0027450572505290844	0.0026219287790909076	0.001921497443087637	-0.00032457723685893724
2
54200
Ar	9.297666880345649e-05	8.33973892132959e-05	0.0032256504700870175	0.001857745753916642	0.006011749441959996	-9.303216279382326e-05
Ar	5.3189413298354476e-06	-2.1696380112918663e-05	0.002743571258161927	0.003266812532628285	0.003968122632128342	0.00010180289638987135
2
54400
Ar	8.797014315831273e-05	0.0001192696518361697	0.0032219811650542785	-0.002855248934259311	0.0008406666781466934	-0.0005429257778681539
Ar	3.464813399608373e-05	2.047667841980897e-05	0.0027469226206622353	0.0023215257671581387	0.004124726536339243	0.00047398687088258797
2
54600
Ar	4.0322173574234255e-05	9.878754844991577e-05	0.0032178214622654365	-0.006302559404127054	-0.00477978534717704	-0.00015355053256010235
Ar	4.7798695285426407e-05	5.3788076390376806e-05	0.002750695419845469	0.00021293920893298185	0.0022507649754456727	0.000152440237311117
2
54800
Ar	-2.8632088035786617e-05	3.0498279683201673e-05	0.003219931032491523	-0.006924092116506331	-0.008358712332718548	0.0005098809645277369
Ar	3.867681766549193e-05	6.207043953661791e-05	0.0027493323545066525	-0.0019690504211104846	-0.0006898792725353129	-0.000405221079058268
2
55000
Ar	-8.667423092735701e-05	-5.473643825066856e-05	0.0032253831909708113	-0.004160428495020762	-0.007962636455095184	0.00040771137731928525
Ar	1.1179028872822823e-05	4.0774233001965845e-05	0.002744823101859441	-0.003318739811991532	-0.003397858304281631	-0.00035364829252755006
2
55200
Ar	-0.00010449645519873981	-0.00011545891796915256	0.0032254282721183537	0.0007565685046135364	-0.003656556021056181	-0.000375258599576396
Ar	-2.2803604604081273e-05	-8.371481693247107e-07	0.002744326400249699	-0.003190581132051364	-0.004586416726486242	0.00024323301013075234
2
55400
Ar	-7.256398864416576e-05	-0.00012182543481956125	0.0032198273221385413	0.005370741136121804	0.0024414119803134126	-0.0005645907161735082
Ar	-4.723711951666726e-05	-4.3215253137070704e-05	0.0027479830429741206	-0.0014544966674006235	-0.003546562091958697	0.00037232864051034377
2
55600
Ar	-5.051297512976286e-06	-6.996160496798389e-05	0.00321703477229886	0.007590843899787276	0.007525245884911717	8.449875986585903e-05
Ar	-4.95445892903251e-05	-6.548917908953453e-05	0.0027496106956657112	0.0010082262982924067	-0.000706367095611667	-0.00010601988182839056
2
55800
Ar	6.735681271610231e-05	1.695165282294703e-05	0.0032206188150273357	0.006298576798574652	0.009143653838451811	0.00047097481588470234
Ar	-2.8518460816160377e-05	-5.63086547024556e-05	0.00274660746260809	0.0030553506628267016	0.00245573443741526	-0.00036559129290536654
2
56000
Ar	0.00010991862802457938	9.805618444933266e-05	0.0032235340488343148	0.001821198932199606	0.006365775376747761	2.331944493227761e-05
Ar	7.0616947878802285e-06	-1.9921773956615804e-05	0.0027448472564890634	0.003758581536084527	0.0045473675417727465	8.978806278903604e-05
2
56200
Ar	0.00010039912078907784	0.00013331611060622434	0.0032210615292095506	-0.0036550007970985107	0.00037951533711562093	-0.00042745010201116233
Ar	4.054384212970057e-05	2.738221019741053e-05	0.002748130359709564	0.0026365883403376912	0.004510603777285439	0.0004880281618572104
2
56400
Ar	4.261971186910604e-05	0.00010524453805867964	0.003217961444153616	-0.00747534097842894	-0.005778774603156914	-3.39081813148575e-05
Ar	5.521644677888872e-05	6.259014916005373e-05	0.0027514118057336435	0.0001552391253126673	0.002232268486862093	4.305037297516389e-05
2
56600
Ar	-3.756923642448924e-05	2.5777538180318426e-05	0.003220961076569054	-0.007897801580389895	-0.009475180195365737	0.0005222070979786134
Ar	4.348820553213826e-05	6.850164171254238e-05	0.0027488142608826063	-0.0023973786685390856	-0.0011022676467256649	-0.0004983825490566368
2
56800
Ar	-0.00010242084663327343	-6.874987822586554e-05	0.0032250773500997684	-0.004476549832130538	-0.00862714226920923	0.00014885500559836496
Ar	1.0548529655390123e-05	4.196351246456815e-05	0.002744479845679111	-0.003943453748210375	-0.004010525650257713	-0.000210802604987803
2
57000
Ar	-0.00011913795753384771	-0.00013235772380522308	0.0032224831921440857	0.0012851894419580988	-0.0035015649736512867	-0.0006358671175585066
Ar	-2.9287001506495465e-05	-5.608906412554814e-06	0.002745757640134729	-0.003696731157562455	-0.005110584377759242	0.00043049404334929476
2
57200
Ar	-7.86073577868259e-05	-0.00013340491083395348	0.003215477039104553	0.006473618616324722	0.0033428317129791402	-0.0005364667112467624
Ar	-5.6738513386483225e-05	-5.1798911239684486e-05	0.0027507141526546806	-0.001545132333053972	-0.0037202761003249517	0.0004137124730051368
2
57400
Ar	6.484139116124988e-07	-7.021862842148402e-05	0.003215180343410316	0.008761034147784478	0.008799532724791838	0.0004998431279494173
Ar	-5.788196544915181e-05	-7.372155652943347e-05	0.002751290387129785	0.00135067905149503	-0.00047185913458828917	-0.0003235193693997636
2
57600
Ar	8.279623423660323e-05	2.894717499117047e-05	0.003222448466887292	0.006938082721186955	0.010205618332881389	0.0007299972125401376
Ar	-3.161786104692016e-05	-6.058542884205408e-05	0.002746039642161788	0.003719743282457627	0.002982056473675787	-0.0005113336378074122
2
57800
Ar	0.00012740022951032107	0.00011670486193662875	0.003225751566831081	0.0015680825478883306	0.0065520779760620046	-0.0001466702437110182
Ar	1.1185089103698089e-05	-1.8112770073225553e-05	0.002744299956378532	0.004495650425665605	0.005195008614808968	0.00022629942869844126
2
58000
Ar	0.00011136387886842221	0.00014914615555710443	0.003220155721162278	-0.004665742097699585	-0.00030535069461220534	-0.0007857124641345298
Ar	5.065747897438434e-05	3.503554326954538e-05	0.0027496976931286983	0.003059190136554999	0.004967388224135659	0.0007153770661725114
2
58200
Ar	4.142239844855705e-05	0.0001110587557545964	0.0032143864091586506	-0.008795305655903321	-0.007034786649924417	-0.00015097767576093403
Ar	6.675773425678627e-05	7.254812998212277e-05	0.002754570498944195	3.548074685835854e-05	0.002214496886130134	8.378397215437765e-05
2
58400
Ar	-5.117109142945815e-05	1.8797065910220237e-05	0.003217853686016543	-0.0089511255397472	-0.010679163132189919	0.0006730549685673803
Ar	5.153002998438884e-05	7.564264300525765e-05	0.0027511795837407388	-0.0029522877485770715	-0.0016013881668179195	-0.0006284751941249539
2
58600
Ar	-0.0001227475752627085	-8.518195263074112e-05	0.0032236132952522508	-0.004693744325823842	-0.009235133815295964	0.0002729863196057674
Ar	1.172939030743485e-05	4.2861012743372196e-05	0.0027457065112636214	-0.004719465203448804	-0.004722654919400391	-0.00030590145620199813
2
58800
Ar	-0.0001366317435208839	-0.00015007051975350107	0.003221656713360964	0.0020667043781239483	-0.0031856254382106623	-0.000606155695706294
Ar	-3.56721595720722e-05	-1.1886946712473807e-05	0.0027466476484102297	-0.00434271693089956	-0.0057711266829580145	0.00043990866302317405
2
59000
Ar	-8.452303194175342e-05	-0.00014331893064381638	0.003214836374030855	0.007899952921458526	0.004458603413326145	-0.0005140723764714575
Ar	-6.76117359730036e-05	-6.300565616743478e-05	0.002752196016870464	-0.0017685218909703217	-0.00398188298048024	0.00042741790267650763
2
59200
Ar	9.622508356690348e-06	-6.748447421767681e-05	0.0032148897157468713	0.01020069939826943	0.010149097738213918	0.0005283144518130591
Ar	-6.78802443669911e-05	-8.461621727161936e-05	0.002752309380621435	0.0017227070339489085	-0.00018774770208295215	-0.0003872734601239308
2
59400
Ar	0.00010301350312474975	4.3803262698447163e-05	0.0032218499168087983	0.00767207215444653	0.01116926065581835	0.0005866195072776485
Ar	-3.563157932185067e-05	-6.632070780577606e-05	0.002747410047424069	0.004496460730362939	0.003730899917925741	-0.000377082723626606
2
59600
Ar	0.00014920583844068287	0.0001367578511017773	0.0032228918337893825	0.0011768360937764498	0.006615774805416106	-0.00042667835452169113
Ar	1.5184965081670407e-05	-1.549313901638527e-05	0.0027476166715730533	0.005261853675389152	0.006010368768752607	0.00046034753813194396
2
59800
Ar	0.00012431997109865723	0.00016503226439802912	0.003215365694304223	-0.005950254555095453	-0.0011671169703033927	-0.0008139853180848138
Ar	6.10093321691391e-05	4.4370717619549705e-05	0.0027544443174756347	0.003471342856366866	0.005444342231348757	0.0007469496682725498
2
60000
Ar	3.92364023020348e-05	0.0001149784797246678	0.0032120668780373	-0.01042766691437096	-0.008483120037410136	0.0003107014590102105
Ar	7.856623006419405e-05	8.384021471234599e-05	0.002757740678447255	-9.287575921570199e-05	0.002123486360639009	-0.00023434271270560302
2
60200
Ar	-6.82535725565983e-05	7.833105041996325e-06	0.0032204486399346212	-0.010183332662756674	-0.012068854115266314	0.0010608838203330462
Ar	5.916246682940517e-05	8.363773919598121e-05	0.0027509317940767105	-0.003659547736720731	-0.002179674135419706	-0.0008759289138035731
2
60400
Ar	-0.00014651665632128708	-0.0001061767775529533	0.003226872948037443	-0.004743152798874711	-0.009754466160832823	-4.202596820660523e-06
Ar	1.0475755928567498e-05	4.322740657720015e-05	0.002744942434044897	-0.0057189808093315204	-0.005626709885049712	-0.0001350250567639136
2
60600
Ar	-0.00015461907569333988	-0.00017038979236109317	0.0032200701015731043	0.00317575232793952	-0.002523151683039497	-0.001181596933601862
Ar	-4.602662937641251e-05	-2.0321225306507135e-05	0.002748944762099303	-0.005064957585859592	-0.0065229570041570855	0.0008290488828208265
2
60800
Ar	-8.822011093057507e-05	-0.0001533308878891423	0.0032091849969672	0.009586111838757573	0.005800631346188156	-0.0006769382873114853
Ar	-8.199851860749249e-05	-7.585157338912327e-05	0.002756975370822393	-0.001799798563373413	-0.004066921254618128	0.0005134571047792356
2
61000
Ar	2.293642351888344e-05	-6.275734764215045e-05	0.003210813536537648	0.01179922310306488	0.011636258074148196	0.0009410522775654649
Ar	-7.911918817194986e-05	-9.501130937622482e-05	0.0027556873257044306	0.0023369463766471266	0.0003802029795006132	-0.0006924902141974194
2
61200
Ar	0.00012827601032195868	6.0916386699658505e-05	0.0032218293120488887	0.008295617132430447	0.012042286470849822	0.0008927302536484221
Ar	-3.865993783260937e-05	-6.911389962984868e-05	0.002747797141256626	0.005490998296554711	0.004631923079238015	-0.0005798708023015797
2
61400
Ar	0.00017383554711616553	0.00015744315339319125	0.0032239903864914837	0.0004007137728212696	0.006380626580839493	-0.0005147048200009469
Ar	2.2176937417360135e-05	-8.716735181999367e-06	0.002747593876379047	0.006168665761247032	0.006929303717213711	0.0005420976531607168
2
61600
Ar	0.00013563807326149723	0.00017819541216019348	0.003215002417796088	-0.0077305972820123905	-0.0023734986497748	-0.0009715935492143182
Ar	7.473828957061598e-05	5.806154836039104e-05	0.002755844041398404	0.0038302986036034543	0.005825514456441358	0.000842444826919754
2
61800
Ar	3.1230346749895586e-05	0.00011403141219451075	0.003210742668662947	-0.01239013467703329	-0.010025336148872872	0.00030084691120416893
Ar	9.229989969588248e-05	9.76059844531404e-05	0.002759334326877913	-0.0004642775153850335	0.001748126678900838	-0.0003298254263173013
2
62000
Ar	-9.318218633222851e-05	-7.147310237164062e-06	0.00321852906596682	-0.011409335393534226	-0.013218598297072531	0.0009107750115019681
Ar	6.632705743296345e-05	9.076759125105312e-05	0.0027518499328834643	-0.004565662588046668	-0.0030814071889267896	-0.0008839626725300957
2
62200
Ar	-0.00017650306853314644	-0.00012811749073885262	0.0032226262282863283	-0.004463225889928538	-0.009881988985074966	-0.0002765953781445108
Ar	7.2518832523470326e-06	4.038186310610434e-05	0.0027472816471729796	-0.006787114631494063	-0.006622587929549125	9.769995352535504e-05
2
62400
Ar	-0.00017482457257582336	-0.00018800848303551087	0.003214004918459517	0.004773236799085729	-0.00158738794286193	-0.0012115858697718837
Ar	-5.804304249850532e-05	-3.12777975242714e-05	0.0027535404929949015	-0.005678111185539896	-0.007083130840912216	0.0009766616843837328
2
62600
Ar	-8.855146879302351e-05	-0.0001578871028407195	0.0032057014664413287	0.011790652160910376	0.0073517843095903136	-0.0001144727402549498
Ar	-9.641720425277853e-05	-8.874296699094841e-05	0.0027609725693038766	-0.0016535337187614301	-0.003898490785921004	0.00020218778730237682
2
62800
Ar	4.376580716240766e-05	-5.1299367081795e-05	0.003213543329034216	0.013595415678624663	0.013163231675004081	0.001418184838685312
Ar	-8.923787306546233e-05	-0.00010326428303852246	0.002755936466032379	0.0030572362929626264	0.001062303132574815	-0.0010085910492311848
2
63000
Ar	0.00016024002468537353	8.385227517646208e-05	0.0032255262657713032	0.008600785763849789	0.01264970394174234	0.0006134259711993975
Ar	-3.936232980011104e-05	-6.888047206005537e-05	0.0027474463292611927	0.006587075391542764	0.005591072845579997	-0.0004012948414646601
2
63200
Ar	0.00020008299371972586	0.00017956034285756753	0.003222363138387818	-0.0009722402539831723	0.005639202751541499	-0.0011432550071719101
Ar	3.228875949427446e-05	5.772207195479727e-07	0.002750485664977418	0.007122119284596937	0.007719317068935071	0.0009500926822516012
2
63400
Ar	0.00014270096259380048	0.00018791488265802676	0.0032079864521350437	-0.010003965905553905	-0.003961450536685347	-0.0012695869039075006
Ar	9.080276364863924e-05	7.217046892716078e-05	0.002761942592223697	0.004045561107392338	0.0059088221347705396	0.0009977835556082934
2
63600
Ar	1.5064819976391528e-05	0.00010657039281954293	0.003205162009632756	-0.01459570763236723	-0.011724671747400125	0.000811933322169457
Ar	0.00010649441465820442	0.00010854597699020241	0.00276362907037814	-0.0009877242502039048	0.0011206561452667535	-0.0007544692256147556
2
63800
Ar	-0.00012609523443610356	-2.904976293109031e-05	0.0032180617340367332	-0.012368240856837076	-0.014279491260515765	0.0012700152274809473
Ar	7.276989074958731e-05	9.360878807240595e-05	0.002752153728841236	-0.0055790565870130985	-0.004038194758934619	-0.0011297514149269615
2
64000
Ar	-0.00020982437454510636	-0.00015362964680464876	0.0032232593560186824	-0.0035972430624466962	-0.009502753249055838	-0.0003806673509366772
Ar	2.1309690603708857e-06	3.331226732960899e-05	0.0027470145786230396	-0.007991825024061067	-0.0075825496829214694	0.00025439248735827406
2
64200
Ar	-0.00019149437344136028	-0.00020285231725341324	0.0032124716432593635	0.007054821545390364	3.7759542921063395e-05	-0.001462147964536057
Ar	-7.333751773490144e-05	-4.556441366127326e-05	0.0027559486135845792	-0.006395863424830707	-0.007494510467098239	0.001258847865618154
2
64400
Ar	-8.061301647426024e-05	-0.00015410460309897136	0.003203017875315401	0.014294534980101269	0.009314493502405497	-5.785487804241451e-06
Ar	-0.000114400162971299	-0.00010320625569665519	0.0027644778697359204	-0.00149628948003574	-0.003558967466708063	0.0001050063043580121
2
64600
Ar	7.3964318942342e-05	-2.9800898928579105e-05	0.0032124475691727174	0.015334794042775218	0.014571440103421351	0.0014756241389051472
Ar	-0.00010147532701527913	-0.00011134290569784756	0.002757783434976388	0.003990956908937472	0.0019420828688817495	-0.0011011537063123024
2
64800
Ar	0.00019883832071147328	0.00011292916435230132	0.0032229504632672553	0.008422596416067026	0.012657138622936602	0.0002897101362405623
Ar	-3.951069694009706e-05	-6.672675820611758e-05	0.002750308771776319	0.007933916815187887	0.006689737460641681	-0.00012332488038421178
2
65000
Ar	0.00022747348927868298	0.00020111518827468713	0.003216192995199378	-0.002925280666871202	0.004233749981758298	-0.0014328191490138105
Ar	4.50723343302775e-05	1.1988191403854701e-05	0.002756550566813547	0.008221716106719528	0.008402708867419046	0.0012270055447083665
2
65200
Ar	0.0001458511608604222	0.00019155715474747427	0.003201675880469877	-0.01269036094396092	-0.0059870989423777	-0.0009008029861344041
Ar	0.00011023926055975578	8.641993879849673e-05	0.0027682190699309162	0.004188140181647571	0.0057747255128864205	0.0006759903880798519
2
65400
Ar	-8.082309894286403e-06	9.055765849034424e-05	0.003205186166947729	-0.016960679294907362	-0.013495434858935285	0.00146240971930536
Ar	0.00012275383453122385	0.00011805801236773775	0.0027643564628071693	-0.0017129940324285707	0.00034451600822305473	-0.001339870964433056
2
65600
Ar	-0.0001653739080491273	-5.7563465169831254e-05	0.003221035531907495	-0.01298517852668439	-0.014766275474957834	0.0011654679936589276
Ar	7.759417524644583e-05	9.332740288761731e-05	0.0027500708620672013	-0.007059075832546772	-0.005115352754116707	-0.0010588405283251227
2
65800
Ar	-0.00024365292747692007	-0.0001789153726525277	0.003221969739766468	-0.0019408540228531088	-0.008389299864287613	-0.0010289984527880418
Ar	-8.232865335537441e-06	2.2778346391424964e-05	0.0027480033992566565	-0.009386426653853194	-0.008439084665222456	0.0007178259809017956
2
66000
Ar	-0.00020176779255011665	-0.0002117279614035231	0.0032053508896122316	0.009883120665115604	0.00200216475011802	-0.0017887124917860672
Ar	-9.39099234274975e-05	-6.154003442228337e-05	0.0027611970023936018	-0.006952963461813916	-0.007644727008309737	0.0015300551404979817
2
66200
Ar	-6.175898090500159e-05	-0.00014317840711975397	0.003197490691576875	0.01711673561679181	0.011214136026065217	0.0006215446160599538
Ar	-0.00013513274159949115	-0.00011626989822912184	0.002768924618548728	-0.0009962646804545458	-0.002841168316202675	-0.0002922756051649189
2
66400
Ar	0.00011526533203555503	-3.242061120421666e-06	0.0032126484508251175	0.016676717345979235	0.015601615965791816	0.001772360233799763
Ar	-0.00011329689446864293	-0.00011521555556727357	0.0027585863139724903	0.005254635388504197	0.003049952019822089	-0.0012489417236921168
2
66600
Ar	0.0002412502902013346	0.00014158084318763162	0.0032227022214219264	0.00728219741975954	0.012002728420042534	-5.693447441328183e-05
Ar	-3.587162485225378e-05	-5.908201447115632e-05	0.0027522871077291034	0.009607603839867753	0.007777804290833239	0.00018378959041491242
2
66800
Ar	0.000248142080038342	0.00021615093726736465	0.003211649361056581	-0.005877974007055782	0.0023214282655975773	-0.0018329087943730943
Ar	6.278705582337505e-05	2.7880649152686795e-05	0.0027616890619249655	0.009251726235877058	0.008825717967027285	0.0014558649824629693
2
67000
Ar	0.00013480983344319462	0.00018611751201449674	0.003196777267343259	-0.015872591214385817	-0.008037749803958993	-0.00047567433521833674
Ar	0.0001324597068041742	0.0001019050647966045	0.0027729928378801955	0.004072686027281144	0.0052454955316852065	0.0002568664937760184
2
67200
Ar	-4.7506939019070294e-05	6.687284797288807e-05	0.003206394186607937	-0.019159765242324694	-0.014954489823461386	0.0019313873047910838
Ar	0.00013921248427206854	0.00012520435758265925	0.0027636102867311598	-0.0027783062417017232	-0.0006871282419301643	-0.0017445360760178581
2
67400
Ar	-0.00021463925432163027	-8.857041416726277e-05	0.0032222925554142995	-0.012623499496425331	-0.014679331849382225	0.000743204538883465
Ar	7.92846217232916e-05	8.875962682535414e-05	0.0027494356131177043	-0.008810702686010323	-0.006351795975312562	-0.000709295233481121
2
67600
Ar	-0.00027653190326110046	-0.00020056191776434047	0.0032169473198944316	0.0007719143582358507	-0.006727005350654902	-0.0016827627498982437
Ar	-2.317599423850212e-05	8.00943242328753e-06	0.002752707251030335	-0.010822413635355079	-0.009133128529458065	0.0013070593025181338
2
67800
Ar	-0.0002023971057033181	-0.00021307826208919457	0.003196768316664241	0.013357185676593924	0.004213769607183854	-0.0016881877495259483
Ar	-0.00011778389309372358	-7.860739283175802e-05	0.002769439933149587	-0.007202516885628982	-0.007361918924754487	0.0015119828456841605
2
68000
Ar	-2.9168215101396384e-05	-0.00012416999259255224	0.003195230340733266	0.02010491272974418	0.01294690643694713	0.001488558721823239
Ar	-0.00015559440000219735	-0.00012599358835983391	0.0027723920245801567	-0.00017600137660243775	-0.0018011398374487377	-0.001039681504727025
2
68200
Ar	0.0001675092799992674	2.7155579567691734e-05	0.0032154359106317016	0.017330014409038252	0.01597238118370567	0.0018338030645991595
Ar	-0.00012081313915895123	-0.00011308879925062509	0.002757889176527492	0.006987437887975952	0.0043329758680068515	-0.0012661523091513443
2
68400
Ar	0.00028500965552879566	0.0001667309318747449	0.0032222808808917485	0.00507504171575031	0.010651118955794805	-0.0006265461700334592
Ar	-2.528213139188353e-05	-4.539159468541561e-05	0.0027539750540270832	0.011323164805644962	0.008671478959740495	0.0005795726277260322
2
68600
Ar	0.0002605697304300706	0.0002221646606431534	0.003205893829335849	-0.009577645984334908	6.713266713027243e-05	-0.002197548780178796
Ar	8.67269751595702e-05	4.639316443566672e-05	0.0027672933476214035	0.010028959087820378	0.008874897070747857	0.001726781899149438
2
68800
Ar	0.00011025501140997521	0.00017040319022133645	0.003192583065932228	-0.019388809991854588	-0.009979458838851237	0.0001599036182700912
Ar	0.00015720913088819945	0.00011571347763401277	0.0027770312041718423	0.0035413506648202327	0.004359331294222204	-0.0002946849690308996
2
69000
Ar	-0.00010003525408633232	3.608231577385705e-05	0.0032074027965378685	-0.020866025466451405	-0.01586711562866078	0.0020494647943316573
Ar	0.00015371729462255006	0.0001281913913462174	0.002763344554745849	-0.00429638044958577	-0.001919034317714023	-0.001805273786304828
2
69200
Ar	-0.0002681165087566048	-0.00011889367063465531	0.003220319183317876	-0.011091529429613094	-0.013674050713189896	0.00015823994538121964
Ar	7.545797817389711e-05	7.952638414641419e-05	0.0027518501477797027	-0.01076523102883761	-0.00745754667794458	-0.0001806994990787681
2
69400
Ar	-0.0003020234550661514	-0.00021350074150561422	0.0032093783597101078	0.004530079787366954	-0.0044455011723279385	-0.0020899130407422946
Ar	-4.387352132971623e-05	-9.302990185288786e-06	0.002760470428424123	-0.012064954404672671	-0.009566768408912404	0.0017306615122897055
2
69600
Ar	-0.00018767676837549706	-0.00020255190140142595	0.00318999402251076	0.017271692546398872	0.0063682658086977595	-0.0009839724364652054
Ar	-0.00014439347815373892	-9.479092238135187e-05	0.0027778132552149486	-0.0070866393867223	-0.00670046669338225	0.0010122500682495544
2
69800
Ar	2.0035901375524293e-05	-9.5793087477196e-05	0.003198899634209074	0.022796685154540575	0.014299085470405778	0.002347235416190525
Ar	-0.00017546707776063968	-0.00013228213709856	0.0027726809506412728	0.000997529658618427	-0.0006256713785251654	-0.0017093446646190933
2
70000
Ar	0.00022800643254714846	6.075826018239065e-05	0.003220697344324379	0.016721587362487477	0.015546169798177871	0.001333158231405807
Ar	-0.00012353107986342283	-0.00010682177331620069	0.002756723605289987	0.009094434631877202	0.005558230528113119	-0.000977104401774381
2
70200
Ar	0.00032328375623967955	0.00018678171234361542	0.0032191505058216	0.001488235764999109	0.008519600325812036	-0.0015932753536393846
Ar	-7.580442492157879e-06	-2.9145000421510364e-05	0.0027576056774839533	0.013099068344994587	0.009339494361645112	0.0011450417064607333
2
70400
Ar	0.0002573689791276058	0.00021826556577696663	0.003195685647921318	-0.01391389744243447	-0.00233906177228756	-0.002410222576226993
Ar	0.00011579056294877347	6.427266760265191e-05	0.002774729918584636	0.010409111634976547	0.008487133390850747	0.0017343545445892988
2
70600
Ar	6.73000803320601e-05	0.00014587733089021823	0.003188009280415381	-0.02286638995001071	-0.011626830398706439	0.0012542163386290465
Ar	0.00018282038206554016	0.00012470680431939075	0.0027790189350330665	0.002590911961469366	0.0031419458615798103	-0.0012244903271827568
2
70800
Ar	-0.00016570167675730734	1.4811921838020915e-06	0.0032092390960437494	-0.021473183239465676	-0.015994545169406394	0.0020830354892148657
Ar	0.0001645194998274686	0.00012412737241515983	0.0027605541450665006	-0.006293153595726947	-0.00326743135401934	-0.0017317327058340144
2
71000
Ar	-0.00032050604551063863	-0.0001449737720175891	0.0032183573438588223	-0.008017444510629239	-0.011908054697358884	-0.0004800106490075749
Ar	6.45685433998079e-05	6.39002058740166e-05	0.0027532249349853837	-0.012868334566690858	-0.008311363656596607	0.00044053747715964433
2
71200
Ar	-0.0003132397900065061	-0.00021653419696358736	0.003202038570910588	0.009251845319533056	-0.001862153968895781	-0.0023806363414156173
Ar	-7.122921275292244e-05	-2.8604637993071187e-05	0.0027676199916236814	-0.013066803791435093	-0.009391334008109048	0.002121536149337066
2
71400
Ar	-0.00015404609475877892	-0.00018226826004606855	0.00318583815752648	0.021361823982129307	0.008322672604604507	1.3939988567170753e-05
Ar	-0.00017321425976896278	-0.0001064121738496789	0.0027831298864464684	-0.006451891051700731	-0.005427777886797303	0.00019223062393210595
2
71600
Ar	8.574245628840393e-05	-6.1023125886797204e-05	0.0032031648862495	0.024576678899356684	0.015039570795879042	0.002568217488454325
Ar	-0.00019289723016666636	-0.00013009570359237628	0.0027706457259555916	0.002722785105488612	0.0007700626006547978	-0.0019436408756097194
2
71800
Ar	0.0002910988841349332	9.276879004218799e-05	0.0032207257981638274	0.014444800334401216	0.01425971893510591	0.00047606635070391494
Ar	-0.00011978451326244398	-9.182052403022072e-05	0.0027570410348303764	0.011351439485560355	0.0065973454433562485	-0.0004274177041253678
2
72000
Ar	0.00034890403649709867	0.0001985366680481015	0.003210481752000168	-0.0033019552825592816	0.005985437676472631	-0.002327984477310076
Ar	1.5685308081980523e-05	-8.566735137079744e-06	0.002764175839092263	0.014578476631235742	0.009365815051192435	0.0017093031234923159
2
72200
Ar	0.00023420984802292942	0.00020460687134221737	0.003185307392015625	-0.01850046971866375	-0.004592201071561663	-0.0017891069362317349
Ar	0.00014583061074529308	7.936865310554316e-05	0.002782914112536408	0.010170029492944386	0.007343304483381099	0.0013013810611921433
2
72400
Ar	5.302193043451922e-06	0.00011503371147384377	0.003189346063080203	-0.02577883798910783	-0.012808785394492952	0.0023435209316195935
Ar	0.00020413265779432638	0.0001254832695403131	0.0027779650107364663	0.0012421436937873767	0.0016374190522541571	-0.002052334873281049
2
72600
Ar	-0.0002371990526358869	-3.243386150518337e-05	0.0032139170882205252	-0.02025980438569921	-0.01529651533887797	0.0017535513877734905
Ar	0.00016647990983657886	0.00011090845110394419	0.0027576583278053238	-0.008627208848733532	-0.00447287070519591	-0.001380846259559778
2
72800
Ar	-0.0003615300470095263	-0.00016336594733727707	0.0032163774508174843	-0.003495682766455922	-0.009656264658828018	-0.0012974907816746652
Ar	4.464505385454249e-05	4.261598875984215e-05	0.0027560419426559085	-0.014702697773390642	-0.00860995297662649	0.0011086704406057934
2
73000
Ar	-0.0003029964762933114	-0.00021000592469100886	0.0031937343118657187	0.014434048898549604	0.0005741544848710127	-0.0025863771587208823
Ar	-0.00010265041211689955	-4.727357056441216e-05	0.00277532213563522	-0.013392181725935152	-0.008559085363446661	0.0022864269806563125
2
73200
Ar	-9.833369753371587e-05	-0.00015627269839684166	0.003183190577269355	0.02514195270854093	0.009753125267962787	0.0011292022309351772
Ar	-0.0001991235633841459	-0.00011248750216268715	0.002785802071495572	-0.005274911337369706	-0.003911972684905419	-0.0007811188386095547
2
73400
Ar	0.00016366312637216713	-2.71314367926845e-05	0.003206155251697862	0.0247676510738969	0.014988704869695078	0.0024079172646143785
Ar	-0.000201682047991907	-0.0001214615696725536	0.00276851113588902	0.004981411148565971	0.002147546080521087	-0.0018095675740495093
2
73600
Ar	0.0003488842194761327	0.00011681737195139583	0.0032179454968194817	0.010477128816566752	0.012421784911775422	-0.0003097753751297796
Ar	-0.00010525395026403089	-7.262049088840721e-05	0.002759811527287554	0.013485857949374567	0.0072223441228874315	0.0002458979585208093
2
73800
Ar	0.00035580303803312214	0.00019986344180455824	0.0032010319907443867	-0.008967158766820854	0.003521622617339553	-0.002682646502936158
Ar	4.554017007295516e-05	1.1735716985527798e-05	0.0027727355688004812	0.015382765427791066	0.00891641189290303	0.002049948079216678
2
74000
Ar	0.00018925823703496694	0.0001846276682186733	0.0031795731717535933	-0.022920628136157407	-0.0062332411656652615	-0.0005346156698951283
Ar	0.000174599297488503	8.951869939805906e-05	0.0027890625121375057	0.009254830982783442	0.005838475814720933	0.00031534113454311825
2
74200
Ar	-7.281500940248988e-05	8.346513447563377e-05	0.0031959829815896255	-0.02742692308399377	-0.01334069098640036	0.0028860356917588892
Ar	0.00021926684727800218	0.00011998629614480066	0.002774198035871878	-0.0006844693742540982	0.00016342316190562538	-0.002439590080602605
2
74400
Ar	-0.00030775275815795574	-5.9815201836450964e-05	0.0032177688250662408	-0.01719262855101739	-0.013987112066023386	0.0009072749667073874
Ar	0.00015857145530294688	9.301901355613602e-05	0.0027559129551617888	-0.011017556438504791	-0.005358044910619326	-0.0007785946727445009
2
74600
Ar	-0.00038516387429636875	-0.00017102518859740795	0.0032104951495939265	0.0022977337068367997	-0.007262029341529133	-0.0021878840674831577
Ar	1.7057732538904298e-05	2.1294817052008915e-05	0.002761517261511389	-0.016060995567607622	-0.008414953114160203	0.001789510590400983
2
74800
Ar	-0.00027001848315580146	-0.00019470902424977566	0.0031840915334418562	0.019467509781789835	0.0025055446412251903	-0.0021961445616401763
Ar	-0.00013512933896706622	-6.124876935124773e-05	0.002783877165340027	-0.012865600509474575	-0.0072964961647976005	0.001974444845927948
2
75000
Ar	-2.4945197887634155e-05	-0.00012751848850720636	0.00318506629650304	0.028036278033288675	0.010552469693158314	0.002310655335976673
Ar	-0.00021988024123735297	-0.00011054978728638526	0.002785009590955836	-0.0036770403385782448	-0.0022940453102708704	-0.0017383593521117556
2
75200
Ar	0.00024388231454696774	2.078664053891155e-06	0.0032106270373669474	0.022991184226258652	0.014168912622777224	0.0019218840224811175
Ar	-0.00020125184819760964	-0.00010568624172163945	0.0027654630800794527	0.007480557590290107	0.0032199237838274487	-0.0014640244934751873
2
75400
Ar	0.00039066845158882714	0.00012988633794935845	0.003214732943538805	0.00500374583012774	0.0102094911628072	-0.001171759377064026
Ar	-8.183340069699169e-05	-5.061166227760874e-05	0.002762456421610622	0.015349943797204552	0.007338937150677893	0.0009159755414268072
2
75600
Ar	0.0003381180541558782	0.00018934631401529728	0.0031918270750604712	-0.014741273464827176	0.0012874623064046012	-0.002788393670370354
Ar	8.015710347154313e-05	2.9348103517497977e-05	0.002780009236427339	0.015590079331870536	0.007950619998594076	0.002142575369260617
2
75800
Ar	0.00012388290677671181	0.00015803339094598847	0.003178288934079683	-0.02664509714741672	-0.007211702358032854	0.000987782318454084
Ar	0.0002016637140581687	9.294982131802339e-05	0.0027899502802197803	0.007831700408388025	0.0041310277760820266	-0.0009699658356661827
2
76000
Ar	-0.00015853478751252627	5.313749950220159e-05	0.003202549593341271	-0.027154455541699093	-0.012991303843976468	0.0026979998752539843
Ar	0.00022748714430180741	0.00010829991429447902	0.0027686929330817604	-0.003116134021839248	-0.0011175059931362724	-0.0022677657725292733
2
76200
Ar	-0.0003664358185385243	-7.892437683907461e-05	0.003217251165246139	-0.01239111924243847	-0.01213120485205388	-8.471510010764654e-05
Ar	0.00014174035812958776	7.221328840029562e-05	0.002756654994356129	-0.013302546227871984	-0.0058210813062091245	7.270088366611683e-05
2
76400
Ar	-0.0003854213799990692	-0.0001680651792721379	0.003201227398247378	0.00854742402835743	-0.004923508760701834	-0.002767824760827277
Ar	-1.6081802054675666e-05	1.170418840262893e-06	0.002769577525703611	-0.01691691706630651	-0.007774622510689931	0.002279845888006561
2
76600
Ar	-0.00021531109248472047	-0.00017273493871633949	0.0031767568216032626	0.023846605573988475	0.0037735507237197092	-0.0009822522050947442
Ar	-0.00016606834991295536	-6.958877151718675e-05	0.0027907612864069026	-0.011634769884465766	-0.005621284729200293	0.0009826889969659469
2
76800
Ar	6.072815531458861e-05	-9.866118088068701e-05	0.0031911888412751842	0.02930590036659409	0.010666671997241988	0.002957075830254295
Ar	-0.00023395787169225632	-0.00010207822980064208	0.002780598469428198	-0.0015244941445767262	-0.0008060035804291827	-0.002224809008143338
2
77000
Ar	0.0003163255207829189	2.385701549021441e-05	0.003215102329180873	0.019197354025045594	0.012694145440032835	0.0011865886349275573
Ar	-0.0001900937374043274	-8.566713965016566e-05	0.0027628630162907742	0.010000900722599324	0.003963924577096733	-0.0008753747492099124
2
77200
Ar	0.00040915457918623045	0.0001321496475806915	0.003210310731595104	-0.001386113290458	0.00800527553777251	-0.0020396828242469473
Ar	-5.0600649565748856e-05	-2.893672034967734e-05	0.0027662807345391342	0.016700703452109483	0.006922164637979605	0.0014604314773451676
2
77400
Ar	0.0002959471243468418	0.0001717295116129044	0.003183380052764241	-0.01989892221886136	-0.0002499843407551361	-0.002486617610526619
Ar	0.0001156246234330644	4.166275249699119e-05	0.002785965399312277	0.014920574097487227	0.006554199298244404	0.0018231679591661477
2
77600
Ar	4.286699034187668e-05	0.00013124788177621793	0.003181180977139141	-0.029230585204690324	-0.007599970657037361	0.0022040446768411084
Ar	0.00022272763422536267	8.861367702270163e-05	0.0027860622367747844	0.005936979909220934	0.002507513147870389	-0.001952223701174206
2
77800
Ar	-0.00024143160223000546	2.862159609745519e-05	0.0032077195021974017	-0.02475892842845596	-0.012044423080124963	0.0021358151438469783
Ar	0.00022431569850796425	9.060298662176081e-05	0.0027642924077157785	-0.005867876335441155	-0.0021175821080801956	-0.0016494982397973939
2
78000
Ar	-0.000404492094755318	-8.785410127164727e-05	0.003213946182494908	-0.006358385968537747	-0.010120058231122981	-0.0009986020775056038
Ar	0.00011428742351409815	4.96693436905829e-05	0.002760049533078096	-0.015168953207337927	-0.005725981562372803	0.0008844144769768225
2
78200
Ar	-0.00036039197198066864	-0.00015665069109132453	0.0031916209931346497	0.014493734087381877	-0.003151048789220651	-0.0028997370333422373
Ar	-5.376378138454055e-05	-1.495425588573856e-05	0.0027786917607255626	-0.01695156351144317	-0.00666106277444136	0.0024847112196440266
2
78400
Ar	-0.00014410078961225937	-0.0001495346338385082	0.0031752394124934928	0.027165565782609695	0.0043089036652941585	0.0007076238892891072
Ar	-0.0001933170657963338	-7.068242510433174e-05	0.0027937603921716256	-0.009853735424866979	-0.003850547953326336	-0.0004383269006186173
2
78600
Ar	0.00014796215644381544	-7.471107177356945e-05	0.0031997027751203954	0.028585010875242622	0.010208884377403695	0.0029035461906624658
Ar	-0.0002398309529284382	-8.793666457816032e-05	0.002774605571697521	0.001149521554783389	0.00039970884397676345	-0.0023058965945744695
2
78800
Ar	0.0003716839193701936	3.706178271039975e-05	0.0032169973988545137	0.013957571764547205	0.011101647665600994	0.00019691062418551757
Ar	-0.00016909058227251823	-6.359651966274081e-05	0.002760671912455849	0.012385992089871053	0.004287203347149941	-0.0002238587308888118
2
79000
Ar	0.0004030513590687919	0.00012739491031712685	0.0032029400931319883	-0.0077608875725077575	0.006163433683073281	-0.0027049174224486323
Ar	-1.2845847771578104e-05	-9.035134458667767e-06	0.002770638033319728	0.01752448466251584	0.006194682740489749	0.00199226856891314
2
79200
Ar	0.00023609566185165852	0.00015245827835706614	0.00317645026381164	-0.023931721796665053	-0.0011370684898542743	-0.0014799021604407917
Ar	0.00014993709203415091	4.9783495216788435e-05	0.002790921267725112	0.013450905360380832	0.004926515409350382	0.0011405781973925035
2
79400
Ar	-4.4029598172244276e-05	0.00010835937513244403	0.0031874072367785162	-0.030155995418713624	-0.007552563507666569	0.0028825987177334084
Ar	0.00023747179647226792	8.010624887009282e-05	0.002781304825653637	0.003536833015825655	0.0010857683327201364	-0.002371533845196392
2
79600
Ar	-0.00031187445055998094	1.199319966615682e-05	0.003212107391246457	-0.02068994960935289	-0.010832518937426762	0.0013980223266178992
Ar	0.00021127539666309237	7.158425320563335e-05	0.00276198733605545	-0.008657182714472382	-0.002740795200210288	-0.0010181342642201958
2
79800
Ar	-0.00041909725790256617	-8.891684702728585e-05	0.003209751054792963	0.00013013148217135663	-0.008416375086504613	-0.0018375452019491747
Ar	7.910553329427168e-05	2.957643003825404e-05	0.0027647020366995062	-0.016636157215350292	-0.0053144469287914305	0.0015181286704984143
2
80000
Ar	-0.0003141879960605058	-0.00014259731079813804	0.0031836168456401367	0.019551192859671496	-0.002006871141410751	-0.0025807815512863164
Ar	-9.318886315934028e-05	-2.6262233604186813e-05	0.0027865323948106373	-0.016210085491961478	-0.00532497178586287	0.0022561466394939505
2
80200
Ar	-6.159144541383777e-05	-0.0001299043841146904	0.003179451179851416	0.029473955354113485	0.004437077736816896	0.0021833570905254954
Ar	-0.00021644274072006887	-6.601362596713614e-05	0.0027910731925434506	-0.007772148117117854	-0.0022600307606105356	-0.001697250081057621
2
80400
Ar	0.00023015068613674425	-5.747363096566256e-05	0.0032079094939505767	0.025936250138688586	0.009502648437808688	0.002426264825683625
Ar	-0.00023696899564827614	-7.109371769045916e-05	0.0027690225117215726	0.004138940245262905	0.0012236100694693224	-0.0018697615731973342
2
80600
Ar	0.00040697451449449605	4.321400504889793e-05	0.00321650573603271	0.007747883123117696	0.009684030100076325	-0.0008975110026749288
Ar	-0.0001397463699429277	-4.3192318005609824e-05	0.002761815086957429	0.014462778011965794	0.004130330808569102	0.0005315057333684626
2
80800
Ar	0.000374139176836584	0.00011952696059318131	0.003193504438031755	-0.013708261453916726	0.004924141807239959	-0.0031779922508084384
Ar	2.8026120406313757e-05	5.088051815568013e-06	0.002777742422796439	0.01762609459412825	0.005171070591936341	0.0023180901096529183
2
81000
Ar	0.00016254380106285179	0.0001369381667081992	0.0031722783838772253	-0.026907083362030213	-0.0013546050407838796	0.00013135360413423967
Ar	0.0001798690484543851	4.9761817994459935e-05	0.0027931856145514983	0.01143830612774659	0.003226015962890427	-0.00023995297803757384
2
81200
Ar	-0.00013089351383332898	9.337485974727945e-05	0.003194255240310182	-0.029223009739728318	-0.0071991402726635945	0.002993984660858051
Ar	0.0002436817545097309	6.576806077038419e-05	0.0027747802838511224	0.0006891195416827789	3.0349122926306138e-05	-0.002377974709274443
2
81400
Ar	-0.0003656267720445448	3.9742896222036285e-06	0.0032139890289814995	-0.015371313539685438	-0.009850962279868088	0.0005331624135200376
Ar	0.00018910903308141892	5.1182606251825514e-05	0.0027597384348641905	-0.011130093978343943	-0.0028286907120434086	-0.0003202108198496079
2
81600
Ar	-0.0004109892806757933	-8.556595798103758e-05	0.003203239933165766	0.0065071707341607145	-0.007255434873660537	-0.002421737292296835
Ar	3.9948726771678217e-05	1.3277971771495375e-05	0.002769298999026523	-0.017420278161253147	-0.004461915531585009	0.0020618715069297697
2
81800
Ar	-0.0002531747007825735	-0.0001307407579152897	0.0031777916149488047	0.023357849779022832	-0.0015965423939325487	-0.0016185491615973906
Ar	-0.0001289033703844785	-3.0564260655866094e-05	0.002791671816110488	-0.014652137019342277	-0.0038333047865233474	0.0015225507269296993
2
82000
Ar	2.3532617260502807e-05	-0.00011761424564813903	0.0031872116657278324	0.030211688761296866	0.004275876720515051	0.0029003737078305016
Ar	-0.00023148720057565987	-5.538813497998364e-05	0.002785353214063366	-0.0053136096120072595	-0.001070950619097533	-0.002280291910815775
2
82200
Ar	0.0002978992834021478	-4.938517613024853e-05	0.00321302771318853	0.021828339651059854	0.008795364068651047	0.0015115603594365865
Ar	-0.00022359464244221388	-5.257434083014326e-05	0.0027646710054098156	0.006996404233308428	0.0016036865021018636	-0.0012673785839352485
2
82400
Ar	0.0004194539873589698	4.271804872340424e-05	0.0032109934241741425	0.0014172293545943666	0.008760483936870981	-0.0018430383265421056
Ar	-0.00010372223677000442	-2.588758666938736e-05	0.0027647140418708715	0.015936249957552235	0.003522518899445912	0.0012571131573075117
2
82600
Ar	0.0003282779427526517	0.00011078122851167032	0.003183522132884312	-0.018427514945661465	0.0043412934443928936	-0.0028956876134891394
Ar	6.816396340894278e-05	1.2524269376149857e-05	0.002785013838570623	0.016859852336034927	0.0038352479169741424	0.002253027403059161
2
82800
Ar	8.440770063394127e-05	0.00012668973356102148	0.003175093445047793	-0.028838320133390393	-0.0011394358282149906	0.0018438448340012282
Ar	0.00020266337128776668	4.216083891996199e-05	0.0027914792620176076	0.009210103228694705	0.001764407840972082	-0.0015300681541753692
2
83000
Ar	-0.00020741430053442913	8.643444885096351e-05	0.0032038965443038202	-0.026654722277973986	-0.006710779895160046	0.0027372036324515886
Ar	0.00023964815667242635	4.770186924757694e-05	0.002768826570265294	-0.0023565069891115843	-0.0005567970870379551	-0.0020410954407289964
2
83200
Ar	-0.00039695412189584713	3.6095175861095e-06	0.0032166213504071814	-0.009430977228690058	-0.00907315653209681	-0.0004063266399251834
Ar	0.00015774708118206586	3.1995211437882205e-05	0.002760058941694999	-0.013268822640095768	-0.002469302332956925	0.0004221440217953986
2
83400
Ar	-0.00038163599483522534	-7.871797592093567e-05	0.003197890402918044	0.012067123151472006	-0.006698706313184425	-0.002918877488083053
Ar	-3.5504052213488947e-06	1.7659319789600293e-06	0.002775524148343865	-0.017566610242875955	-0.0033441392588157265	0.002355636148449188
2
83600
Ar	-0.00018282342000632636	-0.00012099015716342315	0.0031751736191386382	0.025940611607761472	-0.0016556371131265918	-0.0003965260853484947
Ar	-0.0001613456685473808	-2.86888613431131e-05	0.0027937666834968533	-0.012528132078542925	-0.002327240441017582	0.00025615661750660683
2
83800
Ar	0.00010490158175908713	-0.00011011929919366886	0.0031931070726895472	0.0293025872672918	0.003944589591590893	0.002827473975352991
Ar	-0.00023850264344090486	-4.089627978555796e-05	0.002778488389879676	-0.0022699356072395337	-0.00020232466274447395	-0.002301387636652815
2
84000
Ar	0.0003477495145188719	-4.627814965823058e-05	0.0032127548214972777	0.016845222684722255	0.008244629278915434	0.0006237991840092276
Ar	-0.00019965050397421262	-3.373284728462466e-05	0.002762444436553777	0.009744256476303248	0.0015715362344414054	-0.0005718256535746977
2
84200
Ar	0.0004115617334636544	3.976766036195589e-05	0.0032032506780093296	-0.00451660474243058	0.008162612124609817	-0.0023189125853518484
Ar	-6.0525891311301526e-05	-1.163247781526752e-05	0.0027692452613798935	0.01690411019533141	0.002703335501992602	0.0018147362144747153
2
84400
Ar	0.0002711284578059883	0.00010368059930238755	0.003177446091350233	-0.0219512092407893	0.004216081142618445	-0.0018615463628697214
Ar	0.00010868154796540618	1.6097217984016212e-05	0.002790177006576375	0.01525379249614583	0.0025303247927822565	0.0015782745440624212
2
84600
Ar	5.157268545165315e-06	0.00012127334077679555	0.0031845453089985373	-0.02966212239684483	-0.0008798610875947627	0.002906410118669687
Ar	0.0002202736991802033	3.227858217265923e-05	0.002785014606262426	0.006507813217571824	0.0006493718527685929	-0.0022778600279313925
2
84800
Ar	-0.0002717993204914457	8.352919202164338e-05	0.003213046533945111	-0.022915505833654863	-0.006389512496608051	0.0019372892253395092
Ar	0.00022628417206691678	3.129893503953451e-05	0.002763182950389436	-0.0055444582937580296	-0.0008196099074693032	-0.0014737487169840446
2
85000
Ar	-0.000410012222684608	4.561413223678798e-06	0.0032154522441302518	-0.003511526937649924	-0.00865185878850209	-0.001495681099563249
Ar	0.00011840167729865441	1.7070939337555477e-05	0.0027611741041947088	-0.015082148060971853	-0.0019196073152086698	0.0010970703649133505
2
85200
Ar	-0.0003399309536336796	-7.432348022489594e-05	0.0031892436236165556	0.016544294852011816	-0.0064697299076077455	-0.0030862158748871747
Ar	-4.9951102109739606e-05	-4.660733541904805e-06	0.0027811982380123094	-0.01701951564137411	-0.002254909248280985	0.0024091544434638504
2
85400
Ar	-0.00011123669026427402	-0.00011725072444916776	0.0031749763140169708	0.0277082297976126	-0.0020082634751788166	0.001129136755764407
Ar	-0.0001902153934156077	-2.2756134435328616e-05	0.0027919906178833754	-0.010053933325471175	-0.0010479230058383902	-0.0010134462352177664
2
85600
Ar	0.00017702684945693423	-0.00010905657352440008	0.0031997654805772536	0.027194298428370896	0.003776136271642186	0.0026251107423975453
Ar	-0.00023844805680405424	-2.5887653444986476e-05	0.0027717547724839912	0.0010393890104086435	0.00029066118815156155	-0.00205172256359904
2
85800
Ar	0.0003801723870214034	-4.711163154431395e-05	0.003213513448473293	0.011483871859684544	0.008039299071162274	-0.0001511493542223216
Ar	-0.00016904083131134788	-1.8202054852612486e-05	0.0027614545221609998	0.012204672794003581	0.0012376135669558736	0.0001827318761549528
2
86000
Ar	0.00038819360257623056	3.7088833108839444e-05	0.0031976056756424535	-0.00973846892729307	0.00802780419323053	-0.0026525142572169564
Ar	-1.4537556463084506e-05	-2.9848837354500265e-06	0.002774484442300344	0.017341640124339593	0.0017082533672735406	0.0021618197903114315
2
86200
Ar	0.0002090579841527709	0.0001012889470285555	0.0031759796143584706	-0.024361528056789473	0.004487858381911374	-0.0005385998632036013
Ar	0.00014593922472146668	1.2938068238422819e-05	0.0027928341207644493	0.013187766530072706	0.0012245021826355076	0.0005231441249227822
2
86400
Ar	-6.865541347063232e-05	0.00012179377313443145	0.0031939447931972438	-0.02915709490318162	-0.0007276865807176823	0.0030684187469327668
Ar	0.00023200420720291426	1.8157717552486537e-05	0.0027787972815857278	0.0034063762711418048	-1.2318176481464663e-05	-0.0024345124997294364
2
86600
Ar	-0.0003201225831568683	8.519634967632707e-05	0.003216669273110201	-0.018604506058155022	-0.006310633838636204	0.0009309042272644754
Ar	0.0002050996164139612	1.4904472745648856e-05	0.0027606824954062867	-0.00860481136139835	-0.0006366312833295097	-0.0007663351629424143
2
86800
Ar	-0.00040676982455868264	6.74540471672029e-06	0.0032087114865733102	0.001962153294332972	-0.008643134311779849	-0.002345698500479241
Ar	7.44313589859305e-05	6.222930309961697e-06	0.002765891765712659	-0.01640937460988669	-0.0010638729279010338	0.001710067846691464
2
87000
Ar	-0.0002903473925159116	-7.260903826958358e-05	0.00317991647759074	0.019911912269735314	-0.006642257714072072	-0.002462393113420318
Ar	-9.444100681483685e-05	-4.7699999762251684e-06	0.0027878267123819752	-0.01569344831593292	-0.0010339942267210776	0.0019420032249166234
2
87200
Ar	-4.0069780060312194e-05	-0.00011924226919108372	0.003179868229114075	0.02870694188949573	-0.002384510522759504	0.0024421894220560732
Ar	-0.00021235397190650355	-1.0366700398773303e-05	0.002787437389040603	-0.00727713850080057	-2.5239778042111085e-05	-0.001984051559133752
2
87400
Ar	0.00023823861993199524	-0.00011330675210201255	0.003207892558114667	0.02413959439956292	0.0036621705388971302	0.0022154104076133533
Ar	-0.00022815195422813835	-8.323425487974694e-06	0.0027656199103734637	0.004442730702179968	0.00032561337052693535	-0.0016305436824266023
2
87600
Ar	0.00039689717163231557	-5.174241768441163e-05	0.0032145781734326502	0.006134437379695646	0.008053101343694394	-0.0009824206508880545
Ar	-0.00013023229274921862	-4.325449841948229e-06	0.002761352564221912	0.014294745410742786	0.00045851015180053587	0.0008324093471788121
2
87800
Ar	0.00035322897205152204	3.3697218474214454e-05	0.0031926902986234543	-0.014124343025866355	0.008258952886701885	-0.002841869098870021
Ar	3.382805662224318e-05	6.006246670773262e-07	0.002779489445306685	0.017041607200002036	0.0005009269403754434	0.0023546219369369515
2
88000
Ar	0.00014359217181350966	0.00010198119439879917	0.003177260821211766	-0.026290246399314068	0.005077227407348546	0.0007675254524250345
Ar	0.00017865669544967088	4.0434670023459484e-06	0.0027922655360872353	0.010745291955540281	9.613688894876244e-06	-0.0006477766331037024
2
88200
Ar	-0.00013872602332975532	0.00012691473460717194	0.0032002202827838802	-0.0276292220783277	-0.0005200829957126014	0.0026482544644093635
Ar	0.00023586453104704105	1.6064952155144608e-06	0.0027731318681341924	6.363975375897614e-05	-0.0002970286062768955	-0.0021507260095051934
2
88400
Ar	-0.0003562923556909673	9.032628811400118e-05	0.003215030412370555	-0.013753877151201205	-0.006473079191640326	-2.278507018515408e-06
Ar	0.00017670151380932901	1.4860484121968202e-07	0.0027609816675955444	-0.011351016522696836	-2.420814096313944e-05	-6.485770619231749e-05
2
88600
Ar	-0.0003903340459208754	9.140376191461158e-06	0.0032000118519002634	0.007022365918142508	-0.00896803871802993	-0.002651623101008895
Ar	2.807665348209388e-05	9.564461481277596e-07	0.002771997253197177	-0.017100240791970343	0.00013270161892890646	0.002050987492925436
2
88800
Ar	-0.00023461918293018257	-7.41073109072683e-05	0.0031762788363540566	0.022531797946303615	-0.00715440527615938	-0.0009796503721887164
Ar	-0.00013410401499585164	2.0925409244137943e-06	0.0027911856933760075	-0.013705303569149051	0.00014616571440097034	0.0008494287276966763
2
89000
Ar	3.07712646732698e-05	-0.00012608676390523356	0.0031909642524231936	0.028750079385629384	-0.002725503257575205	0.003018640810116443
Ar	-0.00022667496198022644	5.867432642367522e-06	0.0027794993210911167	-0.004237798295737714	0.00042442530526726836	-0.0024072177289554504
2
89200
Ar	0.0002887865132569869	-0.00012032761474216366	0.003215465055780166	0.020236021205349532	0.003904544089735132	0.0012337443498737159
Ar	-0.00020947797711611536	7.340660984539618e-06	0.0027604873889992207	0.007624213429348898	-0.0002090362071808673	-0.0009353766298194472
2
89400
Ar	0.0003982081333913711	-5.469630130698369e-05	0.0032109261036698403	0.0007431905742089706	0.008560735170392646	-0.002047729204784848
Ar	-8.671472116401168e-05	2.510267696385469e-06	0.0027639847966249393	0.015867739074543592	-0.0006704174549186586	0.0015548116560065663
2
89600
Ar	0.000307798683598005	3.5736787785195806e-05	0.00318335594529264	-0.017644279780851334	0.008772571215950334	-0.002613278151131582
Ar	8.04854116998012e-05	-4.4071552307800635e-06	0.002785471746384413	0.01593396268519581	-0.0006366398223597676	0.0021164899630630196
2
89800
Ar	7.533154507586906e-05	0.00010990024857644739	0.0031794606220183494	-0.027478915544317525	0.005636142207800542	0.002106753498368605
Ar	0.00020365176541203224	-1.1118000724794622e-05	0.0027886390089640525	0.007983802068195612	-0.0007574283260357551	-0.0017144504694027241
2
90000
Ar	-0.00020069169693400575	0.00013737180055150514	0.0032067154093342186	-0.025022911596426778	-0.0005969143547475213	0.0023310791318384236
Ar	0.0002284673615227365	-1.545146651675538e-05	0.002767394264248081	-0.003434329044191162	6.288611186360043e-05	-0.0017486419125450363
2
90200
Ar	-0.0003774134912001306	9.732897737992945e-05	0.003215357638267981	-0.008671106610590907	-0.007038724730624275	-0.0007809327112849943
Ar	0.00013944186074078024	-9.769750886590874e-06	0.0027612657711630533	-0.01358867452175004	0.0009866015504551343	0.0006035409318949924
2
90400
Ar	-0.0003613835874720149	9.931846152918242e-06	0.003194746180802102	0.011438389507216422	-0.009619241632573956	-0.002844166216491274
Ar	-2.0479834618310456e-05	2.1275003836833584e-06	0.0027773464389757112	-0.016974825494116497	0.001236781932287053	0.002237020953471142
2
90600
Ar	-0.0001742616491554246	-8.054056569088371e-05	0.003176955969224105	0.024485782101743785	-0.007932686055537288	0.00033041719098285177
Ar	-0.00016820132366128038	1.3049083616013644e-05	0.0027913707999571184	-0.011269535486063197	0.000977966428662937	-0.00036179841106683864
2
90800
Ar	9.798733885736478e-05	-0.00013801347140951676	0.003198250153342819	0.027658780474704135	-0.002861000399986488	0.002736139909673833
Ar	-0.00023213772621889588	2.0662553733010446e-05	0.0027732161227793277	-0.000915662126394285	0.00028596623585473843	-0.0022515697260709613
2
91000
Ar	0.00032668937228201036	-0.00012964825773097315	0.0032150475624642973	0.015835788437532614	0.004483595720353312	0.00023225263015645475
Ar	-0.0001823677331236073	1.691664064326901e-05	0.0027593176509582876	0.010486626622861522	-0.0010163888012996924	-0.0002087105147546399
2
91200
Ar	0.00038707769909877626	-5.678031440515466e-05	0.00320218038435213	-0.004112074788210889	0.009379604311964539	-0.0025172438580470355
Ar	-4.028305104296522e-05	2.4628232847589997e-06	0.002769412727434839	0.016685586119516344	-0.0017052068846457142	0.0020293529085164677
2
91400
Ar	0.000257592765049889	4.17624233346397e-05	0.0031773825565592903	-0.020311952224879946	0.009552743666709971	-0.0013757569973326864
Ar	0.00012141020602533708	-1.3905856494860063e-05	0.0027902204989559663	0.014011940438298582	-0.0014483079667053143	0.0012667150348404745
2
91600
Ar	9.316159546021534e-06	0.00012330051129074798	0.0031888094003262118	-0.027806432130058453	0.006076378476345842	0.003005723929214199
Ar	0.0002188302938462995	-2.6473568448340098e-05	0.0027823322050482937	0.004926730327220336	-0.0009239916749306352	-0.0022733540694195157
2
91800
Ar	-0.00025119238624485307	0.00014963939854256353	0.003215328208843861	-0.02169522341845532	-0.0011953846483202214	0.0015819618238233203
Ar	0.00021053185631878869	-2.7543098828571612e-05	0.0027620649016829217	-0.006646168548928027	0.0007725814832775962	-0.0012225395593557984
2
92000
Ar	-0.00038382182005246014	0.00010106454456886736	0.003214348553616688	-0.0037038111744707417	-0.008044036124706352	-0.0017402305754435602
Ar	9.64794606562563e-05	-1.2335195566534083e-05	0.0027622887946278677	-0.015202009860145551	0.0021074039529432307	0.001268729929044272
2
92200
Ar	-0.00032295337862726567	3.849334725475678e-06	0.003187698479027267	0.014979023097408043	-0.010522669176332143	-0.002809905042624025
Ar	-6.742241476581321e-05	1.0366760861193682e-05	0.002782182236207367	-0.016018017483748523	0.002203579451198674	0.002155728853820001
2
92400
Ar	-0.0001121776772881838	-9.488648032371422e-05	0.0031790003422301895	0.02585366771739043	-0.008679368875746845	0.0015890102415285952
Ar	-0.00019422228032932003	2.9079119363955606e-05	0.0027883483541732068	-0.008504069797849345	0.0015409509335560507	-0.0013815923112713174
2
92600
Ar	0.00015846932772370476	-0.0001549819250825763	0.0032042067906020723	0.02565327850935121	-0.002573210122945625	0.0023907849660675363
Ar	-0.00022648877321430717	3.6929507380106684e-05	0.0027677588995874487	0.0025100573998271176	-0.00020711556639870518	-0.0018463456986623022
2
92800
Ar	0.00035196942319748876	-0.00013956501583632655	0.0032145070894136502	0.011210123052759069	0.005524050276096234	-0.0005443381129633371
Ar	-0.00014678274808964248	2.4266620266786813e-05	0.0027601337259268634	0.012768581124111483	-0.0021996519139427235	0.00045223714763831
2
93000
Ar	0.0003648558803917191	-5.51403370524975e-05	0.0031960792051882155	-0.0084894416679144	0.01052877083913873	-0.002691528169320045
Ar	7.339328036890198e-06	-2.6444140080478574e-06	0.0027753217969393494	0.01670471204678176	-0.002909331387597883	0.0022722456149844154
2
93200
Ar	0.00020323276276895598	5.3460794834465315e-05	0.0031775361556893892	-0.022386247007301043	0.010484250109315963	7.8745818015304e-05
Ar	0.0001561248826935515	-2.8468381940868373e-05	0.0027919589960444195	0.011638034883650379	-0.00212482675497695	8.649697938971769e-05
2
93400
Ar	-5.540068245510121e-05	0.0001415111897067437	0.003198111361506348	-0.027311863697871672	0.006234628236775391	0.00294296382099001
Ar	0.0002258926855387061	-4.333309155510869e-05	0.002775883799248018	0.0017718617097024316	-0.0005589138065435778	-0.002346807632052191
2
93600
Ar	-0.0002926204331536128	0.00016382188907330839	0.0032183141568535587	-0.017785345994558336	-0.002051328701173765	0.0006044543746823376
Ar	0.00018582362387254984	-3.599757136533635e-05	0.0027597666015456456	-0.009484338253296047	0.001947854139422125	-0.0005449806141846281
2
93800
Ar	-0.00037942928037425146	0.0001039012044098651	0.00320788489097633	0.0010820636402142463	-0.00931711666152246	-0.002486532581826516
Ar	5.185027698880997e-05	-8.01348084348461e-06	0.002766593049545521	-0.016168769562706728	0.003382922043122387	0.0017539898087827249
2
94000
Ar	-0.0002782546659716073	-5.127911557480879e-06	0.0031802609174926494	0.017899030437444577	-0.011555145228040102	-0.002052228708645725
Ar	-0.00010897354542884986	2.5102493420460528e-05	0.0027866753320861895	-0.014367383280339104	0.0029428185576917693	0.0014806282400155228
2
94200
Ar	-4.8311393830608186e-05	-0.00011320502280818004	0.00318399510747751	0.02670519184975774	-0.009312905766721023	0.0024721905211246525
Ar	-0.00021195149799274225	4.787991320981925e-05	0.0027820137762562813	-0.005700767835606555	0.0014778645387300557	-0.0020929612299259836
2
94400
Ar	0.0002123822413143778	-0.00017275644828929906	0.0032092033136785158	0.022845724138597544	-0.0018836785475607688	0.0017676037501420383
Ar	-0.00021289485500949697	4.934215443079737e-05	0.0027618989013793093	0.005665993431610261	-0.0012880417546096948	-0.0012892254602214885
2
94600
Ar	0.0003659148813850731	-0.00014666733265470222	0.0032117322785269417	0.006480089153278705	0.006840923442616017	-0.0012759463382453105
Ar	-0.00010747659690611426	2.3904652017893964e-05	0.0027614130224253787	0.014476017138830455	-0.0035361686605305453	0.0011842778723516532
2
94800
Ar	0.0003339663585448065	-4.902159736581291e-05	0.003189222871670862	-0.012255053495647048	0.01172110574522856	-0.0025483816081774175
Ar	5.2410549168468805e-05	-1.4894393697816201e-05	0.0027811207551112355	0.016004690011824106	-0.0038422649416567285	0.0022876730932326313
2
95000
Ar	0.00014588507179270357	7.016429028906533e-05	0.0031801988652848633	-0.02406989509939854	0.011443568619818786	0.0014661170609382714
Ar	0.00018267966293688276	-4.6540526885505574e-05	0.002790530838372689	0.009096743485430245	-0.002418697004936426	-0.0010629563330354194
2
95200
Ar	-0.00011578626832790555	0.0001623823038202488	0.0032062866001729765	-0.025868804471050968	0.005950469602033197	0.002593356221806565
Ar	0.00022319876169829233	-5.86811702356711e-05	0.002770317320283988	-0.0014546007573792532	0.0002802943587965997	-0.0020505053377252074
2
95400
Ar	-0.00032277135856576575	0.00017616390313657972	0.003218623422432695	-0.013538907729997331	-0.0033438938218466542	-0.0004005387605603956
Ar	0.00015387983840674588	-3.998937658879699e-05	0.0027595913184829076	-0.011826619940085681	0.003303083211070485	0.00012404820776013985
2
95600
Ar	-0.00036383971637741683	0.00010191424806711728	0.003199720354130835	0.005482288160999027	-0.010742294951622638	-0.00295439982999015
Ar	6.628019100220548e-06	1.1206092895279633e-06	0.002772070550379305	-0.01634155925718657	0.004525725001683545	0.0021220635557972017
2
95800
Ar	-0.0002289808580957472	-1.9572096683871316e-05	0.0031753904056391444	0.020126788034784276	-0.012654748850945351	-0.0007403700494822676
Ar	-0.0001427163321408459	4.200849877107066e-05	0.0027901365176810013	-0.012047412637074206	0.0033300321838280844	0.0005066874540977896
2
96000
Ar	1.3245396753710182e-05	-0.00013588508163030238	0.0031917150188310447	0.026622439524494602	-0.009560603410803854	0.0030152634925383645
Ar	-0.00021839316441422921	6.510450009089515e-05	0.0027764792310803173	-0.002607669328077714	0.0009607618593671244	-0.0023633809099457884
2
96200
Ar	0.00025563327300147316	-0.00019068638693629656	0.003215595284809951	0.019455346624158418	-0.0007615745562010362	0.0011755338286401395
Ar	-0.0001885085359407433	5.644060643484077e-05	0.0027589405405933397	0.00840984036450647	-0.002659924409421358	-0.0007237523314780733
2
96400
Ar	0.0003668979315223012	-0.00014943134736589486	0.00321081764447111	0.0018948062268107782	0.008568086110000827	-0.001973414013179212
Ar	-6.387062914392397e-05	1.704700580449442e-05	0.0027646772484284246	0.015459971115029622	-0.004855181874813383	0.0017548977133216616
2
96600
Ar	0.0002949709635254816	-3.600870944268998e-05	0.0031857268701880087	-0.015276137201352465	0.013061424429186197	-0.002196104500603262
Ar	9.385392076511366e-05	-3.190617770106974e-05	0.0027867636432735627	0.014519499985304586	-0.0044491337909493955	0.0019241648515254325
2
96800
Ar	8.662933146171139e-05	9.440379250062462e-05	0.003185555227217391	-0.02515391177942844	0.01223531715700714	0.002150349893040953
Ar	0.00020106767918649305	-6.632778226071157e-05	0.0027872202099745048	0.006318049154393298	-0.0022658226754889302	-0.0018384179851740298
2
97000
Ar	-0.00016983938758903674	0.0001865993800790625	0.00320968861194332	-0.023644095025660627	0.005168517203079865	0.0018001096269285454
Ar	0.00021066830016024183	-7.080006172905069e-05	0.0027665506699856035	-0.004610328320184843	0.0015494273996102214	-0.0016218738651365184
2
97200
Ar	-0.00034161137781024703	0.0001864031111367209	0.0032125821699563466	-0.009133167045770002	-0.005175384701815469	-0.0012966882353458529
Ar	0.0001158527029658006	-3.761378110175311e-05	0.002762082649652463	-0.013533519078025464	0.004747596843478629	0.0007924895196179198
2
97400
Ar	-0.0003390907465711016	9.387848447638811e-05	0.0031891220271114463	0.00932677002183844	-0.012393455831071463	-0.0027956447977115256
Ar	-3.7332623788685915e-05	1.576152350052635e-05	0.0027789388776289906	-0.015730168318085547	0.005404976063301124	0.002157256702500763
2
97600
Ar	-0.0001766978248266479	-4.1515391517085236e-05	0.0031757584951861988	0.021916009608293967	-0.013847577710391773	0.0010771238906275003
Ar	-0.00016891835907988342	6.109540152191001e-05	0.0027897474532464907	-0.009470532752075714	0.003433314372350924	-0.00081304637802876
2
97800
Ar	7.194056190262715e-05	-0.00016358392868125486	0.00320213769192195	0.025656265808145964	-0.009293763493447543	0.0029886955178109564
Ar	-0.0002159711193651828	7.982513718686345e-05	0.0027694940587690777	0.0005355702088863262	-6.377653032291978e-05	-0.002244022339479286
2
98000
Ar	0.0002886283236803323	-0.00020786237528633197	0.0032198987260204444	0.015579918090018269	0.0009159789715503662	0.00019010810404613895
Ar	-0.0001571748726027651	5.798518219424532e-05	0.002756844235296393	0.01072829813687317	-0.0041181635380682915	-4.071024075682399e-05
2
98200
Ar	0.0003563909261616635	-0.0001473897613154344	0.0032056151123126923	-0.0024496772729507106	0.010527527917801299	-0.0027329853601960755
Ar	-1.8912254425263556e-05	4.648400497259635e-06	0.002768606612111015	0.015752505358583798	-0.006055573349333666	0.002194878158526037
2
98400
Ar	0.00024966496826787395	-1.7190188102283027e-05	0.003179512306798607	-0.01768597534132589	0.014461290884943447	-0.0014058317866981228
Ar	0.00012940177172529867	-5.197409220546883e-05	0.002790055366899641	0.012401908829119722	-0.004732392977446344	0.0011647207654086214
2
98600
Ar	2.6477073812663546e-05	0.00012408070881428983	0.0031892949836807853	-0.025501607582003434	0.012706328436061426	0.002644435766308408
Ar	0.00021056999692996327	-8.484309133932621e-05	0.0027819186170116206	0.0033679181678294696	-0.0015546821594157915	-0.002137934655615295
2
98800
Ar	-0.00021631708796211738	0.00021138936970884487	0.0032118747093402003	-0.02065100693751436	0.0037827171219485776	0.0012486584271214193
Ar	0.00019018339466713506	-7.720734740491496e-05	0.0027638413937147374	-0.00735303614744094	0.0030874272333052356	-0.0010044860232703218
2
99000
Ar	-0.0003485440233121169	0.0001923323857312233	0.0032088604371977715	-0.004658317941103851	-0.007336923547878183	-0.0017428224800283597
Ar	7.542738265151507e-05	-2.863915984557265e-05	0.002765612817256241	-0.014606465676136302	0.006175614526468988	0.0013054126171211232
2
99200
Ar	-0.0003057655724520723	7.952381268804993e-05	0.0031847962354970903	0.01248795546742679	-0.014111317647340145	-0.0022628616435983067
Ar	-7.724065416904416e-05	3.565023415577241e-05	0.002784334022263073	-0.014463134215812903	0.0060352595295336585	0.0018511792515499253
2
99400
Ar	-0.00012161269841003155	-6.97516662540911e-05	0.003182805504450894	0.02322427781550743	-0.014860019890577173	0.002137036374080536
Ar	-0.00018756808879453972	8.260225695969577e-05	0.0027861717206500245	-0.00688595284983829	0.0031619320935211788	-0.0017208774501549747
2
99600
Ar	0.00012565631607942194	-0.00019304995963324203	0.0032098228173867084	0.023897106478446003	-0.00846818582708663	0.0022889886273779916
Ar	-0.00020599542863849717	9.22124969116405e-05	0.0027647127297764276	0.003508456881616521	-0.001530219539504509	-0.0017535701056216107
2
99800
Ar	0.0003111157813677782	-0.00022144778849081018	0.003217625956344581	0.01146360653588332	0.0030790397952554695	-0.0008940207013016808
Ar	-0.00012223845185614388	5.36023696414582e-05	0.002758648587519861	0.012513868617900489	-0.0058502571368018235	0.0006480230724930735
2
100000
Ar	0.00033656523470160807	-0.00013865210886481908	0.00319567161006913	-0.006333031054216003	0.01260956683047383	-0.002985227942220256
Ar	2.3461982902609473e-05	-1.4284810964639213e-05	0.0027754489409344803	0.015350442176561802	-0.0070765266253119226	0.002337373803046161
2
100200
Ar	0.00020131482880612198	8.469112026299041e-06	0.003176353539149853	-0.019525398679089784	0.01587255314140551	0.00016901826093519348
Ar	0.00015591884061362068	-7.513583505345683e-05	0.0027909241608112443	0.009904148596043624	-0.004673874884067337	-0.0001554542419648567
2
100400
Ar	-3.0140322237171966e-05	0.00015825117450143784	0.0031970290212091006	-0.02493137301619444	0.012628395858638309	0.0028307744768601584
Ar	0.0002094084630600122	-0.0001022626396419502	0.002774389153133152	0.000395776764612809	-0.00034974112066553094	-0.002174244201467614
2
100600
Ar	-0.00025150879381694664	0.00023478127398233193	0.0032153645776620264	-0.017162901984388506	0.0018627678219593905	0.00044145827986070377
Ar	0.00016127133054790566	-7.865567143688989e-05	0.0027605063490680885	-0.009642268845133296	0.004877423716077152	-0.00030370773633247217
2
100800
Ar	-0.00034300365765396913	0.00019270023975387698	0.003204278277228585	-0.00043869795359890887	-0.009810559923057164	-0.0024113633132861454
Ar	3.270502204463521e-05	-1.3660451739918279e-05	0.0027694241563954894	-0.015003473617813486	0.0075663528753599375	0.0019077396245959582
2
101000
Ar	-0.00026520768256563693	5.817965185161876e-05	0.0031794616980000785	0.014984910565597283	-0.015904250074666896	-0.0015037377534389878
Ar	-0.00011221224718539652	5.870144023940163e-05	0.0027893050963591613	-0.01249647465333368	0.00620482709307655	0.0012522505583198106
2
101200
Ar	-6.512437225612135e-05	-0.00010513051145876484	0.003188785719901912	0.02383111676997769	-0.015641215476524497	0.0028114495127872234
Ar	-0.00019715700745658436	0.00010283264606045194	0.0027817303199680786	-0.004082388104283701	0.002360075222405154	-0.00227240620648234
2
101400
Ar	0.0001721544746085669	-0.00022502265736439346	0.0032146051997366475	0.021314639508186534	-0.007035940580349171	0.0016051588300179868
Ar	-0.000186684329782497	9.847620372550914e-05	0.002761037231611361	0.006202862749306316	-0.003304346162131416	-0.0012773901173406806
2
101600
Ar	0.0003215230314247863	-0.00023213688088268274	0.003214336933194437	0.007221969672464719	0.005666527548242366	-0.0016702300079016125
Ar	-8.330129604183621e-05	4.216659509804834e-05	0.0027608276495870027	0.0136226706322108	-0.007431683263160786	0.0012264603126098989
2
101800
Ar	0.00030728146813497573	-0.00012422468449976444	0.00318817252729883	-0.009614693470203847	0.014810482757327272	-0.002815411553177975
Ar	6.268940475908982e-05	-3.7285332610757465e-05	0.0027807308943451356	0.014215856172279467	-0.007678322606581041	0.002227219838516064
2
102000
Ar	0.00014949654291079894	4.1336619457035667e-05	0.00317869947111838	-0.02092939673565424	0.017332253624268358	0.0014813677080511719
Ar	0.00017417091791399971	-9.84972082267464e-05	0.0027883650764753314	0.007259667560613902	-0.004260354640382182	-0.0011991781656145784
2
102200
Ar	-8.296046682218589e-05	0.00019556567528502045	0.003203699537356439	-0.02346152495792814	0.01188081092507021	0.002452885678891118
Ar	0.00019968001065678582	-0.0001152209730598577	0.0027691843989857134	-0.0024777284402905464	0.0012842983105104165	-0.0018151029610215972
2
102400
Ar	-0.0002757402182623875	0.0002546592185020188	0.003215278915638932	-0.013300772172211064	-0.0006495053102873272	-0.00035775754642873445
Ar	0.0001276621170979766	-7.335564609905619e-05	0.002761434201184937	-0.011320492378017664	0.0067117611018917365	0.000421907614587698
2
102600
Ar	-0.0003266990369576046	0.0001851400576992603	0.00319828787146084	0.003366170110010336	-0.012500152806344424	-0.002611885204946887
Ar	-7.966688024733337e-06	7.348375967609555e-06	0.0027762916424775444	-0.014630061057255882	0.008664284016337096	0.00220665506030241
2
102800
Ar	-0.00021995637968260615	2.808961799286164e-05	0.003179162515311416	0.0169062161668861	-0.0177304378660425	-0.0001276029134356439
Ar	-0.00013802698835864506	8.405456550471359e-05	0.0027926497774754836	-0.01009967161930832	0.006068065786695696	0.00014534064450000804
2
103000
Ar	-9.628253704014253e-06	-0.000147096184800477	0.003197895688817419	0.023612019085803005	-0.01577572549166762	0.0028199165775617163
Ar	-0.00019701013050803205	0.00012190615629842874	0.00277656516703351	-0.0013059608152057604	0.0010491545965071083	-0.00240952071360028
2
103200
Ar	0.00020980662030106127	-0.0002558895808485059	0.0032169149538458825	0.018121321873999924	-0.004829538226065581	0.0005239078371638698
Ar	-0.00016037428627448165	9.99267798806426e-05	0.0027592859893580185	0.00835464155900168	-0.005272276438318018	-0.0006659421369404019
2
103400
Ar	0.0003205130329523457	-0.00023504061351249382	0.0032060188749280976	0.0031045214967419846	0.008710346603811071	-0.002464465164365937
Ar	-4.353903548395315e-05	2.5526689052339535e-05	0.0027652179504218427	0.014025858295512107	-0.008946168545319728	0.001707012538056928
2
103600
Ar	0.0002712792563402666	-9.991258482369471e-05	0.0031789860990439206	-0.012217676849614466	0.01703134367370571	-0.001978062506233037
Ar	9.54213972479433e-05	-6.25539852484892e-05	0.0027855224645431656	0.012375870545744435	-0.0078044408800665085	0.001592475027770479
2
103800
Ar	9.622801241595138e-05	8.271774074118904e-05	0.003183530817858406	-0.021765650896532637	0.01834450793401495	0.0026379611375794976
Ar	0.00018242461469365398	-0.0001197920082305403	0.0027826556198271056	0.004589597357131116	-0.0033519078966888346	-0.0019487095317407162
2
104000
Ar	-0.00013000718774921647	0.0002339313303930401	0.0032110453804587028	-0.021291060829875134	0.01028796305712521	0.0020056066887832536
Ar	0.00018083413535734761	-0.0001210376011774606	0.0027633325716238375	-0.005007564023779036	0.003259184175544898	-0.0012765141948410642
2
104200
Ar	-0.0002902215983872405	0.00026837662913452943	0.00321539358286728	-0.009287677932804701	-0.003684832802786562	-0.0012091986415161868
Ar	8.987172158626238e-05	-5.9701343944202054e-05	0.002762319555187253	-0.012412872218403943	0.008442934485113688	0.0010861152844143292
2
104400
Ar	-0.00030215516675237327	0.0001688548226469571	0.0031921880802310305	0.006733237970603822	-0.015141308992600059	-0.002797061667191382
Ar	-4.695357876468871e-05	3.339694042630128e-05	0.002781036399761621	-0.013692365510640226	0.00927293103170709	0.002200657050721872
2
104600
Ar	-0.00017180292380208207	-8.920965570160942e-06	0.003179384284441931	0.018372462411933733	-0.01929539364706503	0.0010462365654234842
Ar	-0.0001577288923767186	0.00010947959827483697	0.0027900237234936022	-0.007553672170312792	0.005481769697392285	-0.001080703038111855
2
104800
Ar	4.1937330586244355e-05	-0.0001899488034715398	0.0032026349405988993	0.02251624864937657	-0.015090881883825055	0.00248789995637173
Ar	-0.00018976366624033928	0.00013512520304528202	0.00276915813101501	0.0014782841757429253	-0.0007828825785150587	-0.0021370152394977124
2
105000
Ar	0.0002368558199640852	-0.00028010002406944417	0.003215009331642521	0.01459916956013298	-0.0020441025455470697	-0.0002976080648524546
Ar	-0.00012926204295744356	9.278738242146891e-05	0.0027581160623999924	0.010117671897783957	-0.007297595646982971	0.00012986570251430381
2
105200
Ar	0.0003089336781531364	-0.00022824275519144315	0.0031980819761024256	-0.0006461128334423088	0.011767210353010987	-0.00270072743913414
Ar	-4.287865051496084e-06	1.8541760086678924e-06	0.002771125394125288	0.013800281932501065	-0.010061652909192646	0.00221076802089347
2
105400
Ar	0.00023040602989381141	-6.784299841415458e-05	0.0031759670133723107	-0.014145271556666974	0.01899618474072087	-0.0006191712098001261
Ar	0.00012154938276399378	-8.996877840469274e-05	0.002790412199223918	0.010069531362331506	-0.007478324143246754	0.0006777315034863973
2
105600
Ar	4.4739083522722104e-05	0.00012836563032357266	0.003193265086811014	-0.02174786980825542	0.01867664457375864	0.003122846545375027
Ar	0.00018302873338080745	-0.0001389504739266801	0.002778252713486437	0.001937775709230481	-0.0018668346695903228	-0.002286282786904995
2
105800
Ar	-0.0001668351872749991	0.000269047637769279	0.0032175647453819116	-0.01849877072715756	0.007989607784208657	0.0011463550569996341
Ar	0.00015620128906990152	-0.00012061974208170787	0.0027608753824222656	-0.007134558028701767	0.005445943450154121	-0.0007607916752527164
2
106000
Ar	-0.0002916207194709636	0.0002733235109610481	0.00321185298520144	-0.0054146344949389975	-0.007096408780304928	-0.002144937922035195
Ar	5.180619395290318e-05	-3.938972819732335e-05	0.002765479858625374	-0.012831981904452438	0.010077940637966189	0.001581781627455319
2
106200
Ar	-0.000269444101317867	0.0001430946785287172	0.0031841761688505828	0.009333553349691439	-0.01763368175027434	-0.0024796530776788027
Ar	-7.884743660941118e-05	6.316535291240067e-05	0.002786046405060854	-0.011994265508086759	0.009394431614474218	0.001811243672507153
2
106400
Ar	-0.00012260493618394288	-5.3984342144378005e-05	0.0031818382396996644	0.019200352099871244	-0.020617277011083585	0.0020859865083768655
Ar	-0.00016624853441147666	0.0001340371451355203	0.002785495967796657	-0.004964390775362	0.004424100797160247	-0.0019485637707122982
2
106600
Ar	8.657073194061697e-05	-0.00023457483354338637	0.003207022361414604	0.020663105337805417	-0.013594245783399156	0.0020147111405503233
Ar	-0.00017228305346987077	0.0001424122645203671	0.002764064020364593	0.0038931370811367536	-0.0030151081458606485	-0.0016299586434953925
2
106800
Ar	0.00025242699666224664	-0.0002988194069538112	0.003212825144162345	0.010960252964826672	0.0013562369280744066	-0.0009459952750621406
Ar	-9.410036541301544e-05	7.788870258139727e-05	0.0027599257281921757	0.011080277054021696	-0.0093216416182214	0.0008664091262436237
2
107000
Ar	0.00028822980162502665	-0.00021251451131278177	0.0031923074487978744	-0.0038641769554307007	0.014912289452858605	-0.0026152033600529627
Ar	3.1196440952635744e-05	-2.7812066243276714e-05	0.002778071374511857	0.01285344817864699	-0.010829285834918408	0.0023437705044344163
2
107200
Ar	0.00018698273516985832	-2.741822507427234e-05	0.003179133566931275	-0.015522166697833264	0.020897144340629812	0.0008927012137806493
Ar	0.000138651794422957	-0.00011890080378611791	0.0027913974128334815	0.007664547504343866	-0.006740016364826945	-0.0005243909759529039
2
107400
Ar	-3.3414669083939795e-06	0.00017746172937256092	0.0032030761800053956	-0.02098100432063708	0.018127392487057185	0.002701274064317194
Ar	0.00017593162126331894	-0.0001539346942905736	0.002773265933864326	-0.0004955598028197905	0.00024089285656081176	-0.002122178861352944
2
107600
Ar	-0.00019444038268996328	0.0002992702520153662	0.0032180876608643846	-0.015400261580575631	0.004970848927760036	-3.482318687555445e-05
Ar	0.00012810693423006392	-0.00011214435219732919	0.0027607730147336034	-0.00865368322028937	0.007752612778044259	-0.00012862273189458246
2
107800
Ar	-0.00028430360168508757	0.00026884738477492477	0.003202027811727065	-0.0018980965400138177	-0.010622452137383113	-0.0028392178958029737
Ar	1.690984783042035e-05	-1.2286739685015237e-05	0.0027706732564506866	-0.01263450190633151	0.011345519770993039	0.0019256920247654105
2
108000
Ar	-0.00023403175176573177	0.00010891386318920701	0.0031757408620159476	0.011213396877099754	-0.019925858337908938	-0.001306479303493134
Ar	-0.00010231936129141625	9.408466072696324e-05	0.002789368992513605	-0.009984196851479986	0.008912815931270591	0.0009114579740048034
2
108200
Ar	-7.605147856694364e-05	-0.00010470414846113034	0.003187624175136795	0.019431980121014387	-0.021239270447823057	0.0029290199790373153
Ar	-0.000166718588891655	0.00015470059237443335	0.0027785857227645974	-0.002619031060052325	0.0027699099020216337	-0.00237297615568415
2
108400
Ar	0.000122214758871038	-0.00027566780543163794	0.0032132934497418573	0.018340444672915176	-0.011165535258431676	0.0015283291489532433
Ar	-0.00015065346797253688	0.00014121711494256557	0.0027593487595733374	0.005753359156206476	-0.005461059384899435	-0.0009927220391698405
2
108600
Ar	0.00025719529768924044	-0.00030730186021297865	0.0032124830612861844	0.00746821425123337	0.005073215309871172	-0.001648840564676455
Ar	-6.0690761355100645e-05	5.493429530236243e-05	0.0027623585250119206	0.011492657061272716	-0.011081985133476718	0.0015340662532615382
2
108800
Ar	0.00026136101908050356	-0.00018638982128198417	0.0031881644437540286	-0.00635952720669791	0.01782563975795941	-0.0024596174556915243
Ar	5.983377879705087e-05	-6.086919715095218e-05	0.0027839827386742866	0.011459427368170088	-0.010951868775280317	0.0021823926608347624
2
109000
Ar	0.00014390133210581498	2.170440000637293e-05	0.0031828334897233772	-0.016392766462953463	0.022536037330427805	0.0017062299341043285
Ar	0.00014694043320129629	-0.00014557001067347404	0.002789163564136236	0.0053568050753672915	-0.005572008379904017	-0.0014683025898318074
2
109200
Ar	-4.424424030142734e-05	0.00022885883382640495	0.003206428805592371	-0.019536223443795603	0.01674139691081179	0.002032406568523584
Ar	0.0001610605062984248	-0.0001624564915907912	0.002769116305519935	-0.00268644195640453	0.002556993806698837	-0.00170957446071355
2
109400
Ar	-0.0002108562875014519	0.0003237456799493709	0.0032129969251591395	-0.0122399939751097	0.0013291954747244679	-0.0008505040921347774
Ar	9.698493976144068e-05	-9.722133168400776e-05	0.0027622492631879042	-0.009588662875352	0.009886820741418147	0.00047613651298179555
2
109600
Ar	-0.0002684969713822338	0.0002549704998935882	0.0031924248494342427	0.0010424193929080515	-0.014245443924799133	-0.0027678387810808358
Ar	-1.5019043613306934e-05	1.8522553777919727e-05	0.0027766675867762418	-0.011849158244429598	0.012200981062262828	0.0020447657972321393
2
109800
Ar	-0.0001969083522475304	6.62878798451341e-05	0.003175516317990998	0.012503970178444115	-0.022138332765499393	0.00039660211947976893
Ar	-0.00011741857886544383	0.00012418536188204385	0.0027895413247840256	-0.007618040746005145	0.008091784344286238	-0.0003458056299240041
2
110000
Ar	-3.3694968170792824e-05	-0.000159595471812818	0.003198408217308563	0.01891953797678281	-0.02100469216978626	0.003032398742666267
Ar	-0.0001582428581655565	0.00017056674433535876	0.0027716659086702267	-0.00032942821947633244	0.0006364585058686448	-0.002263790783099738
2
110200
Ar	0.00014807464839025546	-0.00031253118273921575	0.0032183459434475424	0.015675840361612462	-0.008012907877009553	0.00049456400411803
Ar	-0.00012273845659072893	0.00013263356459959554	0.0027578008114747	0.007171398573947524	-0.007890471637820771	-0.00023035093166248844
2
110400
Ar	0.0002519799781909069	-0.00030602996034569823	0.003206921885106038	0.004260245896156641	0.00909802793617575	-0.0025258696455712384
Ar	-2.6345946223198657e-05	2.631514422365123e-05	0.002767875390331728	0.011286688130671406	-0.012452770107917538	0.0020793377050579214
2
110600
Ar	0.00023006987964411263	-0.0001505696706319645	0.0031801438171671905	-0.008148167659279172	0.020474326567238927	-0.0017822029377822092
Ar	8.309933295726717e-05	-9.404646780707391e-05	0.002789658325887401	0.009487439888487539	-0.010430618152776782	0.001471724077701455
2
110800
Ar	0.0001023545611357162	7.647163994436434e-05	0.0031865923874834067	-0.016668628538573555	0.023449127383287385	0.0025791643160220524
Ar	0.0001472226243635961	-0.00016754220823290045	0.0027840846792488647	0.003041427237127166	-0.003858783221494727	-0.00213051184151756
2
111000
Ar	-7.745854409722747e-05	0.0002759173218368715	0.0032110246867469473	-0.017562346066398556	0.014378732371263058	0.0015588896114727424
Ar	0.00013990468044876861	-0.00016174881888033366	0.002764154337212423	-0.0044898962213637435	0.005116601076542559	-0.0012735331354093422
2
111200
Ar	-0.0002166408735677434	0.00033657346042737445	0.003211048376097054	-0.009024701611100923	-0.0027558266636776114	-0.0015365735247478375
Ar	6.451129579809211e-05	-7.339477983175751e-05	0.0027633808333210347	-0.009964593463489371	0.011773776970215737	0.0011181237653354447
2
111400
Ar	-0.00024438803912799496	0.00022927161017185943	0.00318714439368588	0.0034560950561719314	-0.01749456339577912	-0.0025542104260237114
Ar	-4.263897499901702e-05	5.367790784673361e-05	0.0027820019942195054	-0.010479961725187961	0.01241190695157314	0.0020798987481342244
2
111600
Ar	-0.00015769735532387833	1.5673311657504614e-05	0.0031798572362215704	0.013234497758375145	-0.02392952700873108	0.001652223891963316
Ar	-0.0001250425043996899	0.00015276883401285169	0.0027883854677482165	-0.005357341601782212	0.006815786140168776	-0.0013198280099445073
2
111800
Ar	3.98758271862706e-06	-0.0002141708224075395	0.0032057943285125775	0.017709536711774578	-0.019732278890239825	0.002464551238286662
Ar	-0.00014429675708672212	0.00017979293760197565	0.0027677222360891446	0.0016622712155270664	-0.0018784390711891032	-0.0019187610766637775
2
112000
Ar	0.0001639682285201797	-0.00033977350915903083	0.00321657080309627	0.012778823700607907	-0.004201848279053084	-0.0005205953502760706
Ar	-9.39762575583011e-05	0.0001166376417415053	0.0027595423351503656	0.00801065307888483	-0.010199406734166817	0.0004004330964460059
2
112200
Ar	0.0002376998951846626	-0.0002924027415510616	0.003197498933760835	0.0014460234383699001	0.013014057248047535	-0.0028520696239425483
Ar	2.8385556973651465e-06	-6.655996936579651e-06	0.002774309978749238	0.010534155775360945	-0.013371011492507004	0.0022642278648964667
2
112400
Ar	0.00019570020095688954	-0.00010611424168985953	0.0031762282196852367	-0.009273719849623817	0.022752500547359306	-0.0002857722649331126
Ar	9.709044835319761e-05	-0.00012600586856011077	0.002791764367094185	0.007317317572096419	-0.00945218062070476	0.00026701450351036864
2
112600
Ar	6.393912945938338e-05	0.00013442795031539864	0.003194890834832947	-0.016202969317008938	0.023349326640538393	0.0029388182239760245
Ar	0.0001392167550869544	-0.00018447046437068822	0.0027769869693185937	0.0009111792696507496	-0.0016804207353704973	-0.0023072370445182907
2
112800
Ar	-0.00010118028005222466	0.0003160662643799339	0.003215967059325142	-0.015236741190053263	0.011127348767704291	0.0007807947737164321
Ar	0.00011406211158512831	-0.0001528565707146328	0.002760536098174306	-0.00575622008129854	0.007747177280879258	-0.00062817546681176
2
113000
Ar	-0.00021323372657624278	0.00033672095777401856	0.0032076078703734906	-0.006191422895141408	-0.007011232017444168	-0.0022604684726039857
Ar	3.3165857449482326e-05	-4.273769467384827e-05	0.0027665947744993412	-0.009763310794163031	0.01329656542349067	0.0017158225370658778
2
113200
Ar	-0.0002175898878316265	0.00019197687301127886	0.003181428709991761	0.005043689571680358	-0.020416331326602432	-0.002040329153903287
Ar	-6.43208671080028e-05	8.975673615295232e-05	0.0027872367995769656	-0.008748613940960588	0.011894832993216566	0.0016606891601809973
2
113400
Ar	-0.000122353591007737	-4.2514041941301574e-05	0.0031845952294150214	0.013495719094537128	-0.025046808659672945	0.0024231656714417214
Ar	-0.00012585364012889855	0.00017664250163482585	0.0027848193857458086	-0.003222339484012868	0.005024835751073244	-0.001976222350837517
2
113600
Ar	3.3137217369710655e-05	-0.00026610018935898874	0.0032100266025237487	0.016158969868484387	-0.017359846619007364	0.0018180866894854416
Ar	-0.00012547010356025673	0.00017990521501496412	0.002764631303689874	0.003324686205499332	-0.004609471992650495	-0.0014097544409891406
2
113800
Ar	0.00017119474969445048	-0.00035651465735804137	0.003212803233621663	0.010178133099589886	8.690322758935037e-05	-0.0013025009752737238
Ar	-6.444806583059303e-05	9.185546722810968e-05	0.002762351400095838	0.00835968501082828	-0.012231938058011328	0.0009839964864613057
2
114000
Ar	0.00022009157660631012	-0.0002676143043605752	0.003189591023440586	-0.0006217114178848819	0.01662165383264064	-0.0027186665153298025
Ar	2.8387454293938725e-05	-4.378337032727664e-05	0.0027803784090940534	0.009372397768752984	-0.013605927109178708	0.0021641461543207073
2
114200
Ar	0.00016447347683077554	-5.404424073682337e-05	0.003178012634264264	-0.009973622419406547	0.02469627769027864	0.0012012351330650383
Ar	0.00010462907340717315	-0.0001559928403423368	0.0027900158114676247	0.005172121808042392	-0.008050902589832792	-0.0009572549559816874
2
114400
Ar	3.195791413626277e-05	0.0001927815365372449	0.00320304549669037	-0.01547242333760699	0.022275948681450494	0.0026626667441631566
Ar	0.0001265212046892755	-0.00019404012672557392	0.0027702356326054557	-0.000910672404681081	0.0009767183653330213	-0.0020835458360613183
2
114600
Ar	-0.0001174965511349309	0.00034767723762169886	0.0032172317277915645	-0.012973542619434068	0.0071967563165096825	-0.00011524363998590236
Ar	8.775949682286685e-05	-0.0001354562136638536	0.0027595178942422913	-0.006542454187621263	0.010220597324611232	0.00010634928371986352
2
114800
Ar	-0.00020474695230039564	0.0003251549650444907	0.0032012013254786565	-0.0037745220274539135	-0.011281683091009116	-0.0026953785940409696
Ar	6.100280917690973e-06	-7.053744422864377e-06	0.0027720311348271545	-0.009092220647335978	0.01434364867163136	0.0021436146513213275
2
115000
Ar	-0.00019072443922009093	0.000146495206150416	0.003178021823302628	0.006195859548168288	-0.022862336047328326	-0.000836616938044859
Ar	-7.758550227619097e-05	0.0001249445497417656	0.0027909157763997107	-0.006753072389790963	0.01078866130502774	0.0006996600150352734
2
115200
Ar	-8.954809712252285e-05	-0.00010339035485095251	0.0031924204659063786	0.013420899417665597	-0.02523361508780017	0.0028194020578615887
Ar	-0.00011853131690430052	0.00019551000990067048	0.0027789353746835175	-0.0012959908717121139	0.0027623918882463978	-0.002292318776248188
2
115400
Ar	5.611217446396203e-05	-0.00031100858510423957	0.0032147255869352724	0.014324217911883373	-0.01416873592654277	0.0010381649795077991
Ar	-0.00010210069343714611	0.00017198997801654418	0.0027611262017791737	0.00446815543850609	-0.007332772361169134	-0.0008324943340020591
2
115600
Ar	0.00017130888014051736	-0.00036066071812583723	0.003209088818057802	0.007687660549333755	0.004605374191035143	-0.0020663665562512916
Ar	-3.623828428929783e-05	6.094123126456839e-05	0.002765221409067468	0.008163754279972502	-0.013936166079560297	0.0015784159988785976
2
115800
Ar	0.00019886515326075682	-0.00023152162848754244	0.00318301475702876	-0.0021799560044480954	0.019800811992526385	-0.0023016947362455584
Ar	4.757141973245301e-05	-8.20962714856451e-05	0.002785731566313009	0.007749850998384682	-0.013254054969674611	0.0018630538480302594
2
116000
Ar	0.00013469674612732888	5.0877527166369135e-06	0.003182572760944475	-0.010274840907725359	0.0261161689009785	0.002260318689707343
Ar	0.0001038694678076359	-0.0001825237850573572	0.0027861253120811348	0.003135784968558184	-0.006297821188056118	-0.0018528175728011551
2
116200
Ar	6.282908984187358e-06	0.0002488284421349239	0.0032089164520142624	-0.014280953282024533	0.02013897421334145	0.0020854065961485174
Ar	0.00010794829790986407	-0.0001964874339567914	0.0027648259962239166	-0.002344463708076527	0.003833072110267792	-0.001676954554323861
2
116400
Ar	-0.00012490745927502342	0.00036904454727747254	0.003214784504096787	-0.01071884248897104	0.0027941416068343237	-0.0010429965806074153
Ar	6.0258753246772734e-05	-0.00011151084226582686	0.0027598899884989335	-0.006808126438367371	0.012430425540473999	0.0007649287351557214
2
116600
Ar	-0.0001901790194665079	0.00030270523832234505	0.003192519609762056	-0.0019080842570190222	-0.015209835823962625	-0.00284477175658111
Ar	-1.7185003598251402e-05	3.115950969728986e-05	0.002777318130252081	-0.008007880616824893	0.014800449952245264	0.0023179636419155664
2
116800
Ar	-0.00016417902450290201	9.408065180253728e-05	0.0031768934332565214	0.0067413604230072725	-0.02503679377559613	0.000703178166545158
Ar	-8.420823350169113e-05	0.00015717002062692618	0.002790901859908644	-0.004713716155191321	0.009396977016741297	-0.0004670918276899799
2
117000
Ar	-6.278890597613692e-05	-0.00016545648411297938	0.0032004907825536615	0.012835015434442007	-0.024513526932932284	0.0028310541279770586
Ar	-0.00010627061414160122	0.0002075833794163368	0.002772909346990735	0.0003573662522584808	6.420601358654988e-05	-0.002131093397603966
2
117200
Ar	7.002462238039485e-05	-0.0003485473776552883	0.0032172612801190615	0.012476823642650958	-0.01026952577408032	0.00015102956509110293
Ar	-7.770449972623751e-05	0.00015535186050685772	0.002760516901070738	0.00513993391067159	-0.010054304886633617	-0.00011084022979392779
2
117400
Ar	0.00016481671975457528	-0.0003534490670841108	0.003203444804226793	0.005660420695254321	0.009139821004422753	-0.0026203834428420794
Ar	-1.1546932775853125e-05	2.354082377706466e-05	0.002770618134135204	0.007544133337581644	-0.015166541120593652	0.0019420961273458126
2
117600
Ar	0.00017668470030465907	-0.0001870428393549375	0.003178390182423705	-0.0031278619897986393	0.022524222937487636	-0.001302965523326437
Ar	5.96017519085355e-05	-0.0001203005744572292	0.002789706596788291	0.005930375532948942	-0.012199268635412498	0.0009883790859389575
2
117800
Ar	0.00010812269583481692	6.764478260082002e-05	0.003189357974441861	-0.010274160621908583	0.026695707012564542	0.0027745219650769696
Ar	9.703269693686995e-05	-0.00020378989418288196	0.002779902150505709	0.0014326069366406245	-0.003962504880592953	-0.0023154547975305696
2
118000
Ar	-1.3606877815847573e-05	0.00029850158195612175	0.0032132204298585504	-0.012941324397326407	0.017108090751828665	0.001321511636169812
Ar	8.744084645663619e-05	-0.00018931141772950214	0.002760639411557661	-0.00329327389063279	0.006828561238306591	-0.0010637061205574264
2
118200
Ar	-0.00012727097140430578	0.0003780937446521813	0.0032104703870905684	-0.008739345268533311	-0.0018622212878873596	-0.0017910538264245019
Ar	3.638347755292407e-05	-7.851622136012961e-05	0.0027628515869432147	-0.0065046862870772	0.014344690496144633	0.001467900350818842
2
118400
Ar	-0.0001748656185775855	0.0002685958123008032	0.0031852616761127313	-0.000518978428477736	-0.018759905290974703	-0.002494904400679803
Ar	-3.238281642941238e-05	7.269032030749743e-05	0.0027843363580346615	-0.006589088578799249	0.014444504762370396	0.0022114717078709953
2
118600
Ar	-0.00014112182088916775	3.430245669489056e-05	0.003180811811277504	0.007022301599725289	-0.02670302894688622	0.0019782880307863907
Ar	-8.191106950150097e-05	0.00018529233662565716	0.0027895189598786774	-0.0029151805384908624	0.007436389114247125	-0.0015042779696523537
2
118800
Ar	-4.202846018169432e-05	-0.00022548232231148647	0.0032079042062239764	0.012009258359607018	-0.022645850253997454	0.0023861257461593286
Ar	-8.899063430651881e-05	0.00021000703367936963	0.0027685144007788516	0.0015217836163951039	-0.002954641500590919	-0.0019024495098231514
2
119000
Ar	7.760868059716877e-05	-0.000374839433955175	0.0032169823199861614	0.010779550976416937	-0.005813541029470859	-0.0007239936304557135
Ar	-5.428283873591215e-05	0.0001297827448512115	0.002760486302783331	0.005151696245944306	-0.012376013046457007	0.0004011810091528229
2
119200
Ar	0.00015486582183332033	-0.00033372677819843013	0.0031961610958091665	0.004099717100704731	0.01339814756190945	-0.0029533461919842405
Ar	6.3502625940944286e-06	-1.6977580340597075e-05	0.002774777675794984	0.006443584735159285	-0.015688543782079862	0.0021333368220076607
2
119400
Ar	0.00015657385007284327	-0.00013417632134320192	0.0031760715216918806	-0.0035608665178809736	0.024908119071946185	8.896103415075749e-06
Ar	6.23929082696942e-05	-0.0001544069253655885	0.0027896124970051947	0.004153807502946082	-0.010601686841824621	-8.080591500388658e-05
2
119600
Ar	8.765208860463268e-05	0.00013332443288695405	0.0031957644803629354	-0.009814751600740926	0.0263048548675793	0.0027849241769099726
Ar	8.395211956327355e-05	-0.00021636491563883063	0.0027735801094315436	0.00013722221438882396	-0.001152481509305654	-0.0021649788207167503
2
119800
Ar	-2.3888005044108976e-05	0.0003416998732811918	0.0032145278469283647	-0.011486035879782688	0.013267819938909825	0.0005270028694133689
Ar	6.550441031371245e-05	-0.00017252777796991593	0.0027600559463142773	-0.0036625729329630963	0.009594960481911158	-0.00025453108825185044
2
120000
Ar	-0.00012118417081699684	0.0003754582227051208	0.003204478742310695	-0.007100725369468449	-0.006663203501151528	-0.0023209458220460333
Ar	1.6291292791723396e-05	-4.069517949367409e-05	0.0027695224554598785	-0.005788650759617073	0.015609019441692764	0.0019725536516117326
2
120200
Ar	-0.00015629265259944493	0.00022548295458563612	0.003179927069598829	0.00015451262730845164	-0.021752976116687018	-0.0015628687738687618
Ar	-4.052753971753933e-05	0.000111772118873955	0.0027903766142984925	-0.0049624754089536705	0.013375491148784939	0.0013740356855945581
2
120400
Ar	-0.00012089366907466119	-2.9393300955088326e-05	0.0031883418634986397	0.006815061511341704	-0.027647081195623154	0.0027789522250124105
Ar	-7.304189625295371e-05	0.00020662787256990595	0.002783681002959652	-0.0014360725857477828	0.005068280432046771	-0.0022875592723529802
2
120600
Ar	-2.8281635564917467e-05	-0.00027958721305399776	0.0032141558189750135	0.010872362378380025	-0.019831582572379557	0.0016388817970576645
Ar	-6.923724492437313e-05	0.0002022675546474017	0.0027621443523445015	0.002147603234841165	-0.006051949220789589	-0.0013973583453191808
2
120800
Ar	7.711804596655529e-05	-0.00038855117442233487	0.003214162162676557	0.009222938645478544	-0.001004876397260168	-0.0016427847100487347
Ar	-3.301096491278243e-05	9.548530675249116e-05	0.0027607820571507904	0.004781502118706571	-0.014398961630923643	0.0011283165732191036
2
121000
Ar	0.0001411362740275488	-0.0003017870432943739	0.0031883174124604048	0.003129224100530184	0.01724043566620947	-0.0028177367000322214
Ar	1.9058513933375318e-05	-6.0850335496117014e-05	0.002780104611883147	0.005166290551010056	-0.015408427974796645	0.002200341810744177
2
121200
Ar	0.00013854210080124557	-7.432347338164944e-05	0.003178236667556417	-0.0035396592345748475	0.02684021107843058	0.0014313101114805926
Ar	5.9629736098534903e-05	-0.00018457723877018608	0.0027883603980237925	0.0025159624548485976	-0.00852440155563855	-0.0011521521999357104
2
121400
Ar	7.292134404056691e-05	0.00019698489952528505	0.003203232932746115	-0.009136473434432203	0.024782594599342928	0.0024807573256226535
Ar	6.787890199322156e-05	-0.00021964875431087474	0.002769131164256578	-0.0008675769477133128	0.0020344660072126324	-0.0018213857550761444
2
121600
Ar	-2.8712489006256538e-05	0.00037325474296122217	0.0032149663966524675	-0.010241708986942709	0.008793420815119846	-0.0003609072071388719
Ar	4.4257928188601784e-05	-0.0001453299610825585	0.002761018979064241	-0.0036863923245096988	0.01215537698748736	0.00036978670474259066
2
121800
Ar	-0.00011368664870165635	0.000359325404323974	0.003197842026968457	-0.006025211454669847	-0.011224656261889817	-0.002655528574837042
Ar	-2.9692037111539226e-07	3.0558975346562574e-06	0.0027751513784728473	-0.004851301041274364	0.016215235061752306	0.002162828718399821
2
122000
Ar	-0.00014191650576743655	0.00017339042484412743	0.0031776922357071337	0.0003723172082658225	-0.02433120077803522	-0.00024875165846958595
Ar	-4.3925637837752115e-05	0.00014897758121536369	0.0027919048103419723	-0.0033406030141119496	0.01162494620907884	0.00022810582106954014
2
122200
Ar	-0.00010724087373492343	-9.707192935187014e-05	0.0031961621561344146	0.006516442902047173	-0.02762212563929068	0.0028919012666629614
Ar	-6.162517239116737e-05	0.00022102779129184715	0.002776613106137139	-0.00025185975955682857	0.0021803092558645492	-0.0023935778611926177
2
122400
Ar	-2.0961618392735884e-05	-0.00032713802891656905	0.003216836172978716	0.009946573690220197	-0.01610128891531543	0.0007229200138398946
Ar	-5.009527609424072e-05	0.00018532790176714747	0.002759089857653333	0.0024909991363239892	-0.00905126512347126	-0.0007274334897685409
2
122600
Ar	7.384276441007272e-05	-0.0003899860354089636	0.003207828576120895	0.00815963995050007	0.003941226871950009	-0.0023482463575158286
Ar	-1.5369192394809555e-05	5.527702738374992e-05	0.0027645772782728187	0.004173637059239045	-0.015836513332960888	0.001688491500029307
2
122800
Ar	0.00012957779348399354	-0.0002601614536279363	0.003180662890385654	0.002679095466599211	0.02055390191533141	-0.002133992762073243
Ar	2.6692714979837913e-05	-0.00010356154249399772	0.00278542427278218	0.0038189255189731617	-0.014361036687406634	0.0017319051301509973
2
123000
Ar	0.00012628868097856765	-9.827289353908024e-06	0.003183189169030368	-0.003368555856411662	0.028018681148101368	0.002474286521344512
Ar	5.236910513655031e-05	-0.00020833247233072906	0.0027837042229065657	0.0011694656509935568	-0.0060558405377941806	-0.0019558086563067085
2
123200
Ar	6.456834993740804e-05	0.0002547285942876844	0.003209723334764721	-0.008477722432904651	0.022206248934767147	0.0019637498002935427
Ar	5.098551825584767e-05	-0.000213785605872131	0.0027637364285873	-0.0013807491470192684	0.005216195130866335	-0.0014034402648976647
2
123400
Ar	-2.8564176546259914e-05	0.0003918075087543929	0.0032140944647163815	-0.009300561510708016	0.003985448418402567	-0.0011594197567074218
Ar	2.6813779327156308e-05	-0.00011193711911299774	0.0027616902774953225	-0.003289546730286888	0.014236980750481647	0.0010292846087065132
2
123600
Ar	-0.00010511865595043902	0.00033084466084310605	0.0031916279049293453	-0.005410565437775845	-0.01532151160527401	-0.0027116101324874413
Ar	-9.717631823889716e-06	4.701028402409669e-05	0.0027804536164849417	-0.003705752375483711	0.01606747627791376	0.002260418722265239
2
123800
Ar	-0.00013119494693468301	0.00011509030380334795	0.0031791082026559163	0.00022944255809693867	-0.026347818116269513	0.0010571946943092251
Ar	-3.973406139694301e-05	0.00018012805039584653	0.0027909572770793	-0.0019170673604947557	0.00954168811963876	-0.0009052553976411089
2
124000
Ar	-9.910631980118553e-05	-0.00016142060321662578	0.0032032192412424134	0.006105668882015311	-0.026377497502261427	0.0026203902704120424
Ar	-4.674277467016307e-05	0.00022584657333904465	0.002770477111517754	0.000426440821364152	-0.0009637858224326235	-0.002219345802325336
2
124200
Ar	-1.845154162470399e-05	-0.00036191426194226873	0.0032168970254218892	0.00925298951824748	-0.011781886393785619	-0.00016141585912608154
Ar	-3.2422235402667e-05	0.00015998381080932456	0.002758086991881627	0.0023599448440952335	-0.011625060138273106	-2.1232150499727805e-05
2
124400
Ar	6.9127698548476e-05	-0.00037747670365137335	0.003200338136224864	0.007500283765718309	0.008597052591274657	-0.0027747332732698258
Ar	-3.1881302818582486e-06	1.2817043467792804e-05	0.002769922684735859	0.0032750784921633438	-0.01651471923543055	0.002155284229113916
2
124600
Ar	0.00012074282266511331	-0.00021058589276688687	0.0031762846331904768	0.0025920174785339627	0.023173498073295627	-0.0009305529975767026
Ar	2.708419843799123e-05	-0.0001404010279566338	0.0027896819026332204	0.002405241970066171	-0.012596755536836804	0.0008455920194114058
2
124800
Ar	0.0001188897305540877	5.6153889773557604e-05	0.0031910030405932475	-0.0030934094025692775	0.028297044533858187	0.0029998083391154736
Ar	3.9829326711023884e-05	-0.00022272687212980904	0.002778487093304757	0.00022178905985292734	-0.003289342765244784	-0.002300955213522624
2
125000
Ar	6.116178267851012e-05	0.0003040266547940893	0.0032152290148306033	-0.007965578334809516	0.018780352305732356	0.0012386034885580929
Ar	3.352201428082073e-05	-0.00019766460078662505	0.0027601772301544323	-0.0014331165473589825	0.00818421391939733	-0.0009114355343587784
2
125200
Ar	-2.595959885521201e-05	0.00039706464409631847	0.00321142211569577	-0.00864418052906415	-0.0009378086914712981	-0.0019047814392257644
Ar	1.2876562482919108e-05	-7.237382846198652e-05	0.0027638459322769826	-0.002521483789288554	0.015775540979322236	0.0015759537240896434
2
125400
Ar	-9.725323539894297e-05	0.0002916824436172172	0.0031856832684372957	-0.005100649654784409	-0.018856043338187915	-0.0023815767467307964
Ar	-1.3355912929282179e-05	9.050146382159485e-05	0.0027849313890757933	-0.00249243285215842	0.015225423926519429	0.001994046881076387
2
125600
Ar	-0.00012360097298317468	5.070423856694021e-05	0.0031831811860796315	-1.1199047716731485e-05	-0.027911157120184407	0.002015031153306455
Ar	-3.0533666330156986e-05	0.00020546585770354374	0.0027872617640584928	-0.0008117548453813389	0.0071242327242369485	-0.0016771256738871284
2
125800
Ar	-9.428148551367519e-05	-0.0002234060458501767	0.0032081075346500083	0.005730210053426328	-0.024178746553587226	0.0020220309597473517
Ar	-3.068954771544219e-05	0.0002216666410628225	0.0027667774819547775	0.0006856772937703229	-0.004197215458596686	-0.0016565952745546805
2
126000
Ar	-1.8868693841480208e-05	-0.00038678859050979405	0.0032140735188785556	0.00865592776617524	-0.0069607077521627704	-0.0009709368852820733
Ar	-1.7985005961066884e-05	0.0001273741571929534	0.0027614938013529188	0.0017499026290195372	-0.013835640761147816	0.0006704217104351022
2
126200
Ar	6.361430695090518e-05	-0.0003534377340845328	0.003192664036603825	0.0071250708616987955	0.013024260783034263	-0.002759628991982068
Ar	2.2776084444062422e-06	-3.220617047842027e-05	0.002777393910029818	0.002138615586261422	-0.01662852234861679	0.0021440449666203306
2
126400
Ar	0.00011419670093538074	-0.00015336182410755295	0.003177042666417031	0.002820943163006004	0.02547696339273146	0.0006512236605596838
Ar	2.040839368104836e-05	-0.0001741607146911015	0.0027898207028737624	0.0012188574563421128	-0.01057222238497317	-0.0005252536854970925
2
126600
Ar	0.00011539112137836888	0.00012365180247335622	0.0032004522782943536	-0.0027953633684181163	0.02754061223042984	0.002871254809817227
Ar	2.4809884111625543e-05	-0.00023057228293408492	0.002771091573144424	-0.00017259600296709045	-9.313855288902042e-05	-0.0022177879389662903
2
126800
Ar	6.111794889543748e-05	0.00034497054265793606	0.003218149366732417	-0.007589449835618694	0.01456125209108182	0.00026358095577420345
Ar	1.860837548741387e-05	-0.00017338465616483759	0.002757926341825376	-0.0010519659675149898	0.011052531904086277	-0.00013449946815471362
2
127000
Ar	-2.2634059374593364e-05	0.00038971747210643417	0.003205214232611372	-0.008383081315543559	-0.005841053677151919	-0.0025771531714417232
Ar	5.149697278135553e-06	-2.802078272266971e-05	0.002768551139369049	-0.0015387382371733756	0.016755327502981403	0.002080951415635563
2
127200
Ar	-9.305183585026595e-05	0.0002440030695832108	0.0031794550348799803	-0.005231732070215903	-0.021760434816891383	-0.0015037346917149879
Ar	-1.0171104600336842e-05	0.0001318692600769833	0.0027895030612752674	-0.001327638454462081	0.013611097641021513	0.0012197838354025337
2
127400
Ar	-0.00012249126454932273	-1.5994184476894382e-05	0.0031887190961240085	-0.0003234099082656004	-0.02853593499142986	0.0026893153618468848
Ar	-1.7182040664341532e-05	0.00022405304816960458	0.0027817753461431664	-0.00010774348361056737	0.004316879027061609	-0.0021742626403490886
2
127600
Ar	-9.571736797011367e-05	-0.000276698440596389	0.0032125877302452838	0.005534918009731115	-0.02099342709767418	0.0014109772123666727
Ar	-1.4753426635456266e-05	0.00020866758382133036	0.002762680351071326	0.0005432654044161914	-0.0073830592097157925	-0.001117994614948335
2
127800
Ar	-2.1669298536231826e-05	-0.0003968159147710137	0.003210874521638332	0.008583454854407072	-0.0020174214711570423	-0.001700495925009869
Ar	-7.2221417452180305e-06	8.821456703277357e-05	0.0027633548828834534	0.0009300663323427252	-0.015642147961167238	0.0012250738126542327
2
128000
Ar	6.0780202462780533e-05	-0.00031784381511146747	0.003186171267464169	0.007232660239147608	0.016745902962791912	-0.0025019914587245426
Ar	2.9222540775962495e-06	-7.773811319572984e-05	0.0027820331618939333	0.0010199636257932302	-0.01596512904179738	0.00195612747014624
2
128200
Ar	0.00011408547796973343	-9.120594667680526e-05	0.003180735751220945	0.0031642832251780753	0.027191005838374412	0.0018696768044065538
Ar	9.961170867192347e-06	-0.00020208781121523433	0.002785942717521884	0.00021703541885836506	-0.008107617992688434	-0.0015305001909955115
2
128400
Ar	0.00011733679752702953	0.0001864257648017233	0.00320715580946035	-0.002729509289793014	0.025669770855634662	0.002384584749152205
Ar	9.423029965918389e-06	-0.0002286505000631412	0.0027653791596068972	-0.00018806870216222797	0.003227057990547293	-0.0017654666184129162
2
128600
Ar	6.289388328725898e-05	0.00037303063139769514	0.0032169197290245013	-0.007653158128350961	0.009911324099987552	-0.0006427843067544742
Ar	6.708897845822437e-06	-0.00014146528428858788	0.0027589821345070965	-0.0003764538279964401	0.013462256922430185	0.0005972584483599625
2
128800
Ar	-2.133338996182643e-05	0.0003692353757359379	0.00319714850104163	-0.00842804738230188	-0.010390190611022967	-0.002830502256785994
Ar	2.085047117593915e-06	1.7982481213083553e-05	0.0027753966583394817	-0.0005328887069334266	0.017013481804382308	0.0023502883933853827
2
129000
Ar	-9.336606824904006e-05	0.00018905487712442463	0.0031774504986894674	-0.005591201836307184	-0.02411828357146769	2.1798453254509754e-07
Ar	-2.9155391367269973e-06	0.00016730838325302357	0.0027922021412099887	-0.00028742591453330917	0.011453614326220945	4.875331613065099e-05
2
129200
Ar	-0.0001257766054803021	-8.342203483741744e-05	0.003197430350358074	-0.00044441929603809734	-0.028172696832903334	0.0028866439136118168
Ar	-2.4755776240445626e-06	0.00023337250658844613	0.002776208349378185	0.00020062161615164682	0.0011792645287268468	-0.002284102064509725
2
129400
Ar	-9.869526700827457e-05	-0.0003214134414951494	0.003217000914111916	0.005668242546682778	-0.017065122962204415	0.0005513553129139027
Ar	-1.2010846251106003e-06	0.00018564067562922376	0.002760516128305749	2.8744481001139853e-05	-0.010317097697084764	-0.0005469990762970321
2
129600
Ar	-2.2939660065184922e-05	-0.00039438616079258204	0.0032063439052692337	0.008753232859989886	0.002986915106543941	-0.0024475573042577674
Ar	-1.4909588429828343e-06	4.422644460902892e-05	0.0027670327327356265	-5.02775295089667e-05	-0.01675524638293268	0.0017214221588928852
2
129800
Ar	6.155505311194551e-05	-0.0002724823324140595	0.0031798457380801818	0.00753474404479055	0.01997154221334195	-0.00186167346251386
Ar	-1.6284733801687958e-06	-0.00011993428495124516	0.0027865097787617287	-1.0653221293190632e-06	-0.01442429691546414	0.0013866662667032855
2
130000
Ar	0.00011937043896999626	-2.380816440406487e-05	0.0031855131008363593	0.0035719077613623243	0.02825184822035652	0.0026184094553923184
Ar	-3.7420237487143026e-06	-0.00022149948902542421	0.002780855484177156	-0.0003772555192156614	-0.005361685728961101	-0.002161661734883237
2
130200
Ar	0.00012361034560482413	0.0002450975577549646	0.003211270550726151	-0.0028743007997632237	0.022840156510955213	0.0017498548905814388
Ar	-5.57777746114374e-06	-0.0002168904170749239	0.0027607946436488157	7.84222316984588e-05	0.006406447038606458	-0.001235117267397395
2
130400
Ar	6.642461850985587e-05	0.00039018435149068504	0.0032130537036094632	-0.008012335552206396	0.004896868026733128	-0.0014129478005627503
Ar	-2.310374823472679e-06	-0.00010359614510560683	0.0027610919999474983	0.0005119742607861887	0.015269849150721599	0.0013046038183940239
2
130600
Ar	-2.1706041467186816e-05	0.00033807121018011806	0.0031895160863833366	-0.008864898488110876	-0.014491988883958118	-0.002647942861349198
Ar	3.1826121532290904e-06	6.314271560236865e-05	0.00278190499681128	0.0005123308286357069	0.016505381615223386	0.002348636142981008
2
130800
Ar	-9.905401601741525e-05	0.00012810303262561726	0.003180120419147192	-0.006216441121160714	-0.02611798069189758	0.0014707345513858658
Ar	8.272310970546405e-06	0.00019565280668059026	0.002791129751131248	0.0005920038705135895	0.009042937184212318	-0.001141884809749329
2
131000
Ar	-0.00013503663845680806	-0.00014920374897523653	0.0032057702631337224	-0.0004577942955066974	-0.02674382047374049	0.0025343471574721744
Ar	1.2617283693011368e-05	0.000232869438017196	0.0027704074532680337	8.879789200923743e-05	-0.0020923822917891365	-0.0020925681229980405
2
131200
Ar	-0.00010543689697637569	-0.0003557469824460517	0.0032175475806899036	0.006131046917144615	-0.012569030732641654	-0.0004186527161514757
Ar	8.818782312391838e-06	0.00015527264562767806	0.0027597689494360386	-0.0007901223232167843	-0.012760879748258661	0.00012575582321478298
2
131400
Ar	-2.3767195590637227e-05	-0.00037992788420850184	0.003199004618180265	0.009417377891570825	0.0077098095744074545	-0.002878795071720628
Ar	-1.4656790714908427e-06	-1.1256431194116196e-06	0.002772300405093531	-0.0011487531429269506	-0.017141391985865614	0.0021141397751860028
2
131600
Ar	6.721020173383264e-05	-0.00022083088951558354	0.003175985893926466	0.00818429608648868	0.022598487737886214	-0.000596463781589442
Ar	-1.1674195863362164e-05	-0.00015593884379172388	0.002789811875241534	-0.0009021787796100669	-0.01232468169371808	0.00042589551263782984
2
131800
Ar	0.00013052343922356077	4.362417136411754e-05	0.0031928083371759366	0.0038295037357605716	0.02833012848457208	0.002941939372973729
Ar	-1.9565976642799764e-05	-0.00023170113436534628	0.0027758236232624843	-0.0004625914890558304	-0.0022808643082343387	-0.002330302131703261
2
132000
Ar	0.00013379207240714482	0.0002936690448802127	0.0032150416994338837	-0.0032650102991715127	0.019188562688265572	0.0009784754890922115
Ar	-1.7651318791108445e-05	-0.00019511188556179754	0.002758915904137339	0.0008638620510999255	0.009337587991496157	-0.0006682555723506059
2
132200
Ar	7.0901999694247e-05	0.00039294322116105484	0.0032086793102738057	-0.00869733163152193	-0.00010942785618290973	-0.0021244167600227262
Ar	-4.503614856086103e-06	-6.0018351654481996e-05	0.002765015873617938	0.0016360589448107703	0.016498412647457876	0.0017765892945173056
2
132400
Ar	-2.4397408341661053e-05	0.000296730802208484	0.0031827116088295497	-0.00957873262124386	-0.01793481848185761	-0.0021454438287875155
Ar	1.1781523903257151e-05	0.00010627090388050801	0.002786802119400131	0.0014644549965172789	0.015093279793148222	0.0018606370359685563
2
132600
Ar	-0.00010918167818279535	6.289568193258638e-05	0.0031845778092779403	-0.006851900965031846	-0.027464277235424113	0.0024036622110007095
Ar	2.4295838711295903e-05	0.00021628881629483384	0.0027861021629169394	0.0009804434823288356	0.0063194299013317546	-0.0019352937286938419
2
132800
Ar	-0.0001471687637181551	-0.00020950138702242364	0.00321076532368132	-0.00022147519935105525	-0.024293239464760044	0.0019309154797582662
Ar	2.7166293746421695e-05	0.00022244428663004693	0.002765126382612394	-0.0005666862385984577	-0.005322574640612385	-0.00156826229945387
2
133000
Ar	-0.00011200519126232104	-0.00037720490631825126	0.003214420384916253	0.006903839818970291	-0.007688072830324079	-0.0012902055865855464
Ar	1.3639739048553356e-05	0.0001178606590438054	0.002761130938339174	-0.001989510979960145	-0.014676881944962857	0.0008341624767651748
2
133200
Ar	-2.2334731856357838e-05	-0.00035298773513879356	0.0031906408941654776	0.01020348742705941	0.011990137250995804	-0.0028847931169503713
Ar	-8.886652193294812e-06	-4.66402866713842e-05	0.0027784475243551213	-0.002266692648156911	-0.01674243449729463	0.0021965413874335347
2
133400
Ar	7.699245839320696e-05	-0.00016265143711376124	0.0031763096443163494	0.00909666095303185	0.024716850028823786	0.0009424892438627922
Ar	-2.805180278761822e-05	-0.00018556674713906204	0.0027894771278229513	-0.0015616297845627344	-0.009928759290871702	-0.0008080710880216759
2
133600
Ar	0.00014575555110641616	0.00010953168044714358	0.003200999019208317	0.0038552454911653135	0.02725591169971554	0.0028240510042456847
Ar	-3.755683107983359e-05	-0.00023353450634421266	0.002769995959831696	-3.981330389146616e-05	0.0008434922487203655	-0.0021090544762235575
2
133800
Ar	0.00014474868929192117	0.00033118959714968714	0.0032173134903862675	-0.0040857613187806315	0.014909910871963536	9.328744298506106e-05
Ar	-2.7063299879701693e-05	-0.00016745080243311491	0.002758771992338354	0.0020483788577569596	0.011818399303334037	8.80313236325671e-05
2
134000
Ar	7.157142454930055e-05	0.00038222646380548815	0.0032028598535647113	-0.009831697838298029	-0.0049642641152818955	-0.0026569572359081885
Ar	-7.254152289723263e-07	-1.6801228993374448e-05	0.0027713869980668603	0.0029518260315562167	0.01698757661630218	0.002197001081698833
2
134200
Ar	-3.449119070797103e-05	0.00024727211646371886	0.0031785909172295347	-0.010583435198869033	-0.020630789510079035	-0.0010779882674045757
Ar	2.6152708242075992e-05	0.00014159221959514443	0.002791583335914335	0.0022265706111684737	0.01309995828738463	0.0009104864595724281
2
134400
Ar	-0.00012774934030136643	-3.244269367481825e-06	0.003191374520288311	-0.007275687895866945	-0.02779325862562718	0.0027826616846349755
Ar	4.28984798630423e-05	0.00022692475745036614	0.002780686483903715	0.000888066741145048	0.0034571271348571167	-0.0023619888305780024
2
134600
Ar	-0.00016364959097901356	-0.00025946058617839395	0.0032139213719810937	0.0005355861015610611	-0.02092207741840286	0.0011154023797163182
Ar	3.931558243591699e-05	0.00020289497527052361	0.0027613424781015353	-0.0015913593985751426	-0.008164583378286757	-0.0010431360366398052
2
134800
Ar	-0.00011763667837166113	-0.00038306997879006537	0.003209057897299148	0.008212936046119095	-0.002771470439209539	-0.00197834051532849
Ar	1.402765921793412e-05	7.71968055362391e-05	0.0027635122853253234	-0.0032283003324091878	-0.015910057996383224	0.0014168934587144015
2
135000
Ar	-1.4961892516915474e-05	-0.00031468690573587454	0.0031829756719252435	0.011375907630164803	0.015487468256705966	-0.002416992365150225
Ar	-1.9239033247815925e-05	-8.82507337576943e-05	0.0027836858104432383	-0.003086737085048959	-0.0155259693041044	0.00198390178621162
2
135200
Ar	9.474267899070499e-05	-0.00010025876176286056	0.00318080995579081	0.009948110049700124	0.026161084921180088	0.0022046143139620162
Ar	-4.404012795762935e-05	-0.00020576447007279738	0.0027860078039089117	-0.0018235004790341097	-0.007269123548460358	-0.0017189762607733472
2
135400
Ar	0.0001659562872572581	0.00016932861451286613	0.003208645114597645	0.0034390764509893345	0.025121697731620044	0.0023514355529084823
Ar	-5.051846131753715e-05	-0.00022333205850878942	0.0027651029351270454	0.0007457328759357709	0.004070533596921054	-0.0017041970906058863
2
135600
Ar	0.0001558690974926463	0.0003549152185583282	0.003216793294582997	-0.005372471160317014	0.010257132588689918	-0.0008606328851446354
Ar	-2.9847355716938812e-05	-0.00013027564661205338	0.0027595836182133645	0.0032012723844925314	0.013749399011559247	0.0006855909921874418
2
135800
Ar	6.855671863171227e-05	0.0003587194132620098	0.003195375886391827	-0.011218739782855966	-0.009210024014153762	-0.002898876265320952
Ar	7.566215944423599e-06	2.8942618434992776e-05	0.002776448598777182	0.003926671650422679	0.01668522912285734	0.0022973205772082467
2
136000
Ar	-4.943434905829081e-05	0.00019181951320021396	0.003177205054890594	-0.01167161664770005	-0.02280206390138342	0.00032230171124897924
Ar	4.168194555291251e-05	0.0001721205412270695	0.0027910502234967127	0.0027224831622236676	0.010662013158909439	-0.0003008859789819657
2
136200
Ar	-0.00014945397237034832	-6.895096573830686e-05	0.003198452835297848	-0.00726833207757722	-0.02717442931633141	0.0027622844430134122
Ar	5.8961531036565903e-05	0.00022915151281177747	0.0027733661823951903	0.00035611556633634425	0.00023656589810944762	-0.002229789996786068
2
136400
Ar	-0.00017886697013688125	-0.0003007826460192082	0.003215874552947895	0.0017403151502028713	-0.016903740380969614	0.0003278416946870869
Ar	4.620473760628984e-05	0.00017434500585277642	0.002759551298216216	-0.002805742282597984	-0.010739497208635602	-0.0002441577066910761
2
136600
Ar	-0.00011814244020837638	-0.0003773837176681192	0.0032035987454557863	0.009772158233277364	0.0021229282952822353	-0.0024962407887049237
Ar	8.010587336849808e-06	3.209479047073406e-05	0.002768964222599424	-0.004450451292514818	-0.01648216731788718	0.0019501362649257225
2
136800
Ar	-1.8537854289672847e-06	-0.00026787316750014517	0.003178744200658175	0.012540472084138181	0.018481025337065814	-0.0014178780905679254
Ar	-3.447266160869648e-05	-0.00012629651294422475	0.0027892010742381944	-0.0036594429063151854	-0.013607239110839352	0.0012444692710639879
2
137000
Ar	0.00011755510441670118	-3.3764323978556314e-05	0.003189167140861534	0.010464337714926079	0.026889819877128723	0.002833121298590252
Ar	-6.19271986008578e-05	-0.0002187477041364886	0.002781534729909892	-0.0015960405135723383	-0.004391568734683667	-0.002228684352835045
2
137200
Ar	0.0001860512139580995	0.00022384784927826284	0.0032140450362808837	0.002447777181447611	0.022100369948293872	0.0014389096404651242
Ar	-6.060602298550823e-05	-0.0002056661128115595	0.002761898176079886	0.001939786517344067	0.007021491746323942	-0.0011567143298095736
2
137400
Ar	0.00016112044472348992	0.00036706634623763317	0.003211941921231685	-0.007162244431621377	0.00528560515511721	-0.0018000803342528963
Ar	-2.6489030511280924e-05	-9.004481206883234e-05	0.002762787599349915	0.004548254670037551	0.015124947490719373	0.0013293120867732709
2
137600
Ar	5.701714195002491e-05	0.00032430087121502853	0.0031857422334848045	-0.01266189990201947	-0.013075653149863923	-0.0026857347286000145
Ar	2.228658954787874e-05	7.150296267865829e-05	0.0027830465574116042	0.004707824030071583	0.015648552366912004	0.002152448147944528
2
137800
Ar	-7.324765742740349e-05	0.00013074701129909394	0.003178932315529379	-0.012680154334035161	-0.024440027791680887	0.0018295521828359997
Ar	6.071970832385013e-05	0.0001937204191391026	0.002788803958728622	0.002861925196933458	0.007990446107716955	-0.0014643019166723351
2
138000
Ar	-0.000175875202288804	-0.0001305507995771796	0.0032059701660893847	-0.00669286729229739	-0.025356613111358912	0.002538158281854308
Ar	7.309729649706832e-05	0.00022139801518356703	0.0027674407031102253	-0.0006984457262605528	-0.002857627812105221	-0.001932259791395672
2
138200
Ar	-0.00019230471851765	-0.0003285006338057716	0.0032168382197395474	0.003563121336853615	-0.012352641578097852	-0.0005727935126167126
Ar	4.698656142612788e-05	0.0001398112537713656	0.002759292940719092	-0.004274194742534838	-0.01274471095788246	0.00041926805978324496
2
138400
Ar	-0.00011240391257071069	-0.00035737687085918686	0.0031973141951359934	0.01158109089815734	0.006600957930784486	-0.002875947226700561
Ar	-4.686841603839879e-06	-1.2423912883003734e-05	0.002774376699855725	-0.005572269623605305	-0.016347364518887037	0.0022782008406623433
2
138600
Ar	1.9189387994851764e-05	-0.0002139578672210121	0.0031765893243415346	0.013839144155402551	0.020741898455170004	-0.00012786548521247576
Ar	-5.39852688540694e-05	-0.00015692710664832432	0.0027912361987349225	-0.003953232862789627	-0.011146681925717366	0.00015029153724923668
2
138800
Ar	0.00014707617367260028	3.159058445156405e-05	0.0031959830196189305	0.010518631774856542	0.02647432268730421	0.0028786804859725246
Ar	-7.989143947950582e-05	-0.00022155476349910557	0.0027758888794414296	-0.0008325496701068165	-0.0013116563661309353	-0.002259037092390433
2
139000
Ar	0.0002072631122064598	0.00026728290739889315	0.003215897020054642	0.0008724866886588693	0.01829419618050225	0.0006395843161654926
Ar	-6.616387747957629e-05	-0.0001792037990869844	0.0027607223167447083	0.003463751447375857	0.009470467020188668	-0.0004564478880450377
2
139200
Ar	0.00016302584407053175	0.00036499123066230447	0.0032066171788343433	-0.009240086952131738	0.0004742832242112832	-0.0022985908044720446
Ar	-1.6956525880843966e-05	-4.7725654567277274e-05	0.00276832314531941	0.0059133147577190405	0.015726039947173705	0.0018269042616170137
2
139400
Ar	4.0499161115080505e-05	0.00028144460580903146	0.003181045168126262	-0.014165604697974829	-0.01610749845249154	-0.001865581670701121
Ar	4.13171030640204e-05	0.00010784272257879126	0.0027889564896532797	0.005174376045268855	0.013809726501590047	0.0015089035377816524
2
139600
Ar	-0.00010215620042171383	6.755618781904434e-05	0.0031863688961171898	-0.01341950799725433	-0.0253977086349793	0.0025734045142579588
Ar	8.027677082425184e-05	0.00020552652614653052	0.002783929302511037	0.00240215445720001	0.005225286738090133	-0.0021963780153759264
2
139800
Ar	-0.00020247871748887321	-0.0001854390409156578	0.003211762577934369	-0.005527896200715444	-0.022703513828243226	0.0016941559482903528
Ar	8.220707049151155e-05	0.00020381490219162867	0.00276282282132615	-0.0021491690462587536	-0.005673805439597625	-0.0014143181034345378
2
140000
Ar	-0.00020159689172988748	-0.0003441587945874521	0.0032128968748928047	0.005677859880180751	-0.007603250719552515	-0.0014657468163311329
Ar	4.0879606479423274e-05	0.00010112283301290373	0.002761197115059939	-0.005732898728415568	-0.013990680245736502	0.0011161014583763492
2
140200
Ar	-0.00010067537858264032	-0.00032748211774348524	0.003188179369592384	0.01345948530506935	0.010465119661155356	-0.0028095358796201586
Ar	-2.2467598940225785e-05	-5.270466948451162e-05	0.002780567623887132	-0.00633077846456032	-0.015367571939326377	0.0022660654549768134
2
140400
Ar	4.630625571621812e-05	-0.0001571675687748754	0.003177077786891979	0.015099325344001798	0.022401456022934432	0.0013948730623449675
Ar	-7.470689807744305e-05	-0.00017687800278112063	0.0027900684624903266	-0.0038775141551197867	-0.00851135583050779	-0.0010293014768275905
2
140600
Ar	0.00017858048134702242	9.147035659058467e-05	0.003203275022864345	0.009965165588279024	0.025099031747748832	0.0026891521347504185
Ar	-9.373938663112323e-05	-0.00021348329625863147	0.0027699969213115794	0.00048439953623859644	0.001620894702726845	-0.002026140910666069
2
140800
Ar	0.00022461214319037808	0.0002973304633465927	0.003217123219414116	-0.0012153496744653648	0.014108244719330998	-0.00021925746679443006
Ar	-6.456348609899314e-05	-0.00014544617054364445	0.002760025059446993	0.005091997556108296	0.011410081680378702	0.00019209760323480818
2
141000
Ar	0.00015745147521252487	0.0003498468501007293	0.0032001953635656354	-0.011511143909819922	-0.0038908334569180076	-0.0028010348632165577
Ar	-8.547554042202956e-07	-4.2300516865141946e-06	0.002772967323475293	0.0070689294059586546	0.01561830208956492	0.002129785304289563
2
141200
Ar	1.5713530787395123e-05	0.0002325254646314855	0.0031769345435538375	-0.015700155032481698	-0.018331367905721555	-0.0006889564883776557
Ar	6.393622592384203e-05	0.0001381954411734586	0.002790944449036857	0.005296238311652705	0.011426840102544472	0.0005114625027181909
2
141400
Ar	-0.000137547712083659	6.64354029202079e-06	0.0031929700931903355	-0.013632730305751671	-0.025241909282592064	0.002858785062806276
Ar	9.97007839603245e-05	0.00020869226730418488	0.0027775567605655234	0.0014362529832078867	0.002262587823207007	-0.0023260456240444803
2
141600
Ar	-0.00022930536332505989	-0.0002275816627370774	0.0032146718065744666	-0.00372412973482845	-0.019322977123348607	0.0009163333718891289
Ar	8.686048680461838e-05	0.00017811032526093514	0.002760194454975977	-0.003945017517563058	-0.008162609746092479	-0.0007377824721365463
2
141800
Ar	-0.0002052631918323753	-0.00034459237755916976	0.0032077141689529965	0.008245349159143874	-0.003087338196819216	-0.002147098180849006
Ar	2.780402878889299e-05	5.881542464006912e-05	0.0027651272565316315	-0.007329020492145135	-0.014672221961592444	0.0016484131277332988
2
142000
Ar	-8.10780032453113e-05	-0.0002888338207157085	0.003181910715489189	0.01538195396384958	0.01338544073453422	-0.0021196703704108094
Ar	-4.6477344780281604e-05	-9.017554245625328e-05	0.0027856896476271885	-0.0067737420919509374	-0.013659638946786722	0.0018003970088633252
2
142200
Ar	8.115657650456011e-05	-9.966593572166052e-05	0.003183825714657962	0.01608668594849649	0.02336560470333864	0.002447504558713706
Ar	-9.822682257006311e-05	-0.00019009043503548834	0.0027850162614652773	-0.0033177712599140523	-0.005776723925817024	-0.0018957495551740289
2
142400
Ar	0.00021243163632640616	0.0001428993488671711	0.003210824936576557	0.008729409440424794	0.022783824355932205	0.0020468821474447798
Ar	-0.00010462854280268015	-0.00019754555368430794	0.0027648045572983048	0.0022757680289401546	0.004472724480085511	-0.0014432286846309214
2
142600
Ar	0.0002381882469178317	0.0003133867470301381	0.003215671968759926	-0.0038018608382572087	0.009745761718253592	-0.0011745137583705266
Ar	-5.6500931404757816e-05	-0.00010733006738282117	0.0027621146336122447	0.006928250498325616	0.012799696001185959	0.0009644075204842907
2
142800
Ar	0.000145085663647615	0.0003231958467187049	0.003192207671920954	-0.013807945656691821	-0.007575255272044106	-0.0028958662888969025
Ar	2.1865961608838646e-05	3.7045438161421576e-05	0.0027804243550847815	0.008006451046978192	0.014780812143026172	0.0022889497570958758
2
143000
Ar	-1.4840835234287183e-05	0.000180347842215945	0.003177245600284415	-0.017184545239002307	-0.019899680403046405	0.0008296874599277844
Ar	8.935271271142381e-05	0.0001599279724558384	0.0027919563764591117	0.0050806528210814205	0.008744919684331828	-0.0008049660893483624
2
143200
Ar	-0.00017510686696024083	-4.994785240927701e-05	0.00320094776787905	-0.013234823951464783	-0.0241819323596285	0.0027561497844879016
Ar	0.0001167205876920512	0.0002023773079991079	0.0027715369212412194	-7.152255756098325e-05	-0.0006458191448284637	-0.0022977579150417413
2
143400
Ar	-0.0002520887200314655	-0.0002585301752298066	0.0032168684306941517	-0.0014020721415427717	-0.015531651900484136	9.735350855835302e-05
Ar	8.559342637464625e-05	0.00014637419799701636	0.0027582278503806325	-0.0059002411254957254	-0.01009159374442591	-0.00010630825959713372
2
143600
Ar	-0.0002015206934600441	-0.000333211810857295	0.003202583195747328	0.010955628996864251	0.0011140002748633044	-0.002642416691035047
Ar	9.2094249336267e-06	1.7548213057344467e-05	0.002769279105323622	-0.008688237793291946	-0.014596689366461234	0.002106564218207185
2
143800
Ar	-5.442098175344993e-05	-0.0002442266940747866	0.0031779512429519503	0.017210034670169762	0.015640164649933556	-0.0011575692933211983
Ar	-7.223901337925357e-05	-0.00011961922109198075	0.0027896052178556455	-0.006844863017938552	-0.011437156214067582	0.001028716527809318
2
144000
Ar	0.00012141762962179709	-4.1633784939113015e-05	0.003190065704076996	0.016618369604871324	0.023557700772819695	0.0027564867174629587
Ar	-0.00011961098628468462	-0.00019379112673200685	0.00278031356196624	-0.002233781976849925	-0.0030117591027661716	-0.0021676215774286463
2
144200
Ar	0.00024518356637415515	0.0001864274397361133	0.003212789340522951	0.006796998662400327	0.01980932914356058	0.0011745520733801487
Ar	-0.0001097745936622233	-0.00017427719984539566	0.0027629561204916926	0.0041851641026099395	0.006819375732554029	-0.0008374036383740542
2
144400
Ar	0.0002447726737010025	0.0003180634414791437	0.0032086650048376054	-0.006787010202565834	0.0053881528281915485	-0.0018913359648269079
Ar	-4.296383795278369e-05	-6.819514411064117e-05	0.002766614136396435	0.008559564513492436	0.013489210687660173	0.0015066157032373496
2
144600
Ar	0.00012415608773690546	0.0002889089790997403	0.0031834337971225106	-0.01610859608168414	-0.010613522604737267	-0.002326857215038186
Ar	4.6373428923976135e-05	7.227998345752011e-05	0.002786688164316931	0.008427003725380123	0.013268250716850772	0.0018891302292480402
2
144800
Ar	-5.387875660079625e-05	0.00012637501166948569	0.003181864195899923	-0.018450658031770557	-0.020934142442287598	0.0022471892460368733
Ar	0.0001122330381983322	0.00017259489999830416	0.002787253795385634	0.004429459223385372	0.006170041318046483	-0.001973441487587806
2
145000
Ar	-0.00021466856455092884	-0.00010023744009137224	0.0032097571323294574	-0.01197482110938333	-0.02224128852284596	0.0023336685155178256
Ar	0.00012613698575442202	0.00018830065127953193	0.0027640958553159204	-0.0019924768809593536	-0.0032847774905285384	-0.0018732526019360786
2
145200
Ar	-0.0002694762198270204	-0.0002767872062269871	0.0032177722760944696	0.0015107248516520247	-0.011412481917027609	-0.000884089342518693
Ar	7.471846751943453e-05	0.00011163322793147095	0.002757649912745362	-0.007814220079905105	-0.011396482008828975	0.0006772913122878821
2
145400
Ar	-0.00018895037404130218	-0.0003103266990710836	0.003195860316171601	0.01369154974798919	0.004772922940777601	-0.0029800895614915447
Ar	-1.662000984503462e-05	-2.1012878810962473e-05	0.002775081684256209	-0.009585636844572238	-0.013963321533601887	0.0024451147794515267
2
145600
Ar	-2.0262372001068476e-05	-0.00019544910387132278	0.003176591289689014	0.018888967306741666	0.017155407232354234	0.00017759554537805918
Ar	-9.933474638377675e-05	-0.00014128148424188687	0.002791456891483897	-0.006348309624101431	-0.008947260074618482	-9.795259317124272e-05
2
145800
Ar	0.00016463071075584256	1.20849434965045e-05	0.003196997513821991	0.016339646929610152	0.022731101328809317	0.0027316028355752952
Ar	-0.00013632800295340481	-0.00018935843013642896	0.002775196588140214	-0.0005344777279047726	-0.0003297845331868953	-0.00216191327836227
2
146000
Ar	0.0002736709876608032	0.0002173629641956822	0.003214683146491592	0.0043296174489106925	0.016312392039586416	0.0003898144307193172
Ar	-0.00010600315958029842	-0.00014586210159163777	0.002761689850919864	0.006340117650246948	0.008661064558174973	-0.0002397981400762076
2
146200
Ar	0.00024383927686049894	0.0003097159130898992	0.003203473618325148	-0.009888577704815127	0.001422249969010248	-0.0023904785180951967
Ar	-2.0384357648673637e-05	-3.0170601782116686e-05	0.0027707162944668805	0.010029340412985787	0.013507768159755703	0.0018708306643340222
2
146400
Ar	9.614870218872068e-05	0.0002486534856257958	0.0031796036609346824	-0.01830150113772029	-0.01277118848777368	-0.0013876363772737995
Ar	7.598642907095975e-05	0.00010035892586150571	0.002789847141986163	0.008321745625414385	0.011263619429774387	0.0010850126215785148
2
146600
Ar	-9.858249059522723e-05	7.364388251481248e-05	0.0031898924622333533	-0.019287557894114304	-0.02117588563136387	0.002799610065471563
Ar	0.0001356671080833104	0.00017666166333662133	0.0027806682129109745	0.003192253356396879	0.0036467970935781698	-0.0023765472147797197
2
146800
Ar	-0.00025371039984947084	-0.00014078091047180897	0.003214645948844734	-0.01005799237145656	-0.019621692821449467	0.0014316569455703888
Ar	0.0001307666183672543	0.00016707010487025553	0.002759998438767862	-0.004238632269447822	-0.005546079928800303	-0.0012060537626958098
2
147000
Ar	-0.0002809417600498963	-0.00028266563854347204	0.003212513617386243	0.004806196417064548	-0.007509520107227099	-0.0018113971366611995
Ar	5.807874960608537e-05	7.468144340127285e-05	0.0027609430918662183	-0.009644966783219628	-0.012149772817487772	0.001360095833301112
2
147200
Ar	-0.00016874125788869545	-0.0002807182409022484	0.003185703250075819	0.01643554159180903	0.00757225544235186	-0.0027906634743593978
Ar	-4.540799611483802e-05	-5.554941257610039e-05	0.0027819032985251634	-0.0100414751373753	-0.012669977358997574	0.002263003276818278
2
147400
Ar	2.1390460493854478e-05	-0.00014801902954249792	0.003177543566855643	0.02050430196052879	0.018110939977294543	0.0017144320837852378
Ar	-0.0001254749815709323	-0.00015467578278348254	0.0027890170219865436	-0.00555492356963877	-0.006421865990349209	-0.0013002249110303761
2
147600
Ar	0.00021031572762126877	5.744738483544162e-05	0.00320454613923437	0.01532087945227018	0.02112700743913484	0.002601527097390851
Ar	-0.0001475726593691315	-0.00017726200720369323	0.0027688709352583028	0.0015651850237039314	0.0021839154765872872	-0.0018699901324863491
2
147800
Ar	0.0002969191407816955	0.00023538840463820072	0.003216947556051824	0.0011638974808233433	0.012762435228621909	-0.0003590438282786699
Ar	-9.494935969419838e-05	-0.00011355152552769657	0.002760932409494156	0.008462702652872196	0.010009282408120964	0.000410095836745275
2
148000
Ar	0.0002331461253318652	0.0002913032253302173	0.003199268484134329	-0.013135814316676642	-0.0018787207452548255	-0.002759407416286252
Ar	7.04478961487217e-06	6.500423759602153e-06	0.002775353625441057	0.011006880717538243	0.012980541317148315	0.0021767249590825513
2
148200
Ar	5.950702392661397e-05	0.00020640159680599266	0.0031789237098491605	-0.02025800582235411	-0.014189753232048886	-0.00024146068980674496
Ar	0.00010504861688815868	0.00012200679673582937	0.0027916250866153675	0.007753298271063035	0.008954658737981052	0.00013264020917549128
2
148400
Ar	-0.0001469199590614627	2.529313646541925e-05	0.0031965276880615355	-0.019243807693665592	-0.020751433782423084	0.002681649629177952
Ar	0.00015320068371911896	0.0001740104713961723	0.0027761434251633204	0.0013708443416565342	0.0011324355742720965	-0.0022541627570132287
2
148600
Ar	-0.0002874829755611551	-0.00017161661987054558	0.003214433725723419	-0.007415738323962064	-0.016719728037210252	0.0004720196441587771
Ar	0.00012660276962585848	0.00014194918827205682	0.0027608047000167646	-0.006491684203368333	-0.0073178051347473376	-0.0004966485850201371
2
148800
Ar	-0.0002819117210842476	-0.00027917611756685736	0.003203783215341265	0.00833816026088651	-0.003914549290725415	-0.00237663383999558
Ar	3.443509954931757e-05	3.941959568686632e-05	0.002768197575590115	-0.011089744371422733	-0.012304551462546923	0.001820864606364048
2
149000
Ar	-0.00013918648885761307	-0.00024764087642739375	0.0031784770446567673	0.018823118281992755	0.009632257408618339	-0.0017270825727309603
Ar	-7.510808362618517e-05	-8.248324280137818e-05	0.0027888622921321223	-0.0097544276087257	-0.010843698799558934	0.0015271192562185537
2
149200
Ar	6.905298859953473e-05	-0.00010284106590728083	0.0031858397219959424	0.021503187479934842	0.018521918356420745	0.0028721022143082552
Ar	-0.00014691627607681207	-0.0001585742689301634	0.002783855158905823	-0.004233038382027803	-0.003994970185344571	-0.0022552973273724827
2
149400
Ar	0.00025329144353876295	9.45033677810964e-05	0.0032144201504702478	0.013391223959173224	0.01904569492210774	0.001988216169384712
Ar	-0.00014952141628466023	-0.00015717317791751298	0.0027617588753443907	0.0038879167922953035	0.004350137730303488	-0.0015223679907839414
2
149600
Ar	0.000310666092227875	0.00024300750086732377	0.0032172903437756683	-0.0023852454235890777	0.00930033817172376	-0.0014253459598202866
Ar	-7.517311635777805e-05	-7.849916282568224e-05	0.0027593754595071707	0.010323512605825846	0.010734933605840652	0.0010667647026210703
2
149800
Ar	0.0002123438807978407	0.0002666866609222986	0.003191816689794687	-0.01617752316434757	-0.004547740754139469	-0.0030029247039765985
Ar	3.888088413432417e-05	4.002021278688115e-05	0.002778700321120294	0.011418995070078363	0.011898313147374887	0.002320224197668964
2
150000
Ar	1.5178427690808007e-05	0.00016483035825259657	0.0031776829027978207	-0.022016374012592984	-0.015048209613479373	0.0009878131108942375
Ar	0.00013267276188664738	0.0001362432651508964	0.0027895418159740383	0.006738266578607607	0.006526156567015434	-0.000858621631964995
2
150200
Ar	-0.00019724582796306318	-1.5792522809580476e-05	0.003200509793922288	-0.018343323106931275	-0.019539014938778833	0.002461859788446806
Ar	0.0001644983327550667	0.00016346908902791743	0.0027710219143264663	-0.0008695936472820351	-0.0013071444082431696	-0.001915709577128775
2
150400
Ar	-0.0003154939023121245	-0.000190144449976668	0.003213557469327706	-0.00412707308427706	-0.013664099918998269	-0.0001324445108632651
Ar	0.00011446753305302216	0.00011139512446957424	0.0027616504753262485	-0.008715568929523411	-0.00865887647219908	0.00020787483583397688
2
150600
Ar	-0.0002736498233818482	-0.000265457622154612	0.003198655924779812	0.011921176805138625	-0.0008705904712964947	-0.0025279644184861678
Ar	4.942275024651928e-06	4.3395248309246264e-06	0.0027743506768701945	-0.012205173850545994	-0.011829650393984925	0.0020653732166281817
2
150800
Ar	-0.00010155736913400604	-0.0002113008684724743	0.003178182434019217	0.021062652390578092	0.011001467836429689	-0.00046465902276864236
Ar	-0.00010658844235174949	-0.00010362055372633476	0.002791274560839177	-0.00910455443286519	-0.008684270873378917	0.0003817420403146903
2
151000
Ar	0.0001215349382922708	-6.0008886989389786e-05	0.0031955722500400445	0.021784943430305428	0.01830172516979024	0.0029620278528697
Ar	-0.00016651739605348794	-0.00015661883743828405	0.002776543936122634	-0.002335548425647653	-0.001658872589435767	-0.0024722521816227263
2
151200
Ar	0.0002924032086843595	0.00012353972410264718	0.0032176356026138485	0.01063094943936066	0.01662424451311819	0.0009081255378398365
Ar	-0.00014535984063966174	-0.0001338065202161112	0.002758032850351854	0.0064462807231211675	0.006066429449816457	-0.0008178022246534244
2
151400
Ar	0.000314771139310333	0.00024227928656759252	0.0032098636789350036	-0.006248255159999665	0.006095132099530776	-0.002282729907345906
Ar	-4.898247920766737e-05	-4.512062161527318e-05	0.002762843284514517	0.011991310713839248	0.01091439036465864	0.0016754317220447742
2
151600
Ar	0.00018216526965501468	0.0002382854650281111	0.003181821582331188	-0.018879575064415195	-0.0065602226577702654	-0.002435180881191653
Ar	7.334166957549283e-05	6.598883526022796e-05	0.0027843100574039817	0.011268780247110342	0.010209527148577242	0.0019546735129759235
2
151800
Ar	-3.511877763245008e-05	0.00012437631721490827	0.0031811221866989013	-0.023306677076555083	-0.015581414767281908	0.0023096806311391125
Ar	0.00015850356618541986	0.0001402135202788032	0.002785453098937408	0.005318811134820711	0.0041973553292570945	-0.0017600232899593808
2
152000
Ar	-0.0002450408636458243	-5.1238829208962575e-05	0.003208346183222225	-0.01650160812825142	-0.017905315900397754	0.002218968343731209
Ar	0.00016922929339206869	0.00014524936912813444	0.002765408144879296	-0.003473275555928872	-0.003267165999912955	-0.0015347815443015873
2
152200
Ar	-0.00033322937955862925	-0.00020064728440755114	0.003215483061099161	-0.00031474161716569496	-0.010591456826338904	-0.0009230914152380158
Ar	9.401822143338081e-05	7.992007746997078e-05	0.0027616511350493206	-0.010888755576606093	-0.00926712467260113	0.0008308092827452628
2
152400
Ar	-0.0002535051172090088	-0.0002463090958150296	0.003194292046393544	0.015282181415394015	0.001678407462863956	-0.0027747092980961764
Ar	-2.9924560250950748e-05	-2.5017832267610736e-05	0.00277893754559893	-0.012745937307510205	-0.010784671525399131	0.0022134444256064587
2
152600
Ar	-5.536570127551613e-05	-0.00017483643851776517	0.0031788908907617497	0.02300635708240361	0.011975190038897241	0.0006564192580405233
Ar	-0.0001375276010775768	-0.0001151424724577657	0.0027906198796390225	-0.007985138682187727	-0.006386917376885009	-0.0006830991071166398
2
152800
Ar	0.0001759858238952615	-2.132622278639108e-05	0.0032008726174773097	0.021100929351461437	0.01751293574410499	0.002582636403960561
Ar	-0.00017968468097682863	-0.00014561990162155648	0.0027712262788969016	8.84358750381671e-05	0.0004764159026581452	-0.0022244962331923438
2
153000
Ar	0.00032555150048800823	0.00014395761701047353	0.003215539238917173	0.007313181142628666	0.013979353163531204	-1.4623018176055495e-06
Ar	-0.0001327258292980901	-0.00010578188450107272	0.0027583024682045604	0.008888598748280737	0.00718452641082254	-0.00012656470490599335
2
153200
Ar	0.0003097781943603325	0.0002337131109743472	0.0032010865355293	-0.010135032082118108	0.0032561279284596015	-0.0025806524381136024
Ar	-1.7409940313742112e-05	-1.3488746695762801e-05	0.0027690644394286258	0.013189922800961434	0.010500633183295945	0.00207693260798322
2
153400
Ar	0.0001448515250002912	0.00020766261977300823	0.0031774439504380454	-0.021320454830882997	-0.007963480306430603	-0.001061540719402295
Ar	0.00010689315417518134	8.539205183467942e-05	0.0027890300385205766	0.010463192403076017	0.008219137729349556	0.0010101341746855774
2
153600
Ar	-8.94564591838818e-05	8.65463540778612e-05	0.0031908992995144853	-0.023923472071004367	-0.015574369299486437	0.00298293566682574
Ar	0.0001780793755786027	0.00013757338104486804	0.002779354484548976	0.003285548884741884	0.0020068659335581384	-0.0022441638275936078
2
153800
Ar	-0.00028936083121895977	-7.867618948222157e-05	0.0032161758924349596	-0.013986970573944199	-0.01591304783125169	0.0014104300819512987
Ar	0.00016350892106617231	0.00012271752320987289	0.0027608793084737938	-0.006162453581997462	-0.004873227479746482	-0.00094218864284392
2
154000
Ar	-0.0003429008127533184	-0.000202728027655992	0.0032135643927000052	0.003658651359596444	-0.007788418910521507	-0.0018410157281707616
Ar	6.497913349938103e-05	4.7749756895998656e-05	0.00276393129548429	-0.012668270070407748	-0.00948052257858324	0.0014889185943012606
2
154200
Ar	-0.00022605602967140436	-0.00022289295389845795	0.0031871893077212365	0.018414221396059968	0.0036472306058252775	-0.002631289125512868
Ar	-6.788753789097011e-05	-5.1184580400192246e-05	0.00278466618565463	-0.01260065159203437	-0.009343992408641562	0.0020365786309133483
2
154400
Ar	-4.269551837139577e-06	-0.0001394326078868204	0.0031814793839432783	0.024631823926415823	0.012536340662434317	0.0018161194701083194
Ar	-0.00016531842716967704	-0.00012126448342663161	0.0027879124100411183	-0.00637772016755804	-0.004160292815407553	-0.0016873771368601253
2
154600
Ar	0.00022855720152345518	1.1567063518572092e-05	0.0032063539358708625	0.01959190525053889	0.016327342124274873	0.002168502657378479
Ar	-0.00018466542055449922	-0.00013053476559765783	0.0027659786433248544	0.002922983838280502	0.0023984124988354056	-0.0018715132327968085
2
154800
Ar	0.0003492139785566321	0.0001569439644311687	0.003213916938549387	0.0034069445104039594	0.011374078907214154	-0.0007866183599559351
Ar	-0.00011038720199122614	-7.672912987318427e-05	0.0027585564152526392	0.011265758401027375	0.007916683901527128	0.0005210843412589573
2
155000
Ar	0.0002930369686600714	0.00022019170242358805	0.00319377454034097	-0.013901313068004068	0.0008612510492612087	-0.002773418457205826
Ar	2.1075786688767583e-05	1.5051590265608815e-05	0.002774282035797556	0.01387936824666908	0.009622043666902452	0.0022688816138695263
2
155200
Ar	9.882481079279891e-05	0.00017715032317636235	0.003176494265312511	-0.02349322024844949	-0.008942070087480707	0.0003600759376705891
Ar	0.00014125282526658803	9.756183518178462e-05	0.0027895194450510267	0.009138430504205678	0.00605839085043097	-0.00013843591579051708
2
155400
Ar	-0.00014735897948899352	5.21346396790659e-05	0.0031990757513273792	-0.023581262777830358	-0.015208794969327663	0.0029902293267055377
Ar	0.00019338662209180746	0.00012865169498989845	0.0027728062295809862	0.000684388589246334	2.24993237128583e-05	-0.0022255416174414458
2
155600
Ar	-0.00032713011563051696	-0.00010034793818649634	0.0032185378127024145	-0.010585996546876754	-0.013821354477129996	0.0004917890137475078
Ar	0.00015060531237423458	9.78616289825217e-05	0.002758653879923219	-0.008902143369168487	-0.00592543321897944	-0.00028246775636465624
2
155800
Ar	-0.0003401435074467234	-0.00019955413503282762	0.003207052728484708	0.0079279179546249	-0.005185809389290379	-0.0025327026385677945
Ar	3.042931482959061e-05	1.9233938108853085e-05	0.0027680892916226146	-0.014098477583992089	-0.009144882678363943	0.002006697703651066
2
156000
Ar	-0.00018721108262390588	-0.00019849894267897353	0.0031804234918844567	0.021112154333070465	0.005121557204999985	-0.0017754507903443547
Ar	-0.00010602195179326003	-6.901157760576876e-05	0.0027893008562492674	-0.011834749456851593	-0.0075770338639598945	0.0014003368175717025
2
156200
Ar	5.3608630904035164e-05	-0.00010642129487705537	0.00318719509332516	0.02551620117837342	0.012795068857811502	0.0026234200462337603
Ar	-0.00018917453673322648	-0.00011906123745434242	0.002782859013419307	-0.0043111915827085305	-0.0022090363442625245	-0.0022550126878782702
2
156400
Ar	0.0002782101669640602	3.837906964770147e-05	0.0032120423829000945	0.017087674625764247	0.014806348501330302	0.0016112832340488888
Ar	-0.00018204283293957887	-0.00011131578964526561	0.002761791053809462	0.005809126931026712	0.003743141351309903	-0.0013670090089236743
2
156600
Ar	0.0003629060644003867	0.0001626150902776026	0.0032124597414824522	-0.0008754797235318387	0.008891601487798738	-0.0015212872142236476
Ar	-8.226971788614924e-05	-5.01168353225041e-05	0.0027605620250618803	0.013275108915245611	0.007993536491490235	0.0011099865703864751
2
156800
Ar	0.0002658540410223774	0.00020246624826434208	0.003188030340994864	-0.017382414448850806	-0.001080414798206589	-0.0026433480412984874
Ar	6.059475836328707e-05	3.58195495701156e-05	0.0027795166405368272	0.013944807034152044	0.008395162937733932	0.0021789691558025187
2
157000
Ar	4.528337266032205e-05	0.0001468996282204951	0.0031798049532901513	-0.025388358384641495	-0.009608027275261263	0.0015912136043863395
Ar	0.00017166619772300939	0.00010149694658086628	0.002786982714182112	0.007574933909583475	0.004184348016571525	-0.0011916882544304986
2
157200
Ar	-0.00020522980419386853	2.1851403308014695e-05	0.0032055475472270068	-0.022257462251813548	-0.01436471236044476	0.0024544802810019355
Ar	0.0002011893782064207	0.00011556453282082164	0.0027676815137833493	-0.0021771870322347263	-0.0014443190876658634	-0.0017961453680979116
2
157400
Ar	-0.00035665412549113563	-0.00011428205016129935	0.0032165742667947476	-0.006562163550250546	-0.011595860462125422	-0.000484538126701253
Ar	0.0001300371807555527	7.443499817039988e-05	0.0027602876199913032	-0.011420749998295404	-0.006456995936280319	0.0004394677987010678
2
157600
Ar	-0.00032654217973885025	-0.00019028831761473274	0.00319793146406672	0.012099246789805718	-0.0030141263552643047	-0.0028127233048912356
Ar	-7.97918482923539e-06	-3.1957424291978646e-06	0.0027753973653800003	-0.01495427298033535	-0.008416626858882373	0.002272209116952608
2
157800
Ar	-0.00014050334903493707	-0.00017312923829319814	0.0031769596436150194	0.023553978008540664	0.006039342588797494	-0.00023880928268190087
Ar	-0.00014100653826596955	-7.805957817365684e-05	0.0027923880225343015	-0.010430714158423136	-0.005764153272231335	0.0001724871278480865
2
158000
Ar	0.00011564103253024273	-7.710767365607921e-05	0.003196060557363968	0.025589764736894602	0.01259247699427418	0.002973877434919397
Ar	-0.00020445550340479496	-0.00011034761578967772	0.0027759040938137463	-0.001697432351389995	-0.00060115017021768	-0.0025051446932087187
2
158200
Ar	0.00032257347109012426	5.815201578565683e-05	0.0032174120650420588	0.013697453379980889	0.013179191181843066	0.0007750968525609691
Ar	-0.00016856622352726173	-8.93454492720279e-05	0.0027579290365705193	0.008639115206559522	0.00462036945933379	-0.0007157377157844624
2
158400
Ar	0.00036480312761526674	0.00016240591064590093	0.0032087923431604656	-0.0055291857585745485	0.006729548415059097	-0.0023234404409406845
Ar	-4.60105264089679e-05	-2.5236696561446374e-05	0.002763833229509275	0.014791745088074175	0.007653802200370522	0.0017713406022258414
2
158600
Ar	0.0002268236847929539	0.0001835134215119076	0.003181903370423527	-0.02058725661470187	-0.002424881008483585	-0.0021186250766929864
Ar	0.00010126118415208156	5.115966529945483e-05	0.002785617010282878	0.013224619178482083	0.006859467879660218	0.0018189908706760425
2
158800
Ar	-1.7317296247490383e-05	0.00012042610569696682	0.003184375926023805	-0.02674303468094929	-0.009888897141309413	0.0024325288502164777
Ar	0.00019713316825953182	9.867772856628914e-05	0.002784664249098304	0.0054466364511738495	0.002367268766838974	-0.0018514235657389
2
159000
Ar	-0.00026333012747694804	-7.358737988912548e-07	0.003210032776628096	-0.019938735632245495	-0.013246691850174474	0.0018536146381274922
Ar	0.00019947176677908839	9.696034288463246e-05	0.0027654269806324143	-0.005193608956593977	-0.0026793992254174376	-0.0013238082215566054
2
159200
Ar	-0.0003778698282454724	-0.00012066444596211857	0.0032133016686651853	-0.0019214733829922117	-0.009620937606591797	-0.0012354975673772829
Ar	0.0001011230997592604	4.904901944956336e-05	0.0027637244811819436	-0.01360694873398291	-0.006502788765441118	0.0009996070030608944
2
159400
Ar	-0.00030152194141900017	-0.00017738656989592724	0.003190477584452829	0.016212057499626713	-0.0013750444346056245	-0.002673835097613693
Ar	-4.925841519791358e-05	-2.2828650424681144e-05	0.0027816055619527503	-0.015066428229992412	-0.007214446937643787	0.00212071698228056
2
159600
Ar	-8.419265753945916e-05	-0.0001500899089151336	0.003179211404373952	0.025810901202337443	0.006531099557063503	0.001248758653113817
Ar	-0.00017267473002985617	-8.118334510147284e-05	0.0027903783405867333	-0.008763910734647232	-0.003868512662847441	-0.0010851702074220419
2
159800
Ar	0.00018037995041322768	-5.3549200699868866e-05	0.0032047787319367063	0.024578508935295992	0.012033001824248461	0.002697002307159344
Ar	-0.00021330321288027916	-9.659592793941398e-05	0.002769225996225897	0.0012219338097471484	0.000819016786022834	-0.0021887727726887436
2
160000
Ar	0.0003596594598191051	6.95949882421229e-05	0.0032184385352682756	0.009511619869584795	0.01141431221500988	-0.00027494031925982034
Ar	-0.0001481045697126817	-6.602502049986269e-05	0.0027573392784121407	0.011271946092181313	0.005048314588786987	3.565300277236743e-05
2
160200
Ar	0.00035509331604149523	0.000154813435404257	0.003200743525517312	-0.010175721313241185	0.004935306241481572	-0.002900058437040411
Ar	-6.92683846155712e-06	-3.541989669011745e-06	0.0027695817610614766	0.01573568212237232	0.006922783084174959	0.0021853315660394766
2
160400
Ar	0.00017911664982945392	0.00016313471102359436	0.00317589985517425	-0.023368513177170234	-0.003121567901512195	-0.0009245641887067857
Ar	0.00013776387179075303	6.027624089889915e-05	0.0027895642469277153	0.011789530543378265	0.0051130925681865955	0.000844716737966279
2
160600
Ar	-8.32842554722442e-05	9.76017122677427e-05	0.0031908634624561246	-0.027153984435749522	-0.00967563577278018	0.002992935678030183
Ar	0.00021390150684268057	9.014202307972302e-05	0.00277869881014736	0.0028988039738000156	0.0008227703437166952	-0.0022136529710133786
2
160800
Ar	-0.00031371705401281335	-1.578708402197136e-05	0.003214994607244442	-0.016576945169298682	-0.011948548044591079	0.0012291575487237145
Ar	0.00018676604152382083	7.650107925351895e-05	0.0027616975079257982	-0.008168139103410275	-0.0034343408862529366	-0.0007458504533259737
2
161000
Ar	-0.00038436161520702655	-0.00011974413198988237	0.003211098236826972	0.0029838069480977005	-0.00788994387402254	-0.0019122696068113703
Ar	6.457250846271387e-05	2.666102113459388e-05	0.002766457327548944	-0.015194266548023605	-0.006155486958287165	0.0016216627290333093
2
161200
Ar	-0.0002638734926988774	-0.00016153533932272704	0.0031856343545998284	0.019720173883812323	-0.00028391717524832113	-0.002315279150994759
Ar	-9.104634514605451e-05	-3.628472859541101e-05	0.002787298989857872	-0.01440882731262553	-0.005799150068892467	0.0018595062345208684
2
161400
Ar	-2.0911936230483866e-05	-0.00012857925546427715	0.0031844343335668875	0.02745154305251709	0.006687714251991746	0.0021481117362951276
Ar	-0.0001991640359305082	-7.75631852683076e-05	0.0027870993963686986	-0.006627877178766769	-0.0021860134515354884	-0.001960335565112376
2
161600
Ar	0.00024186986555875385	-3.54831987005443e-05	0.003209416512685473	0.022422070612146218	0.011124165480362895	0.0019528028705726726
Ar	-0.00021217286620082016	-7.940491311919439e-05	0.002765017549792939	0.004340790545834664	0.001823600105660381	-0.001729039219835349
2
161800
Ar	0.0003844054705255364	7.44334190048263e-05	0.0032139931876542373	0.004784619077937197	0.00982151166372909	-0.0011252044508492489
Ar	-0.00011859553979661706	-4.381378188407446e-05	0.002759655143565904	0.013547433127770733	0.004983589201673923	0.0007186314258697824
2
162000
Ar	0.0003319505646051943	0.0001440364723841306	0.003191168500174656	-0.01451468337338116	0.003605870222729566	-0.002869489908476365
Ar	3.6080412992753006e-05	1.2721869806029403e-05	0.002776663685370165	0.015982516604184212	0.005840294004859474	0.002271028561925222
2
162200
Ar	0.0001231039019051498	0.0001443962772528747	0.0031755811378492266	-0.02575471487868461	-0.0033485994706932342	0.0007651639735286303
Ar	0.00017121632009577041	6.144289123858816e-05	0.0027896309039467204	0.009946068647616919	0.0033350785688952504	-0.0005487817598620407
2
162400
Ar	-0.00014984454878922738	7.98680534069526e-05	0.0032001054614872277	-0.026395830121335975	-0.009189483445742103	0.002939941451464527
Ar	0.00022310944972483575	7.607969042038536e-05	0.002770873932087051	-0.0001621727635274858	-0.00037886745954002275	-0.002201722725603394
2
162600
Ar	-0.0003539421462461675	-2.411371479493627e-05	0.0032181305820074366	-0.012410765144635329	-0.01062586304465973	0.00027789612889384094
Ar	0.0001650993137714999	5.4897135765235506e-05	0.0027582136370671124	-0.010916579067494223	-0.003692629887213299	-0.00010343663055118733
2
162800
Ar	-0.00037674903058787436	-0.000113692101370259	0.003204895583097133	0.007870365014285207	-0.006505662642713725	-0.002636093231446934
Ar	2.314354414262437e-05	7.807761361601997e-06	0.0027691595806250582	-0.016260341108685485	-0.005348584913559832	0.0020952741997739156
2
163000
Ar	-0.00021592754802466288	-0.00014527540265766027	0.003179020553369993	0.022689127180309326	0.00023202465468055033	-0.001433832091807131
Ar	-0.00013089984291096877	-4.294231514362254e-05	0.0027899034007923145	-0.01300371318892086	-0.0042463794771933705	0.0011643108352674845
2
163200
Ar	4.7041784365570615e-05	-0.00011121359218099689	0.003189081136043205	0.028131563455525973	0.0064833975566340445	0.0027535824865651736
Ar	-0.0002185798132985497	-6.883261609740139e-05	0.0027811789277095156	-0.003995130119665171	-0.0008790840129656209	-0.0022710918244518924
2
163400
Ar	0.00029639159334133024	-2.3772718742749984e-05	0.003213008886973345	0.019194629428345843	0.010204213179332894	0.0013820682737897257
Ar	-0.0002013670587164883	-6.101626701785178e-05	0.002762026179111279	0.007415297676493205	0.0023737010496760838	-0.001070944272587897
2
163600
Ar	0.0003954101185733128	7.441841496845698e-05	0.0032106997984994523	-0.0002504496741611975	0.008525146340521298	-0.001778335828111183
Ar	-8.243211723734165e-05	-2.487335085025877e-05	0.0027638801476382348	0.015350711825034839	0.0045535291983614815	0.0014106442269529414
2
163800
Ar	0.00029630363148770424	0.00013282914374191821	0.0031856275796546644	-0.018321911636242225	0.002774465984757016	-0.0024676530197576224
Ar	7.939312544240382e-05	2.297771831865078e-05	0.0027843992163681342	0.015430333454697054	0.004585778005375161	0.0020954021745535336
2
164000
Ar	5.9905340420800656e-05	0.0001291264708163222	0.003181389857860524	-0.027562493183974676	-0.0034299953843075406	0.002001379827768976
Ar	0.0001988342765476328	5.711288212564526e-05	0.002788389181056108	0.007765877337285821	0.001956117703921878	-0.0016302552304074003
2
164200
Ar	-0.00021386142762241315	6.643656566951691e-05	0.00320838298701115	-0.024487863546778413	-0.008640012984200874	0.002319790337427859
Ar	0.00022340610099804965	6.141202882681729e-05	0.0027665058411844535	-0.0033108781543315273	-0.0010648087199525205	-0.0019231836370347105
2
164400
Ar	-0.0003825854051664218	-2.849479699327962e-05	0.0032169238205052163	-0.007661940314324422	-0.009458962166361865	-0.0007929760195299274
Ar	0.00013651941513360822	3.7599207701565816e-05	0.002758817722589362	-0.013302650089808028	-0.0035241910883303247	0.0005109879384852102
2
164600
Ar	-0.0003560293812836791	-0.00010632569023385035	0.003195503658435549	0.012454933269760854	-0.005474497778128164	-0.0029946550790842254
Ar	-2.035376397791652e-05	-3.7917929273507666e-06	0.0027746913741233084	-0.016687780779682856	-0.004422854145863515	0.0023123110190015877
2
164800
Ar	-0.0001602152070177888	-0.00013170712722876702	0.0031754961645904397	0.02514089036505329	0.0003908022354076691	0.0001053853845495079
Ar	-0.00016580160104075474	-4.2077070417226714e-05	0.0027909658571359432	-0.011109531178909133	-0.002761664890878505	-2.7161674726456876e-05
2
165000
Ar	0.00011567038927298872	-9.866408416666755e-05	0.00319685973001066	0.02772347952430002	0.006156153319924616	0.0029845726277294726
Ar	-0.00022949241364752593	-5.5529776099922016e-05	0.0027745190036034327	-0.0010445512438723853	1.495199321989728e-05	-0.002277047751161501
2
165200
Ar	0.0003411128732515106	-1.7791111817507327e-05	0.0032170919480584747	0.015117397444437429	0.00926945293208553	0.0005958909241000039
Ar	-0.00018099690310345527	-4.294817055553558e-05	0.0027596477916922114	0.01032448528622255	0.0023945116505153094	-0.0003945959692667008
2
165400
Ar	0.00039131183140473833	7.011169344814168e-05	0.003206835868366454	-0.005357308830070199	0.007493707155897933	-0.0023944353671390573
Ar	-4.047986580300657e-05	-1.0702063981170224e-05	0.0027679556268433198	0.01655743522149829	0.0037944770259997055	0.0018990608629091698
2
165600
Ar	0.00024898962636986843	0.00012108309051981184	0.003180795432724042	-0.02155917117382591	0.002432520295186173	-0.001801712177544406
Ar	0.00012081562753180163	2.670020385079864e-05	0.0027887182935581725	0.014086460790437879	0.0032898147674343295	0.001422097533828764
2
165800
Ar	-9.852797271193682e-06	0.00011783116917798539	0.003187065601709666	-0.028583920513006053	-0.003203587293431804	0.0025778982813687112
Ar	0.00021968373531611375	4.7880889977333944e-05	0.0027829243294194604	0.005184015503399394	0.0008517694082358693	-0.002169843608255189
2
166000
Ar	-0.0002734167756459523	5.9611893693770086e-05	0.0032117358039109234	-0.021457032168983068	-0.007980237631956598	0.0015772107767109756
Ar	0.0002135083836706699	4.489909000886481e-05	0.0027625385680995875	-0.00648994404454817	-0.001387313047921732	-0.0013100501502312525
2
166200
Ar	-0.00039872886663708924	-2.7794048561369032e-05	0.003211858385919928	-0.0025154331665551834	-0.008653189895370367	-0.001579225539987622
Ar	9.992350671770516e-05	2.1710694699807026e-05	0.0027616974896360184	-0.01522259486228215	-0.003060824122646504	0.0011638130314459397
2
166400
Ar	-0.00032301189763490597	-9.864318996549641e-05	0.0031869053715918986	0.016614893388503513	-0.004963427678900814	-0.0027086581064001375
Ar	-6.506896740970322e-05	-1.1216972267908584e-05	0.0027810970164858515	-0.016234492005813065	-0.0032670860051132408	0.0021880362311081205
2
166600
Ar	-9.680223169638418e-05	-0.00012259481134782992	0.0031780157001923123	0.02722708319067	0.00022267222856390298	0.001594869910603976
Ar	-0.00019458102562976758	-3.6223118473161764e-05	0.0027889458276618294	-0.008817274227155829	-0.001430967713364026	-0.0012313041432874458
2
166800
Ar	0.0001832495231161778	-9.210385842005089e-05	0.003205046959796958	0.026091582558969	0.005766479377153848	0.002703897195444068
Ar	-0.00022990712646618036	-4.019687203113589e-05	0.0027681187758755044	0.0022792845186561214	0.0005776590098497431	-0.001992743708834495
2
167000
Ar	0.00037489228591614497	-1.6440879826442196e-05	0.0032184074541557477	0.010400419947471519	0.008642186611495267	-0.00027341132519924404
Ar	-0.0001509943743990329	-2.5990883705106945e-05	0.0027589640619907294	0.012845498908406272	0.0021786073956013923	0.00031350630046457153
2
167200
Ar	0.0003746809107090947	6.532810148386964e-05	0.003200912811691401	-0.010209981213732764	0.0069791891727962775	-0.002816282104524322
Ar	5.353190672752706e-06	-1.2092486924766469e-07	0.0027734890521912995	0.017048455337466985	0.002804994437373059	0.002278233291718316
2
167400
Ar	0.00019415322940294211	0.00011355419395935493	0.00317812219326088	-0.024280379043924757	0.002467835392345454	-0.0005997374408545914
Ar	0.00015842732270149177	2.4876760855475277e-05	0.0027919879975320484	0.012095888774981276	0.0018734340015631409	0.00043766056137134154
2
167600
Ar	-8.056177445894426e-05	0.00011182534122241023	0.0031941267022699213	-0.028513743673564896	-0.0029648808416334275	0.0027360548772645435
Ar	0.0002321669740858601	3.377311118256341e-05	0.002777753231552686	0.002061063409386819	2.4807489429725207e-05	-0.0023676108630048287
2
167800
Ar	-0.00032326953287652063	5.6698061562251666e-05	0.003213981243278729	-0.017588590501094164	-0.007584316674975671	0.0007259511133127237
Ar	0.00019313322119561018	2.677825041123331e-05	0.002760221814267412	-0.009577418952652798	-0.0013494316085067048	-0.0007376726311938157
2
168000
Ar	-0.00040059504364164597	-2.5810308513829777e-05	0.0032056689925189534	0.0026909242546179035	-0.008146189453072893	-0.002187533113887898
Ar	5.665859107303313e-05	8.486647467221281e-06	0.0027652706053057936	-0.016549687100434283	-0.002171149819312677	0.001645017293217185
2
168200
Ar	-0.0002794341087922142	-9.284336330554639e-05	0.003180430936382048	0.020121109482441706	-0.004813712621521917	-0.0019108285433163895
Ar	-0.0001088154634111081	-1.3339172034913019e-05	0.002785521723745242	-0.014933011700160745	-0.0019675371868263353	0.0016517644172451388
2
168400
Ar	-2.8737985485010334e-05	-0.00011769218969266676	0.003185253617113266	0.028538237817246473	2.8819339511666786e-05	0.0026854016762522743
Ar	-0.00021727449858617101	-2.5499769081716173e-05	0.0027830262773861593	-0.006177016535104406	-0.00040410589676574335	-0.0020109266085857444
2
168600
Ar	0.000244822734226726	-8.908184204447504e-05	0.003212924202490642	0.02340731556290176	0.005518941275329122	0.0020008364066010638
Ar	-0.00022138542101778034	-2.3602985321454817e-05	0.0027624539210846662	0.0055817556905291025	0.0007145172691865828	-0.0014358503556583212
2
168800
Ar	0.0003951717963779761	-1.6900962969447598e-05	0.0032165848718926624	0.0052778779160409985	0.008235478822536994	-0.001321162852505633
Ar	-0.0001142285264557469	-1.236444562583028e-05	0.0027606320238141454	0.014931616852083407	0.001471143333651133	0.0011039145721155998
2
169000
Ar	0.00034452672712305534	6.1014869953504866e-05	0.0031918346251735186	-0.014623457137848565	0.006699051543983164	-0.0029955615871622558
Ar	5.173781456077485e-05	3.57878471794072e-06	0.0027799638641370235	0.01674530761551218	0.0016171567653922789	0.0023090854462470478
2
169200
Ar	0.00013175466344363408	0.00010878041296947101	0.003177170350811783	-0.026498263666489233	0.00268457550901554	0.0009608990322570594
Ar	0.0001896405008472357	1.6276388599431813e-05	0.0027907850608469872	0.00977542622020119	0.0006689971457176167	-0.0009401882913125808
2
169400
Ar	-0.00015007737274220598	0.00010942291836916243	0.003200888453605093	-0.02727942020696058	-0.0027367174437732057	0.002619742041097749
Ar	0.00023546505413614435	1.7484261691103917e-05	0.002770159269072866	-0.0012066479065013657	-0.00026895266603756785	-0.002202353289641355
2
169600
Ar	-0.0003616417924128834	5.713122847211942e-05	0.003215011438161742	-0.012958543440082603	-0.007251067362682593	-0.00010768075567126768
Ar	0.00016539988952353506	1.2038289589326046e-05	0.0027583182125115076	-0.012198459703296501	-0.0007949936056131879	5.0808931012194224e-05
2
169800
Ar	-0.0003875330068433104	-2.2493488782652813e-05	0.003199844328758452	0.00778132974496405	-0.007944866190486484	-0.0025749203519445994
Ar	1.1602591794809038e-05	2.1281851135100497e-06	0.002770711696628716	-0.01721021421960584	-0.0011181116999430943	0.0021848405653364664
2
170000
Ar	-0.00022526249526676713	-8.913013079306499e-05	0.003177511679968687	0.023060371323130973	-0.005017700773189852	-0.0007791123418569719
Ar	-0.00014762882830145164	-8.632400267773007e-06	0.0027906343308827073	-0.013060426684015584	-0.0008317347140616582	0.0008471722876674775
2
170200
Ar	4.410270005187234e-05	-0.00011753096925160707	0.0031932623940038717	0.028879590577629743	-0.0002886855230311514	0.0029959000174223063
Ar	-0.00023176530987306413	-1.173578148045942e-05	0.0027797274597778283	-0.0032370448598955785	9.934959741645314e-05	-0.0022456713074904015
2
170400
Ar	0.0002998481123252263	-9.12413775614446e-05	0.0032167843439207915	0.01970528474742802	0.0053743009828739075	0.0010993079942885468
Ar	-0.0002040484950929853	-8.964292694059056e-06	0.002762108164401569	0.008631228536183906	0.00042216314397274527	-0.0008565804891679474
2
170600
Ar	0.00040216480427531187	-1.9637721348812156e-05	0.003210813053479346	-6.736621698751249e-05	0.008259317573249441	-0.0021861665614085007
Ar	-7.323233415975173e-05	-3.6803913590107845e-06	0.0027660707769023725	0.016405643505430334	0.0006049856268396743	0.0015431830032144873
2
170800
Ar	0.00030372020705364674	5.942405303326746e-05	0.003182669449599393	-0.01837536386485218	0.006930597245558511	-0.0025430928540559365
Ar	9.582500544453614e-05	2.680836064794225e-06	0.0027864800594769525	0.01573938739269978	0.0005972381853271146	0.0018943475274832715
2
171000
Ar	6.464965499451517e-05	0.00011150897647109143	0.0031803372280859218	-0.02805024282931219	0.003180165996854042	0.002217211916767493
Ar	0.00021375220772601298	5.273846350843901e-06	0.0027863890011193956	0.007209257588356289	-0.00015183542010419152	-0.0019935592456896936
2
171200
Ar	-0.00021408379606784622	0.00011498191826677909	0.0032076783477047134	-0.024925895093960697	-0.0026402643761211466	0.002270670951175285
Ar	0.00022891721455648497	2.7798676292041354e-06	0.002763525503277823	-0.004533558307878479	-0.00020979710657433026	-0.0017928238751053845
2
171400
Ar	-0.00038648007205381335	6.208771709126735e-05	0.0032150953694906064	-0.007933978830399941	-0.007433382548106833	-0.0008915564976183053
Ar	0.00012998821831516666	1.1776397898449532e-06	0.002757998828285099	-0.014401714240051555	-0.00011679014691014767	0.0007970799315226897
2
171600
Ar	-0.0003616616574476682	-2.0108900349678118e-05	0.0031936670573746674	0.012364458176439138	-0.008249886177192621	-0.0028492930311198933
Ar	-3.534096593346714e-05	7.986701101172535e-08	0.0027762101902397713	-0.017186970034304336	-0.00010951548832573419	0.002425018849441265
2
171800
Ar	-0.0001656790498651329	-9.092930225634273e-05	0.0031773877842113823	0.025333199658818688	-0.005551431717526924	0.0006133936988566112
Ar	-0.00018138236702377127	-1.0077160183016498e-07	0.0027913629343309003	-0.010800095115479651	0.00019533504977536933	-0.0003153165114521251
2
172000
Ar	0.00011328847866913317	-0.00012316911687145467	0.0032005950488694025	0.028018602156746168	-0.0004329006322110657	0.002828866411813652
Ar	-0.00023841429669036783	3.2586502105960595e-06	0.002774007301109901	-6.708154796195546e-06	0.00025818198508369714	-0.002160284436324408
2
172200
Ar	0.000341586943739198	-9.625125455509495e-05	0.003217157235600098	0.015375576907486314	0.005602458213188585	0.00012796190176655623
Ar	-0.00017899773693183925	3.25800803624358e-06	0.002760918203682928	0.01142034475105535	-0.00023966323419666733	-0.00018223522506295608
2
172400
Ar	0.0003940016201595595	-2.1596482563531968e-05	0.0032027148180534246	-0.005166198500518805	0.008610313879602321	-0.0026924800089247526
Ar	-2.915237754684401e-05	-2.5114443440907827e-07	0.00277101486720642	0.017255602382080897	-0.00040630354410964634	0.0019939671774615374
2
172600
Ar	0.0002535993582246659	6.110524707763683e-05	0.0031770172024238336	-0.02139682965742135	0.007352724499834849	-0.0013141861936763208
Ar	0.00013524210290273575	-3.965167593575398e-06	0.0027906058054847243	0.013969854783640987	-0.0003667126568304197	0.001036305908449822
2
172800
Ar	-5.032899996950312e-06	0.00011751616748260118	0.003189210972537889	-0.028669413903927462	0.003417275444680877	0.0030447291905625075
Ar	0.0002295184126459793	-8.870845296146028e-06	0.002780180870270373	0.004384477940265425	-0.00048593401393172897	-0.002446548755413985
2
173000
Ar	-0.0002695352232091585	0.00012049125907494255	0.0032155063180382745	-0.02157588058009674	-0.0029770522008000892	0.0015047965514324582
Ar	0.00021325073127782636	-1.0144235581293556e-05	0.002759537870118742	-0.007623646855076713	0.0002716437627431696	-0.0011687230904186266
2
173200
Ar	-0.0003963869048589055	6.31615960369879e-05	0.003213416048282009	-0.0026880770960293573	-0.007928361965116242	-0.0018740202360816494
Ar	8.968182216962742e-05	-4.195587899151373e-06	0.002760922678878503	-0.016024668409542208	0.0008469794260607724	0.0013908263556067018
2
173400
Ar	-0.00032319599466900187	-2.3625115463416628e-05	0.0031861727054628705	0.016308060165780604	-0.008686227005564002	-0.002765676945146378
Ar	-7.999420738532328e-05	4.710190067615509e-06	0.0027818357445857774	-0.016281400843823256	0.0008267851278316605	0.002197164206310712
2
173600
Ar	-9.9369541346146e-05	-9.895157843074884e-05	0.00317919209241278	0.027116148200367538	-0.005977970118178704	0.0017808398314543834
Ar	-0.00020649326865240352	1.2515831964997094e-05	0.0027875964600011737	-0.008227406937343838	0.0008093535546663654	-0.0014380605732000219
2
173800
Ar	0.00017965107273774692	-0.00013215418533729076	0.0032052018947801826	0.025982953572250028	-0.00017529095424225296	0.002362108259607914
Ar	-0.00023312985193583996	1.734331951842532e-05	0.002767348208081547	0.0033226972038926106	-2.2250123758751794e-05	-0.0017580512067642987
2
174000
Ar	0.0003707616835117602	-0.00010050728799586308	0.0032148088060263208	0.010427180564092536	0.006193423244276016	-0.0006360581664658664
Ar	-0.00014430443406553717	1.1537265352005956e-05	0.002760998501973202	0.013653369564275208	-0.0010447790005873455	0.0005991637113384437
2
174200
Ar	0.00037185903392461143	-2.0025307596862375e-05	0.0031954233350239337	-0.009913883084697844	0.009175508492385692	-0.0027584126647377644
Ar	1.7392494701721545e-05	-1.627629270155614e-06	0.0027769477992776637	0.017250941355896755	-0.0014084507046630173	0.0022523346888433876
2
174400
Ar	0.0001956960930482516	6.831609734788735e-05	0.0031772664359864655	-0.02380063697710648	0.00794729051929961	0.00022489746948380892
Ar	0.00016862482389381483	-1.4441914376874741e-05	0.002792001471707867	0.011618839774060785	-0.0011539515353616325	-0.00020880078402621811
2
174600
Ar	-7.502523860873807e-05	0.00012888189951368255	0.0031992909759106986	-0.028143613761234556	0.0034756870634505338	0.002996041798182805
Ar	0.0002355510577186254	-2.3680676822359727e-05	0.0027735689783869723	0.0011563916372631406	-0.00044728119996469145	-0.0024652155100267433
2
174800
Ar	-0.0003146279375042944	0.00012858525031974235	0.003218984150102564	-0.017413659073728285	-0.0035782669025620564	0.0004609868627214824
Ar	0.00018733166481629324	-2.0449925545268112e-05	0.00275699661684613	-0.010417790274473824	0.0010609313820809196	-0.0005129643605847164
2
175000
Ar	-0.0003922605351960061	6.396642872418486e-05	0.003207181326779524	0.0024450730969884115	-0.008702228849046596	-0.0025920550492883904
Ar	4.47989988259634e-05	-4.801662592548606e-06	0.0027647682937088454	-0.016863014098963427	0.0019175205877016866	0.001908569150823389
2
175200
Ar	-0.0002755478705743395	-2.9724202799519394e-05	0.0031790992664003296	0.019514697924518837	-0.009294448412403376	-0.0019611279378550705
Ar	-0.00012063025898007742	1.402326299864672e-05	0.0027866281430646107	-0.014541857040155827	0.0016669761373918465	0.0016321070435338049
2
175400
Ar	-3.048654964315156e-05	-0.0001110558296030587	0.003184511776932541	0.028025472975062405	-0.006388275076773193	0.002633286480697193
Ar	-0.0002227808428765884	2.8107490212537105e-05	0.0027828577226082715	-0.0053642957442081515	0.0010690715996687337	-0.0020225236802186718
2
175600
Ar	0.00023792299971756896	-0.00014373567969012	0.003210512549335722	0.022976222050692427	0.000296563431600481	0.001790395734243202
Ar	-0.00021805473315115426	3.037753568995452e-05	0.0027638876375157134	0.006420250426163028	-0.0007062366520895491	-0.0011817245960342273
2
175800
Ar	0.0003859204908446359	-0.00010488688488276751	0.0032125779643042054	0.005309062549815968	0.007073002274094573	-0.0013816977946239152
Ar	-0.00010454359146970385	1.5223556288879969e-05	0.0027640928842461226	0.015293313183161681	-0.0021683804616597175	0.001219609573108902
2
176000
Ar	0.000338580001599555	-1.545248635946535e-05	0.0031891578463447818	-0.01399980873842559	0.009992324254272189	-0.0026127287079157923
Ar	6.196123777176144e-05	-8.920550863533456e-06	0.0027837622937685502	0.01647724818110795	-0.0023836366479132723	0.0022226473411241458
2
176200
Ar	0.00013317647326689536	8.063103040319624e-05	0.003180335334064114	-0.02577691592964432	0.00870257214950831	0.0015374741065838926
Ar	0.00019420009446381893	-2.947609506495885e-05	0.002791353548963689	0.009033929678410154	-0.0016915230612001486	-0.0013497775672322613
2
176400
Ar	-0.00014178092011567415	0.00014418809062540728	0.0032061843354263303	-0.026631384469199878	0.003240798339026583	0.0024918345738581837
Ar	0.00023146066099929678	-3.8364989160967356e-05	0.002768678926356711	-0.0020761794383266892	0.0001573856425846112	-0.0022001851315608324
2
176600
Ar	-0.0003489062954968138	0.00013754025626621744	0.003217120395108205	-0.012798947957034859	-0.004499099163130516	-0.0005261544753200325
Ar	0.00015427357389307593	-2.590842038082752e-05	0.0027575599744209516	-0.01268047762269681	0.0021915325768060235	0.00016081420554490934
2
176800
Ar	-0.00037654258608321424	6.27040418688585e-05	0.0031975810984196332	0.007282635013889516	-0.009723556953739167	-0.002953388563984147
Ar	-1.2925568458771297e-06	1.277170760131876e-06	0.0027708167155926374	-0.017065272655953145	0.002985942268917621	0.0022057488382246264
2
177000
Ar	-0.00022233845572813962	-4.037462028040941e-05	0.0031744538308890067	0.022067323925931075	-0.010163552313758303	-0.0004999232924750427
Ar	-0.00015543819992544717	2.828644301239949e-05	0.0027893509137079113	-0.01224500665009921	0.002248320359358752	0.0005253368880219349
2
177200
Ar	3.727751361860879e-05	-0.0001285932765363408	0.003192587025929558	0.027908213612759025	-0.006637012994637106	0.003044273787130755
Ar	-0.00023031103524201934	4.474077108448038e-05	0.0027762922417474464	-0.002224522227566458	0.0007408415329215475	-0.0022223734508126608
2
177400
Ar	0.00028507174093129556	-0.00015803614040776882	0.0032157012332090697	0.019176868115303766	0.0011355036464536779	0.001044966918343095
Ar	-0.0001935375345303028	3.93907057230596e-05	0.002760659969475388	0.009303077410804491	-0.0017933825795182876	-0.0005293414196701371
2
177600
Ar	0.0003858850272590592	-0.00010804436160102741	0.003209896905027403	0.00019614677105068848	0.008366562331365781	-0.002071391955337599
Ar	-5.958327951148617e-05	1.2313279139276972e-05	0.002767724936341026	0.016348347643580907	-0.003369634252660507	0.0018237230034903382
2
177800
Ar	0.00029428469722602964	-6.697464540305478e-06	0.0031843607968442653	-0.01735631942620111	0.011018310372588361	-0.0021083867390539325
Ar	0.00010495647928879844	-2.1675515525772436e-05	0.0027893841856372857	0.014919671957812223	-0.003107353755618423	0.0017436400547798602
2
178000
Ar	6.624188062973734e-05	9.848574949786362e-05	0.0031866067948673107	-0.026902567515851246	0.009352425064813891	0.0024105392816083063
Ar	0.00021341487079122354	-4.6171984917091145e-05	0.0027865409533732555	0.006208173106475472	-0.0017051459064783342	-0.0021828786772176436
2
178200
Ar	-0.00020130770367091382	0.00016254629197119834	0.0032117478571277946	-0.02397447011361057	0.0026872785713587654	0.0017440649282224412
Ar	0.00021901836074035634	-4.996789159755128e-05	0.002763510557274889	-0.005274732717564442	0.0010845107134878258	-0.00171432987464622
2
178400
Ar	-0.00036774624153592333	0.00014574345217373288	0.0032133819405258286	-0.007774408113442796	-0.005850751821943249	-0.0014430135900833367
Ar	0.00011586266168689543	-2.628551356909656e-05	0.0027589972947297437	-0.014472179109514887	0.0034255898538957698	0.0008691776168374133
2
178600
Ar	-0.0003465448586926426	5.714962281070467e-05	0.0031883659105725326	0.011521825297418065	-0.01100836221341662	-0.0029260343421479303
Ar	-4.633009225767481e-05	1.2385684081650302e-05	0.002777113412661914	-0.016491281222399918	0.003923932502040025	0.0023316251563786274
2
178800
Ar	-0.00016215151344875408	-5.713075868845905e-05	0.003175084761229152	0.02402728468969738	-0.011221092327344386	0.0011794409771542303
Ar	-0.00018253945676670693	4.5316314526878146e-05	0.00278897849648593	-0.0096753234342175	0.0025699148016532494	-0.0007521695993140378
2
179000
Ar	0.00010342500942627627	-0.00015070951331569964	0.003201900889973891	0.026712412010744018	-0.006464286115913769	0.0029641202485069977
Ar	-0.0002284393859975432	5.9777996321732494e-05	0.0027701118962353095	0.0009960010495747534	-2.7413896748588008e-05	-0.002050157731636421
2
179200
Ar	0.00032140884203746034	-0.000171960000819398	0.0032188600501831532	0.014780949208068824	0.002446908057431415	8.75759191071477e-05
Ar	-0.00016213196210228248	4.311564896196464e-05	0.0027593568158539167	0.011717696909552116	-0.0031304875063428448	0.00011931277464087266
2
179400
Ar	0.0003738143715214312	-0.00010653637494437195	0.0032038564500398306	-0.004570150998813693	0.009938832770761281	-0.0027419473288457295
Ar	-1.3741738844036305e-05	2.9822847898090727e-06	0.0027721980291297364	0.01668801628903838	-0.0045161684843696885	0.0022084488427226525
2
179600
Ar	0.00024394908442323832	8.549414232114132e-06	0.003178442855307119	-0.020009087841193738	0.01218689022615848	-0.0011767929964254704
Ar	0.00014121811469976274	-3.90016916773092e-05	0.0027921410001770213	0.012760447958897735	-0.0035206753389239987	0.000819379923524475
2
179800
Ar	-3.386519793171766e-07	0.00012285313923760506	0.0031905595701416274	-0.0271939810418206	0.009710102366308735	0.0027423637101782338
Ar	0.0002233564766268639	-6.438877959566994e-05	0.0027798862450230783	0.00320357359115435	-0.001258807869033855	-0.0024575987347759047
2
180000
Ar	-0.0002515695518911761	0.00018262944103140675	0.003212800446393981	-0.020555394082590113	0.001543497618220664	0.0010974578899892178
Ar	0.00019792167719223742	-5.906836020206691e-05	0.0027602356511188713	-0.008139013145888916	0.00231750723009751	-0.0010115279215788479
2
180200
Ar	-0.0003737877839074472	0.0001505408665838329	0.0032081890538972558	-0.0028291547067707448	-0.007621585351886603	-0.0019371854996595322
Ar	7.36524440115051e-05	-2.2130865761902886e-05	0.0027630448762602632	-0.01564967375969087	0.0047292452364992325	0.0015236443108935579
2
180400
Ar	-0.00030803505402525374	4.5253900428177185e-05	0.003182725289905718	0.015042868655635647	-0.012443178292415438	-0.002293352752507319
Ar	-8.850444212044687e-05	2.692240303125923e-05	0.002784042559109773	-0.015195953682836163	0.004580504048343821	0.0020274017346692636
2
180600
Ar	-9.94482300668148e-05	-8.117657210134461e-05	0.003182337689018699	0.025492695344612945	-0.01210568639722484	0.002371521140722521
Ar	-0.0002028379080113017	6.351621112236684e-05	0.002786259886882292	-0.007034092828681108	0.00258228603670301	-0.0017540828070929306
2
180800
Ar	0.0001638065031028999	-0.00017547300821878415	0.0032103011035115453	0.024581316429123163	-0.005691254919877995	0.0022278333091200783
Ar	-0.0002189151940374811	7.197083230668026e-05	0.00276539222634435	0.0041218724003301566	-0.0011574562686668616	-0.0016544460893995474
2
181000
Ar	0.0003455883664811957	-0.00018289934553729445	0.0032169558545153483	0.010067100875562413	0.004256710886196519	-0.0010115140032607964
Ar	-0.0001266524031468452	4.2125370258989064e-05	0.0027604269535346044	0.013546614077257007	-0.004509927725756705	0.0007380370234952139
2
181200
Ar	0.0003502550777637291	-9.940021676506361e-05	0.0031941022434807485	-0.008863745377844857	0.011592450104448714	-0.003016968847377442
Ar	2.962402314759514e-05	-1.0424815984999225e-05	0.002777688838940648	0.016305379876301585	-0.005502178249845235	0.0023243017001819337
2
181400
Ar	0.0001891924618976763	2.9579482252866268e-05	0.0031758117635776006	-0.022049634518608533	0.013390471135519789	0.0004195344126410153
Ar	0.00016873318901064477	-5.807015391650698e-05	0.002791455050793647	0.010271500477370313	-0.0037536425410072166	-0.0004834829302376429
2
181600
Ar	-6.357698966290355e-05	0.00015069439638594478	0.0031984550829936256	-0.02637879324911292	0.00958545107991006	0.0029152517669674
Ar	0.00022330641581511852	-8.112449829911675e-05	0.0027720405293210977	0.00012733722868688883	-0.0004400984294140081	-0.0023821114455190298
2
181800
Ar	-0.00028931441018887857	0.0002008678126264367	0.0032167504866225482	-0.016553087514893608	-0.00010220365550387038	0.000345189391481564
Ar	0.00016907318430422683	-6.345904789172749e-05	0.0027572370104646114	-0.010551308271504859	0.0038057195793913534	-0.0002626441652018065
2
182000
Ar	-0.00036542980871232694	0.00014941351227608086	0.003204368229577555	0.0018381674873933437	-0.009630439453612456	-0.002546210689641715
Ar	2.986079572232917e-05	-1.1759883342086838e-05	0.002767344906312455	-0.01610013541783267	0.006063761157900536	0.0020912423361534073
2
182200
Ar	-0.0002612899591265333	2.6765494192824926e-05	0.003178865265038452	0.017742715059404307	-0.01384358186107055	-0.0014589854883246959
Ar	-0.00012436096412900467	4.6454119434808803e-05	0.0027891219390000304	-0.013171387088430898	0.00504509994306089	0.0013601615776917028
2
182400
Ar	-3.560640932256974e-05	-0.00011072263084552595	0.0031885667032376867	0.025999688890613666	-0.012621527170479641	0.002754127424650613
Ar	-0.00021319664757117753	8.353688044768024e-05	0.0027821354043728007	-0.004148202157892111	0.0020768265618992345	-0.0021811811764085687
2
182600
Ar	0.0002141871514466915	-0.00020087897827487486	0.0032130196168351603	0.021492038608273742	-0.004394594960627397	0.001415987865967532
Ar	-0.0001992822981995279	8.122157467419071e-05	0.0027632572648198213	0.006912803687368538	-0.002594615535793709	-0.0010811337560195054
2
182800
Ar	0.0003545776510645493	-0.000190125095832783	0.0032110600279524225	0.0053449989591585045	0.006393125403556703	-0.0017684461363552421
Ar	-8.641157028885653e-05	3.627783141395141e-05	0.002764608987791984	0.014693195433181977	-0.005988165582473502	0.001319556187523762
2
183000
Ar	0.00031575969271639497	-8.606466419229481e-05	0.0031852581584180524	-0.012440084930616189	0.013387151027098454	-0.0025894252546571224
Ar	6.997552524143136e-05	-2.7977343045290626e-05	0.002784330164700643	0.015099811277838512	-0.00622976507725376	0.002047462791122209
2
183200
Ar	0.0001299230527490517	5.747727287445682e-05	0.0031800028890778846	-0.023591695487504963	0.014497837355960365	0.0019922543276161544
Ar	0.00018749177648594756	-7.849605077852146e-05	0.002788563556876122	0.0076106798337784816	-0.003669303127494336	-0.0016257427131142791
2
183400
Ar	-0.00012289732786313149	0.00018087482554024882	0.0032082763243418346	-0.02458390128373718	0.008823221244791648	0.0025308553334805806
Ar	0.000213181404704657	-9.374680975876733e-05	0.0027661336249146865	-0.002864598204972463	0.0009316340346496305	-0.001998008169464166
2
183600
Ar	-0.00031547526307956617	0.00021562075990412083	0.0032187444230533523	-0.01210242499280387	-0.002196702482898395	-0.0006561424073381997
Ar	0.00013390031327058897	-6.042919933782622e-05	0.002757732873478108	-0.012324382488977602	0.005424538270707239	0.0004615184418947741
2
183800
Ar	-0.0003453763424552478	0.0001418834860862036	0.003197894305709794	0.0061535714307178095	-0.011747729176709413	-0.0030343936377234975
Ar	-1.2867615820815334e-05	5.178417990710991e-06	0.0027734731951825306	-0.01576709880918258	0.007099056485568668	0.0023413887627123597
2
184000
Ar	-0.00020907319804473377	1.9944583878854222e-06	0.003175954901957606	0.01982583054796255	-0.015254908260653413	-0.00018162740667560044
Ar	-0.0001519937140965991	6.843618974903466e-05	0.0027907416373901444	-0.010701986768758397	0.005056342735898964	0.00013385580238293367
2
184200
Ar	2.6626516047194565e-05	-0.00014419166205423926	0.0031952103921850513	0.025507995407243928	-0.012625807346842061	0.0028919578529040865
Ar	-0.00021349309858258896	0.00010090341186351728	0.0027753793364417305	-0.001126357601388109	0.0009929192591834224	-0.002217244099762728
2
184400
Ar	0.00025442779961517523	-0.0002243941592549559	0.003215098482644341	0.01778549049276022	-0.0025557364442712082	0.0006339257137343297
Ar	-0.00017108546013345897	8.372504618982385e-05	0.002760668546348114	0.009274337082002823	-0.004329459238906833	-0.0003938633915475441
2
184600
Ar	0.00035066231671008	-0.00019100909608860982	0.0032057274274048123	0.0007002994334621272	0.008821162346888269	-0.002303614751873644
Ar	-4.347208189865171e-05	2.2366060716021382e-05	0.0027687071648736096	0.015180914611042826	-0.007397369450992958	0.001852441035832703
2
184800
Ar	0.0002723829652175085	-6.539938202556295e-05	0.0031802589545384136	-0.015294132910202863	0.015138695175917672	-0.0017718790774253047
Ar	0.00010574905097093608	-5.076758754197767e-05	0.0027891927531680815	0.013155027720490568	-0.006516563546370958	0.0014415100563655737
2
185000
Ar	6.819223083892558e-05	9.199802397005246e-05	0.0031872198150394307	-0.02432340302239385	0.015328484135560073	0.0027591844868622506
Ar	0.00019797891180445038	-9.981192363778829e-05	0.0027832381433665395	0.004838071247628294	-0.002985348193217615	-0.0022895990922928776
2
185200
Ar	-0.0001748363814067008	0.0002126355164775859	0.003213850973806401	-0.021897534272479754	0.0074697710251230435	0.0017565444032330113
Ar	0.00019450638008905083	-0.00010213997699379826	0.0027617798634239836	-0.005590533186586786	0.0026572211042021083	-0.0014039062311425607
2
185400
Ar	-0.0003286151562082402	0.0002266468640754965	0.0032148995659276305	-0.007463474185918601	-0.004748878148117521	-0.0015473184911133254
Ar	9.457542468353536e-05	-5.091692236234325e-05	0.0027604079664086483	-0.013509118246004719	0.0071199085324375	0.0011326717626785423
2
185600
Ar	-0.0003143874072735965	0.00012819731640568914	0.0031890346164117705	0.009847916545788156	-0.013921438452227826	-0.0029268998724855133
Ar	-5.332147201003156e-05	2.7565950244680825e-05	0.0027800120344252358	-0.01470841016135286	0.007819854506514682	0.0022903511466401496
2
185800
Ar	-0.0001526385014058506	-2.926476328890724e-05	0.0031772029638279663	0.021399206820352255	-0.016658562399866295	0.0013230190306966353
Ar	-0.00017167425153135718	9.21975179467861e-05	0.0027892796432823033	-0.008060358178612767	0.004749115214753367	-0.0011194596348786604
2
186000
Ar	8.551507666347475e-05	-0.00018057101620009216	0.0032024638530992917	0.024070382499947855	-0.012013152091397401	0.0025758523742159937
Ar	-0.0002050663579968653	0.00011523695000461869	0.002768979513488969	0.0017672497547546883	-0.0005816730597672073	-0.0020031173747250153
2
186200
Ar	0.0002832825452795032	-0.00024491843227064517	0.0032152091559367164	0.013611126152795888	-0.00022296498835394692	-0.00027984329002461646
Ar	-0.0001379763211659743	7.987154215986489e-05	0.002759805381078948	0.011076362190110742	-0.006161524686977021	0.0003006175978393123
2
186400
Ar	0.0003346591404313151	-0.0001859009244187195	0.003198222494180553	-0.0036211971277310896	0.01136825490133788	-0.002695251797672813
Ar	-1.796007793783738e-06	2.65257965485509e-06	0.0027738201291851007	0.014992688294871893	-0.008572697537521715	0.00222995515192118
2
186600
Ar	0.00022334093175668983	-3.943262712909208e-05	0.0031770387957224984	-0.017473489024375954	0.01677031192830535	-0.0003803835464144841
Ar	0.00013432410019921935	-7.589819253614226e-05	0.0027919736970309196	0.010857539743421919	-0.006420518619206528	0.00041340214121538476
2
186800
Ar	7.422895835557411e-06	0.0001294189999977914	0.0031954564638696794	-0.02418469590945441	0.01557399552934077	0.0030226928267830105
Ar	0.00020080032657407036	-0.00011910992028342137	0.002776947245565057	0.002035964522237872	-0.0017539728355659805	-0.002492177224245114
2
187000
Ar	-0.00021719908147101072	0.00024094525071470104	0.0032175866851397645	-0.018514307315348637	0.005540478743066609	0.0008404064786162039
Ar	0.00017010497856820802	-0.0001045663698680238	0.002758366054156937	-0.007990693530114081	0.0045792986506418215	-0.0008134073364394541
2
187200
Ar	-0.0003291482152671523	0.0002300935919372025	0.003209043248255542	-0.002939444346382429	-0.007532735490000636	-0.0023620998496316175
Ar	5.443031516844506e-05	-3.576106726143867e-05	0.0027635191381518175	-0.01417094004100147	0.008587950475507495	0.0017246432353077152
2
187400
Ar	-0.00027568026542840787	0.00010647851978796067	0.0031808644516230673	0.012785611227956607	-0.015968946838242955	-0.0023317897473226186
Ar	-8.87832953431389e-05	5.189722284158838e-05	0.0027851450159792793	-0.013065612799878982	0.008090135220294257	0.0019043760260934945
2
187600
Ar	-9.506501980398919e-05	-6.721882673348581e-05	0.0031817701532625823	0.022321978432830836	-0.017730168879291654	0.0024416623434015488
Ar	-0.00018395078784513608	0.00011367889470746314	0.0027848213250830887	-0.005450885598346151	0.003979783837612952	-0.0019136555408699686
2
187800
Ar	0.00013651422929502626	-0.00021724665764411594	0.003208961644400427	0.0217453084900464	-0.010673940955245029	0.0020932391746456874
Ar	-0.00018987930797768944	0.00012262840192869037	0.002764657238167974	0.004429112146399481	-0.0024436883463002925	-0.0014303449173915252
2
188000
Ar	0.00029923266604088246	-0.0002590741579246887	0.0032144460565966585	0.009302029502342888	0.0026766411594941505	-0.0010569197760965908
Ar	-0.00010205808641832781	6.843101778241104e-05	0.0027622065082784685	0.0123629179874622	-0.00788041159935683	0.0010086343516749771
2
188200
Ar	0.00030857681181171016	-0.00017095332399818362	0.003192468704387199	-0.007258340575146835	0.01397471458008899	-0.0027717578794613515
Ar	3.721453596998496e-05	-2.1546158479980665e-05	0.0027810757112109916	0.014227011256302258	-0.009286400693517861	0.0023263823755675945
2
188400
Ar	0.0001720381716705653	-3.91453416656835e-06	0.0031787720902489935	-0.01899004823749442	0.0183645901187526	0.0009521850126236952
Ar	0.0001552751768676979	-0.00010037934945486238	0.0027925381392841847	0.008376428587468477	-0.005967772084186222	-0.0008677027062930327
2
188600
Ar	-4.752368963822701e-05	0.0001718690515218418	0.0032030574880577856	-0.023025172280306837	0.015045705205940276	0.0027055301575049503
Ar	0.00019527216527426722	-0.00013286249754975135	0.0027712255107000955	-0.0007657060573671553	-1.938017022131989e-05	-0.0023678655487705054
2
188800
Ar	-0.0002458262369679919	0.00026647535858775385	0.003217488990340991	-0.014737477997577608	0.0029185697051855443	-0.00014432057601313194
Ar	0.00013983934327987252	-9.83674969563281e-05	0.0027574801398039398	-0.009864857174022565	0.006581975990818931	-0.00013636642732796247
2
189000
Ar	-0.00031655198748199937	0.00022597356221016655	0.0032008842802717986	0.0010764790145443774	-0.010501540857045768	-0.002814450833853591
Ar	1.427132942243706e-05	-1.2763019030837432e-05	0.0027686124944835	-0.01417267590409016	0.00979184523753648	0.0021323000972006583
2
189200
Ar	-0.0002318173662255713	7.760649660320989e-05	0.003175679682315034	0.014838048281086489	-0.01786608493174157	-0.0010591144923226884
Ar	-0.00011790252139280771	7.95289940972242e-05	0.0027886938921061533	-0.010926934566925237	0.0078074707548025785	0.0009702789563566004
2
189400
Ar	-3.970384852487763e-05	-0.00010990800827643919	0.0031901778863225637	0.02233983127634795	-0.01822236366425961	0.0030508377917406516
Ar	-0.00018805277318178072	0.00013410272813858527	0.002778443356758988	-0.0027318723541570806	0.002639117699167206	-0.002245398406827698
2
189600
Ar	0.0001765351355657203	-0.00025160853737449886	0.0032153750295259207	0.01878605186215839	-0.008624229265807368	0.0013453846579674332
Ar	-0.00016727016654121828	0.00012408801897085422	0.00276086586691942	0.006769968076389769	-0.004606940467398211	-0.0008238995252733381
2
189800
Ar	0.00030169730081896747	-0.00026602379683010195	0.003212096638795746	0.005157431331864286	0.005800197184679786	-0.001935306946257967
Ar	-6.361459825054363e-05	4.982875341888039e-05	0.002765153382434853	0.013071487615422726	-0.009592369954563754	0.0016048951389083766
2
190000
Ar	0.00027412726928776254	-0.00014879604097141347	0.003185434430203411	-0.010063665527854837	0.016394235689878262	-0.0025486712242217846
Ar	7.254999289426512e-05	-5.0593623863697134e-05	0.00278639873464626	0.01282718097519281	-0.009511861872724434	0.0019952449420611385
2
190200
Ar	0.00011970111581450069	3.691351082072106e-05	0.0031820967774797647	-0.01990986665700301	0.019690582470337933	0.002132831884706026
Ar	0.00016893897661085397	-0.00012488814055010132	0.002787942673259543	0.005848640183133142	-0.004988615209294622	-0.0018953827643957452
2
190400
Ar	-9.60442147848507e-05	0.000213030455323464	0.0032089248699268234	-0.021181224301968206	0.013707253455096208	0.0022233061464813774
Ar	0.0001825234791544725	-0.00014091829667910196	0.0027649301750055245	-0.0033487136850108056	0.002145284562876591	-0.0018729363538213908
2
190600
Ar	-0.00026418186905902824	0.0002838202877162486	0.0032162972409228428	-0.010883697749318433	-0.00020858983996301875	-0.0009067639772603074
Ar	0.00010642318999330189	-8.453997379019626e-05	0.0027581587503995235	-0.011234275609154371	0.008612119960634665	0.0006341985933589067
2
190800
Ar	-0.0002961020865564424	0.00021115277973821067	0.0031943513451243074	0.004555528709609862	-0.013442633188254687	-0.002948744767618533
Ar	-2.345309752967899e-05	1.611531115466777e-05	0.0027747010378026695	-0.013583338923702004	0.010610113067487279	0.0023007560864803825
2
191000
Ar	-0.00018652284353652739	3.98307693675321e-05	0.0031762455098359936	0.016397766262426307	-0.019625822453243676	0.00040918470735890283
Ar	-0.00013957434723234146	0.00010792779989496652	0.002789417143751873	-0.008555897569265758	0.007063381539055206	-0.00027453854924380236
2
191200
Ar	1.2243460351608228e-05	-0.00015627631824755307	0.0031987978701022604	0.021753468315925173	-0.017773062336593006	0.0028973648767893477
Ar	-0.00018443535682905433	0.00014873271955276673	0.0027723573780345837	-9.83253589524947e-05	0.0005687187831976583	-0.00214363119328957
2
191400
Ar	0.00020845164725806628	-0.0002803781917563141	0.0032169595538596926	0.01559392526671863	-0.0057761133558155	0.00034258759200833243
Ar	-0.00013977317151718968	0.00011549312342169268	0.002759554938980527	0.008663006861086097	-0.006907906065751896	-0.00014084705482521784
2
191600
Ar	0.0002967413584314922	-0.0002619939706841383	0.0032047586522578344	0.001379666774069834	0.009161236111481147	-0.0025152785389139383
Ar	-2.5720117435155826e-05	2.242435689054016e-05	0.002770007855584426	0.013197870208496162	-0.010883166864351443	0.0020423657111552068
2
191800
Ar	0.00023824429333401165	-0.00011654011871118622	0.0031791747131851085	-0.012248286101526944	0.018555429316048432	-0.0015231928900301085
Ar	0.00010096550461825891	-8.23974189947282e-05	0.0027908882549411897	0.01084391214633433	-0.009053951470436925	0.0012397365530103256
2
192000
Ar	7.008000110173184e-05	8.51202771261906e-05	0.0031892028168778457	-0.020429882240687276	0.020409640725251265	0.002868076920221426
Ar	0.00017351382965287519	-0.00014664531217742542	0.0027822203300776564	0.0033379003962311655	-0.0033785099552400524	-0.002408845667490163
2
192200
Ar	-0.0001368457320638327	0.000253936534204716	0.0032148100164507134	-0.01890494032686032	0.01156419646106441	0.001508695713759273
Ar	0.00016221188552557447	-0.00014081598386690342	0.0027607230151679802	-0.005571879513097776	0.004614758199354447	-0.0013201399883430139
2
192400
Ar	-0.00027312812246354894	0.0002941015213537661	0.003213519388581646	-0.007133165789272587	-0.0038063032740203633	-0.0017496167606591958
Ar	7.058675190976856e-05	-6.232883988158778e-05	0.002760161181874252	-0.011949105072760317	0.01037816347306892	0.0011915430188565398
2
192600
Ar	-0.0002698953871063745	0.00018754207272081037	0.003187174811479946	0.007453534254275124	-0.016339800649143327	-0.002767037341575709
Ar	-5.697650667329019e-05	4.88896949674205e-05	0.0027797204811798753	-0.012383549004980373	0.01081223586603856	0.0021305442534684015
2
192800
Ar	-0.0001404695930797745	-5.958564072929927e-06	0.003178998089257744	0.017590670912925918	-0.021251206214199448	0.0016579220484285136
Ar	-0.00015305446589592862	0.0001348838602742746	0.002785972555494176	-0.006156595792699714	0.005904555872523715	-0.0013708173728629377
2
193000
Ar	5.842501985509876e-05	-0.00020528118707958495	0.003204637416162369	0.020376621405514713	-0.016574576502299286	0.002414539059935233
Ar	-0.0001732984208795218	0.00015745542603669882	0.002766073966539666	0.0023340147377941493	-0.0018097902830769013	-0.0017407577883152222
2
193200
Ar	0.00022894579372587047	-0.0003043646215361017	0.0032151862535798894	0.01212362714223675	-0.0022948853496742314	-0.0005087451857955263
Ar	-0.00010912152105120223	0.00010025984897165017	0.002759884142972551	0.009944857021844186	-0.009093339374980402	0.0006162901099763554
2
193400
Ar	0.0002807522371694281	-0.0002491170521793028	0.0031965873437725468	-0.0020570142884072406	0.012637746120326204	-0.0027366518336195207
Ar	9.482749621654235e-06	-8.772422494998329e-06	0.0027767454474183478	0.012747397561130195	-0.011726938351721889	0.0024124592490330785
2
193600
Ar	0.00019702495061182696	-7.641394667878658e-05	0.0031777622184255964	-0.013832883791531188	0.0205689021989455	0.00010035248978182891
Ar	0.00012199918503127529	-0.00011259485106463404	0.002794136496747337	0.008629949157793927	-0.008182874794550262	5.0746538525473596e-05
2
193800
Ar	2.1196190206982063e-05	0.0001369327219703064	0.003199712911271316	-0.02007448031087186	0.020274121898581035	0.0030848151308686253
Ar	0.00017097529925068125	-0.00016288360178888715	0.0027764453595504235	0.0008662134018107049	-0.0013353153093393214	-0.0025777124345830347
2
194000
Ar	-0.000168422129022533	0.00028905869755308465	0.0032201779535219826	-0.01600284985645818	0.00859480825407922	0.0005337403559694815
Ar	0.0001370220847235301	-0.00013352415732588438	0.002757995444177579	-0.0073745192311650155	0.007003289764261081	-0.0007468351852967083
2
194200
Ar	-0.0002700286312706646	0.00029370897133511325	0.003208348635161722	-0.0035101520257276664	-0.007591280853136283	-0.002674291055454221
Ar	3.540936085897895e-05	-3.4782897061775347e-05	0.0027635943120775646	-0.01209780028432472	0.011868875877810015	0.0017262690754487483
2
194400
Ar	-0.00023645518179680377	0.0001544863801820532	0.0031786876121690437	0.009617276745966527	-0.018853285747362704	-0.002234702671708452
Ar	-8.40930265662718e-05	8.262478206876462e-05	0.002784643030998443	-0.010585825154548081	0.010438200780830242	0.001691706216526777
2
194600
Ar	-9.377344287146831e-05	-5.775929173770073e-05	0.0031820159326394408	0.018095819924092017	-0.022257129338370523	0.0025856009157382257
Ar	-0.00015766939210044726	0.00015824192234629956	0.0027816876729011043	-0.0037628248890789477	0.004307097518829987	-0.0019991421795834655
2
194800
Ar	9.762322446460676e-05	-0.00025153818941214855	0.0032088040818160422	0.018322461825589876	-0.014467146734578166	0.0019377175780552498
Ar	-0.0001546706796757087	0.0001590422847834314	0.002762785438707869	0.004417020994828578	-0.004309381738368753	-0.0011640361221106786
2
195000
Ar	0.00023872920033634883	-0.00031921238631978067	0.0032127598298988228	0.008616633128792945	0.0015110948150944168	-0.001177848284575473
Ar	-7.625065355395643e-05	7.878473707109164e-05	0.002763180577331466	0.010600526863178708	-0.01102080761891953	0.0012434168543831706
2
195200
Ar	0.00025693583516440434	-0.00022704049477766772	0.0031907913953543483	-0.0048941882382533995	0.015855479711219755	-0.0025639421282887256
Ar	4.008182447085637e-05	-4.2480078124120074e-05	0.0027832318273783027	0.011597991321164788	-0.01208942512131671	0.002257337242306861
2
195400
Ar	0.00015380598533083924	-2.9610596275516026e-05	0.0031813230735189594	-0.014986882333134565	0.02242685926594204	0.0014369093754409783
Ar	0.00013324919530964798	-0.0001412898967933357	0.0027914495333687117	0.006280352406821233	-0.007064362617284447	-0.0013006740443377814
2
195600
Ar	-2.376698132834864e-05	0.00018982877788633446	0.0032072174395611146	-0.018982484213016876	0.019274974535303267	0.002571218786666066
Ar	0.00015912489425926526	-0.00017365795182022468	0.002768812154862888	-0.0013475585354425286	0.0011051019401254942	-0.0022867563768623773
2
195800
Ar	-0.00019097218623583952	0.00031793531467102723	0.003219001468735501	-0.012827564397284318	0.005074321494951122	-0.0004894412601974861
Ar	0.00010740745534558114	-0.00011929997490354693	0.0027567714664522187	-0.008543376918167069	0.009298016432552306	7.573606509261085e-05
2
196000
Ar	-0.00025847366575981235	0.0002839205155185114	0.003198936791102591	-0.00019781087712890882	-0.011394721712247494	-0.003101167775242717
Ar	2.271207029101656e-06	-3.3932813491512523e-06	0.002769764584933114	-0.011599252319635113	0.012852908885191016	0.0022555440026206506
2
196200
Ar	-0.00019967475412509066	0.00011417244840352474	0.0031736049272276965	0.01118222644207796	-0.021107519287344414	-0.0007639858976579973
Ar	-0.00010320797644285934	0.00011386264017601867	0.0027896344980284115	-0.00840962985189653	0.009489465501134227	0.0006867836581989749
2
196400
Ar	-4.900524509067914e-05	-0.00011266830580280174	0.0031910300756401015	0.01799506854666594	-0.02249194058060897	0.0032178155397166765
Ar	-0.00015380215711969597	0.00017544642824767273	0.002776721494522841	-0.0014580954688763182	0.002327122224419542	-0.0023495415805726283
2
196600
Ar	0.00012901221203516402	-0.00029223230775126085	0.0032164969461289626	0.015872712654813593	-0.011590762842212287	0.001260209461385716
Ar	-0.0001299149355280877	0.0001525080011076185	0.0027592599809652834	0.006079301386058092	-0.006790337650133514	-0.000701959145647159
2
196800
Ar	0.0002396176182033629	-0.00032316983113453906	0.0032120545164314356	0.00531226058371401	0.005574625120811588	-0.0020485006996874768
Ar	-4.183352459850802e-05	5.132582633646816e-05	0.0027651873214257785	0.010772301810167991	-0.012561429905865841	0.0017741029189294675
2
197000
Ar	0.0002287859712050578	-0.00019439227033842216	0.003185174021770961	-0.007115846608135747	0.01880142522855591	-0.002389650835304218
Ar	6.743300328526586e-05	-7.68981664901451e-05	0.002787384559515126	0.009992388803069099	-0.011834466566382599	0.0019443952121784346
2
197200
Ar	0.00011156796133158229	2.4717360788369572e-05	0.0031844787176888477	-0.015642523038668737	0.02373425618131396	0.0022626536272689598
Ar	0.00013966649633709782	-0.00016592604090293671	0.002787008824094739	0.0040515798951650224	-0.005527733478034345	-0.002010072306476635
2
197400
Ar	-6.163928224034829e-05	0.0002412751712009552	0.0032099571003501664	-0.01736020501880321	0.017332334841685948	0.001933303388438325
Ar	0.00014355704188886512	-0.0001767765204242614	0.0027646623578743957	-0.0033719550263877104	0.003654338785105547	-0.0017084735758092844
2
197600
Ar	-0.00020374026030377465	0.00033760518086802156	0.0032139851905456846	-0.009709268728812538	0.0010616510781722474	-0.0012105169465923035
Ar	7.746863187778778e-05	-9.797817075344963e-05	0.002759862729496915	-0.009280926334003738	0.011383080400306186	0.0008099869576240646
2
197800
Ar	-0.0002403203573753853	0.00026342174551808516	0.003190505795066591	0.002504901799938016	-0.01499537292743137	-0.0028926021606125577
Ar	-2.7388017498296316e-05	3.156571354328418e-05	0.002777563033014723	-0.010750807191695645	0.013310827204868132	0.0023208530104514547
2
198000
Ar	-0.00016283068345675068	6.585630058705347e-05	0.0031761078340353664	0.012310379636348276	-0.023188971632444245	0.0010137488434643655
Ar	-0.00011652295848589815	0.00014376553044672882	0.002790378898656578	-0.006240032681703499	0.00831164843042852	-0.0006515096976188684
2
198200
Ar	-8.660722363446418e-06	-0.00016977482210075342	0.0032024323898252926	0.017268620315222062	-0.021714947799770123	0.003019528861440346
Ar	-0.00014573423012095895	0.00018774385213757378	0.0027707812047507506	0.0005922072919834262	-0.00014339292595183604	-0.002234303356266634
2
198400
Ar	0.00015122437514825788	-0.00032591927029531855	0.003220123606496093	0.013164881341683561	-0.007942245097144538	0.00012557151415613474
Ar	-0.00010468657428500145	0.00013837437352864134	0.002758184610381871	0.00726701922362904	-0.009290383589056083	-3.52601716580813e-05
2
198600
Ar	0.00023158253286321683	-0.0003155182821113885	0.003205017520045973	0.00227456140829779	0.009742121543702383	-0.002819716979101844
Ar	-1.1765186374115036e-05	1.7871993655440503e-05	0.002769891239055667	0.010521985593969703	-0.01379712278171326	0.0021586685135055275
2
198800
Ar	0.00019677845333499372	-0.0001528126192995242	0.003178211600275483	-0.008652887727568951	0.021296424998888043	-0.0013938560225609643
Ar	8.703561731829155e-05	-0.00011206372783758838	0.0027905431809507773	0.008186009843287963	-0.010928095065955547	0.0010141571913992095
2
199000
Ar	7.143790617059211e-05	8.339561392643506e-05	0.0031894036030673837	-0.015673703381238465	0.024270380613542118	0.002820819150466911
Ar	0.00013885016791146266	-0.00018655480493484996	0.002779871960186658	0.001971218989499587	-0.0034561530039943227	-0.00240177773251172
2
199200
Ar	-9.111955826359065e-05	0.00028747190419541377	0.003213156982369515	-0.015271753784139783	0.014463821186455422	0.001288073344540014
Ar	0.00012334223563273395	-0.0001717377894704956	0.002760000531336898	-0.00498530852543206	0.0064028540674101846	-0.0010626652993569144
2
199400
Ar	-0.00020585095974986619	0.0003456476045429558	0.003210235941640332	-0.006658043602804614	-0.003279740537140331	-0.0018399162476744062
Ar	4.7447911573201785e-05	-6.954518153309053e-05	0.002762425671885066	-0.00956999128127715	0.01315083687355605	0.001482206676296857
2
199600
Ar	-0.00021510964600523856	0.00023147261520310442	0.0031849471532051873	0.0046164836770955005	-0.01826601270903533	-0.002407916605987102
Ar	-5.229903224443797e-05	6.879144858379824e-05	0.0027835962755366774	-0.00940628875537908	0.013164955478254177	0.002144497192080629
2
199800
Ar	-0.00012438331740343222	9.807372610168588e-06	0.0031824419802217174	0.012982376380825736	-0.024814555531796043	0.0022237304715931002
Ar	-0.0001226452178106939	0.0001710170233538389	0.002787483609962846	-0.004182636213645178	0.0067365468969561365	-0.0016557512516868682
2
200000
Ar	2.718813882276058e-05	-0.00022627063769481624	0.0032105757719835194	0.01594784833887133	-0.01996754848191247	0.002365588049409266
Ar	-0.00013200006316314972	0.00019222012877098438	0.002766303235936886	0.0024401703610885065	-0.0029085053568710145	-0.001771782418338969
2
200200
Ar	0.00016503515022429452	-0.0003505085964967831	0.0032185932031319185	0.010334530464188899	-0.0037342544453901924	-0.0009147559069390366
Ar	-7.720702728892119e-05	0.00011670178584064213	0.0027602245198045756	0.008029955079718794	-0.011559053054133175	0.0006611628365879566
2
200400
Ar	0.00021675699472971846	-0.0002968910525976926	0.0031956925677457423	-0.00030022893687050905	0.013734749137690684	-0.003136616435173556
Ar	1.5652218589479788e-05	-1.8969333023718e-05	0.0027770284329362085	0.009744777434005748	-0.014366647841374293	0.002327472781125283
2
200600
Ar	0.00016422982028808355	-0.00010316958214293973	0.003175245259656915	-0.009650233795462367	0.023538675344695385	0.00020101917333849092
Ar	9.916112616818187e-05	-0.00014406787771832093	0.0027918755822336347	0.006089821909487021	-0.00962263852125214	-0.0003299708540540021
2
200800
Ar	3.5242351411357654e-05	0.00014502334077147686	0.003197398254058658	-0.015211298403594434	0.02388037562977031	0.0029908466680460175
Ar	0.00013052918738865784	-0.00020001799615157782	0.002772715090916752	1.6873243712410237e-05	-0.000964922757189226	-0.002451556989779399
2
201000
Ar	-0.00011284379394139039	0.0003279035425005433	0.0032169855216362107	-0.012949254738049193	0.010838697895533291	0.00048210835240561345
Ar	9.899344337243517e-05	-0.00015790605104845374	0.002757002368532857	-0.006087349531263061	0.009025167075074312	-0.0003776632810589767
2
201200
Ar	-0.0002008997967269469	0.0003427997148292072	0.0032055313318618884	-0.003928579001926645	-0.007836883781048938	-0.0025188798131564293
Ar	1.897119451262152e-05	-3.521439884641188e-05	0.002766304713448321	-0.009251349084251235	0.014477167790975272	0.002020623375602651
2
201400
Ar	-0.00018799344842590653	0.00018980150623099963	0.003179178939162007	0.006121889207190754	-0.021187139144337917	-0.0016834592358281521
Ar	-7.017941312535144e-05	0.00010575129537712289	0.002788382403785928	-0.007637005840117912	0.012293106734271845	0.0015078971922077504
2
201600
Ar	-8.884190918228092e-05	-5.2403114228587946e-05	0.0031876486874556245	0.013184490696112324	-0.02571011457006471	0.002802966745966295
Ar	-0.00012047353804933127	0.00019320812292602217	0.002782301770471305	-0.0022328129514996796	0.004699958408388627	-0.00220910848468419
2
201800
Ar	5.524518859784119e-05	-0.0002786317622588281	0.003213537983188949	0.014264052362622136	-0.017216816169407373	0.0016106227640745186
Ar	-0.00011206246326272034	0.0001886825103057524	0.0027624511115889334	0.003837470696067981	-0.005711308841882713	-0.0011767765046633047
2
202000
Ar	0.00017018133512457784	-0.00036406127541455905	0.003212938231990724	0.0076636035447808495	0.0008677296920010351	-0.001698584414425456
Ar	-4.961902552327248e-05	8.85073409851201e-05	0.0027629902423128836	0.008128690148439843	-0.013455677138158479	0.0012629001588249005
2
202200
Ar	0.00019720366511093835	-0.0002668750260499512	0.003186793044372394	-0.0023113009466321586	0.017416950755548513	-0.0027846560503476327
Ar	3.713456301760503e-05	-5.718856510576593e-05	0.002782942027128423	0.008422468890399598	-0.014290501273615875	0.0021774854281053834
2
202400
Ar	0.00013177393523980692	-4.608754862955341e-05	0.0031785492742894316	-0.010299375078361355	0.025441554399476343	0.0017716752183238914
Ar	0.00010229687565928451	-0.00017156546725651155	0.0027890072301658014	0.004095698218996347	-0.007919235412465801	-0.0015321904395015486
2
202600
Ar	3.699229887920681e-06	0.00020538365043465195	0.0032063946967203784	-0.01420734751113662	0.022341430689751234	0.0026514762318554435
Ar	0.0001152958729499486	-0.00020442905871976384	0.0027660330252724766	-0.0015810658331830976	0.0018680322662513271	-0.0021190357172873077
2
202800
Ar	-0.00012669092862545027	0.00035721540372454796	0.003218633691033944	-0.010622760841103425	0.006576716708604249	-0.00044849986036113573
Ar	7.250200233523691e-05	-0.00013503189707251133	0.0027565953623945585	-0.006612536632654218	0.011395672834286566	0.000388900208632345
2
203000
Ar	-0.00019027444241991257	0.0003266799269103592	0.0031992606979724934	-0.0016107423287289662	-0.01214743531618601	-0.0029686267814028455
Ar	-6.116515925901455e-06	4.080046589121088e-06	0.0027721349044020362	-0.00843373064031025	0.015183629985241302	0.002420216351806663
2
203200
Ar	-0.00016045618864875334	0.00013997848106900627	0.0031764510046334116	0.007123357554654077	-0.023629416172830923	-0.0004201022276170271
Ar	-8.062262758920912e-05	0.0001403129508125687	0.0027915766152873524	-0.0056478280252095555	0.010815169680117408	0.00043365932869141423
2
203400
Ar	-5.6867269455640786e-05	-0.00011677770950572217	0.0031950092221365053	0.012915105804732237	-0.025637319350147358	0.002998177967269389
Ar	-0.00011144843628066238	0.00020733644362714996	0.002777258242832816	-0.0004240734195403636	0.0019763863598567907	-0.0023166631907011966
2
203600
Ar	7.581567183306168e-05	-0.00032388745826505695	0.0032165456164208748	0.012349076376777714	-0.013681142721167527	0.000795630762838208
Ar	-8.845788028409507e-05	0.00017316817434541744	0.0027608098544796063	0.004840432822962948	-0.008560600612204051	-0.0006022673603215329
2
203800
Ar	0.00016807694890316657	-0.00036548869519538907	0.003208093521540369	0.00527173608740976	0.005568308841192239	-0.00232500209084632
Ar	-2.217389447113231e-05	5.0739938354695625e-05	0.002766891751291456	0.007846359379606165	-0.01487140822830722	0.0016982584277766058
2
204000
Ar	0.00017451073332645792	-0.00022707496035082083	0.0031811771880108472	-0.0037839533569899095	0.02059149846666011	-0.0020578383351325643
Ar	5.504358523243675e-05	-9.791232420386234e-05	0.0027872181774865113	0.006809431692310483	-0.013363779606511772	0.001604302375636291
2
204200
Ar	0.00010050908312376774	1.6609506347895904e-05	0.0031856954001977605	-0.010626621234247369	0.026710723536300544	0.0026696766796837487
Ar	0.0001016463646738058	-0.00019572051811991907	0.002782891345526914	0.002265313834912879	-0.005679499495445862	-0.002239641069474925
2
204400
Ar	-2.310296621929273e-05	0.00026193938580980943	0.0032129082144076115	-0.012912746297966743	0.019845006392235333	0.0019002819370259113
Ar	9.844013003614026e-05	-0.00020014306692376876	0.0027609663220365356	-0.0029362208041325217	0.005021423387945519	-0.0014785106545681824
2
204600
Ar	-0.00013387019878640242	0.0003754124437513234	0.0032154248756840675	-0.008231330229800217	0.0018380644830866249	-0.0014192171210657952
Ar	4.738395313852591e-05	-0.00010327830915294207	0.002759133219706195	-0.006814102727667669	0.013497174938351716	0.0011378113770559278
2
204800
Ar	-0.0001744102710401399	0.00029900233400157193	0.0031901525985189275	0.0003424333306117022	-0.016134793772090306	-0.0029676224029446772
Ar	-2.720515655811879e-05	4.711523335594122e-05	0.002779617387588273	-0.0074405126916024045	0.015159579094430104	0.00245303597172544
2
205000
Ar	-0.0001318107127950663	8.286753909641588e-05	0.003177490656258017	0.007810567290422865	-0.02571440103525512	0.0013079150938148341
Ar	-8.644137459474613e-05	0.0001721274596525393	0.0027908204367491705	-0.0038508902637033114	0.008940982677427517	-0.00100892652467285
2
205200
Ar	-2.7546832053190263e-05	-0.00018066584436573734	0.0032044815821260166	0.012210126364155293	-0.024454765847268425	0.0028701752018082116
Ar	-0.00010060930777035887	0.00021465340715981298	0.002769861695439592	0.0010746298437038118	-0.001046817419044741	-0.0021910913528988877
2
205400
Ar	9.073925457750717e-05	-0.000358354487009616	0.0032196589407629435	0.010346453192027082	-0.009347611778484166	-0.000165864243609663
Ar	-6.647016491189637e-05	0.00015045158449106263	0.00275820355420386	0.005474822814479339	-0.011225299326596805	7.37157016745562e-05
2
205600
Ar	0.00016077968092328596	-0.00035237675800234416	0.0032021654135284384	0.0031066791374298776	0.010282393651982934	-0.002936071968728312
Ar	1.8413685830887251e-07	9.292488503043291e-06	0.0027710232867963714	0.007314559449933996	-0.01577476838573801	0.0022169952465499122
2
205800
Ar	0.00015076130044927802	-0.00017635055791089977	0.003176874268200646	-0.004810533756191837	0.02330729762449717	-0.0009321698340285832
Ar	6.64128455753685e-05	-0.00013598329339770555	0.0027904876075692015	0.005207066448871439	-0.011869479952080306	0.0006802678967868802
2
206000
Ar	7.167291043388962e-05	8.480270948575552e-05	0.0031923550383371998	-0.01057157646522679	0.026990086578746166	0.0030183294550131154
Ar	9.653571592480278e-05	-0.0002131969546765949	0.0027771649915459594	0.0007353511323169599	-0.0030103218473575568	-0.0024454785877866753
2
206200
Ar	-4.3430665387717055e-05	0.0003130344936909619	0.0032159505537471293	-0.011374966663242822	0.016311932821055926	0.0011254028605846389
Ar	8.044954913762974e-05	-0.0001873187893017039	0.0027587732835285556	-0.0038353860169430304	0.008029922432785839	-0.0008062184711374521
2
206400
Ar	-0.00013513539379355252	0.0003811945558430898	0.003210115931897857	-0.006115282420270617	-0.0031813410218221676	-0.002150253830208096
Ar	2.5628126026422824e-05	-6.603385150076958e-05	0.0027636003104140002	-0.006675333816182726	0.015159815819844043	0.001680746511145698
2
206600
Ar	-0.00015718990554842662	0.00025967294412142336	0.003182870294166802	0.0016919638449428135	-0.019729487530307517	-0.002405908318735832
Ar	-4.206429339414987e-05	8.937224080372685e-05	0.0027853810429109677	-0.006214077200802805	0.014400789678875068	0.0019618717452554884
2
206800
Ar	-0.00010676819473425454	1.7786812340418435e-05	0.0031825641385176844	0.008116928615011176	-0.02726016818390589	0.002428337912180427
Ar	-8.65697948432948e-05	0.00019786976947731917	0.002785376596727266	-0.0023828305401994362	0.00672135229454854	-0.002036899112114114
2
207000
Ar	-5.318976611159239e-06	-0.00024189860437903138	0.0032103968870234524	0.011287415770981399	-0.022042020373550596	0.002165878110323214
Ar	-8.787562638669785e-05	0.00021213816192908752	0.0027628419172575983	0.0021225200787114012	-0.00423268984873942	-0.0017145282298388497
2
207200
Ar	9.841084724730797e-05	-0.0003807922545421034	0.0032165107928451993	0.008492339184680816	-0.004484133649119571	-0.0010596966668431373
Ar	-4.743829366295074e-05	0.0001195088299831111	0.002758120057233547	0.005650788403705312	-0.013480240899085888	0.0008574074258812576
2
207400
Ar	0.00015019518945670734	-0.00032633922102927966	0.003193661571817538	0.001489722691168893	0.014589704737071848	-0.0029581327443576077
Ar	1.625541858136205e-05	-3.4831327198440284e-05	0.002776680882670086	0.006530840406391737	-0.01598290439196264	0.0024325694289173334
2
207600
Ar	0.00012951591873376034	-0.00011825925022605833	0.0031771592967588334	-0.005354362507214596	0.025532857490544656	0.0006793728855199718
Ar	7.029745561704065e-05	-0.00017032643365439207	0.0027910586479349916	0.003707056620627634	-0.010035542809256956	-0.00048237810781635333
2
207800
Ar	4.886011225103994e-05	0.0001517442850541473	0.003201311197674836	-0.010197977514953983	0.026030455693490766	0.0028732755929902288
Ar	8.678238663792047e-05	-0.0002234986765982983	0.0027718297538204964	-0.0004578134632179044	3.670290212190867e-05	-0.002280880772418022
2
208000
Ar	-5.663333469399617e-05	0.0003519451279052728	0.0032179559713281726	-0.009890705661658216	0.01201907201852481	0.00011458629085476156
Ar	6.191760713718781e-05	-0.00016640039669851657	0.002758544315631722	-0.004340408487042644	0.010870293597202792	-0.00011982236251715476
2
208200
Ar	-0.00013117199572357723	0.0003714635044130363	0.0032032755155301483	-0.004422397944782746	-0.008098291225917922	-0.002757818980635095
Ar	7.201437829335249e-06	-2.4305877368798048e-05	0.0027695101472174776	-0.0061466440919535625	0.016308046269719653	0.0021148334245879056
2
208400
Ar	-0.00013995752016810888	0.00020998471850060973	0.003177136520014833	0.0025201428782308096	-0.022584233826279096	-0.0013311692576302497
Ar	-5.059627562817788e-05	0.00013013565093230133	0.0027904003083601132	-0.004794886896374093	0.013046916834620073	0.0010949368926127256
2
208600
Ar	-8.506396418358723e-05	-5.118220227970331e-05	0.0031896243838212116	0.008195649525461481	-0.027889353956675682	0.0030256347774426325
Ar	-7.995427651187029e-05	0.00021885122565365635	0.0027801297410316866	-0.001007858613215528	0.004156317112620421	-0.0024380214810639394
2
208800
Ar	1.1620289504487056e-05	-0.00029729409988909827	0.0032156268745812283	0.010235101801998901	-0.018819412760345197	0.0014638381296328822
Ar	-7.056245617424391e-05	0.00020267779198723424	0.0027599100094358128	0.0028374548557972548	-0.007386645727802999	-0.0011048069163912776
2
209000
Ar	0.00010078338173083335	-0.0003919511975054127	0.0032129854967895234	0.006790842946776723	0.0006469768732695177	-0.001906941393107239
Ar	-2.7671085450959652e-05	8.384790290141958e-05	0.002761858769058565	0.005407723021842043	-0.015367507142639542	0.001457449575271426
2
209200
Ar	0.00013716040120333395	-0.0002900085844563335	0.003185865188567039	0.00031957139155804016	0.018502704878641932	-0.002717987725538242
Ar	2.8650100164387274e-05	-7.834381905696806e-05	0.0027834565007353583	0.005350346731473356	-0.01552173809648618	0.0022594715467447474
2
209400
Ar	0.0001097058777023746	-5.317998942551688e-05	0.0031804174417233585	-0.005605111263973804	0.02751370234930751	0.0020211549018779493
Ar	6.856505384827139e-05	-0.00019883870349948892	0.002788371182183626	0.0023096571234264077	-0.007904812128987079	-0.0016600812059820108
2
209600
Ar	3.136422131314325e-05	0.00021902675947173405	0.003207707774088895	-0.009433959392558562	0.0241641425790275	0.002364680466795637
Ar	7.336154566568135e-05	-0.00022450601727011	0.0027662346178880925	-0.0013628232198097739	0.0032528652056987755	-0.001896568923847865
2
209800
Ar	-6.228562593946571e-05	0.0003835320640449692	0.003216506612590133	-0.008415030783013195	0.007182030713358162	-0.0007720608017193831
Ar	4.366411345741905e-05	-0.00013795726866542337	0.0027588165870943257	-0.004347210231760388	0.013290128899596127	0.000543594429283156
2
210000
Ar	-0.00012218149506376016	0.0003522017351541888	0.0031951170351228763	-0.0031013735163789116	-0.012861512615721056	-0.0029841505031431193
Ar	-6.916574977983173e-06	1.906679241760181e-05	0.002775210089897677	-0.005338948317895243	0.016706691975737344	0.002388892996432275
2
210200
Ar	-0.0001223695055196374	0.00015370884045326475	0.0031754911642071022	0.0029152637585301185	-0.025254253935691653	0.0002451467556074675
Ar	-5.273261549101568e-05	0.00016500182055382033	0.002791689453876485	-0.0033001022900529223	0.011186266164439098	-0.00013765918950733131
2
210400
Ar	-6.718796333405239e-05	-0.00012182090404276489	0.003198580211390436	0.007814239036155269	-0.027513632625834616	0.003124332722870457
Ar	-6.908034881829937e-05	0.00022975866317833274	0.0027735730014909325	2.0978813495590357e-05	0.0011292884009896423	-0.00243749350706932
2
210600
Ar	2.1172765152481664e-05	-0.0003438857391532788	0.003219493275965712	0.009023047433757125	-0.014688757802443006	0.0005756811602040388
Ar	-5.2739993148190075e-05	0.00018201524144462425	0.0027575854652568104	0.0031363931021827465	-0.01028165796705714	-0.0004382923255768692
2
210800
Ar	9.696289287519492e-05	-0.0003893800324630527	0.0032080423398870117	0.005477768400294299	0.005814147015904556	-0.0026165030598111136
Ar	-1.1248239627982394e-05	4.187242406927037e-05	0.00276637488768744	0.004828951888136212	-0.016539373724261303	0.0020146231471697093
2
211000
Ar	0.00012289327481663104	-0.00024346109270722167	0.0031794913190721424	-0.00033312160122649125	0.021787308393578873	-0.0020037128653227067
Ar	3.562918383448823e-05	-0.00011972810116393268	0.002788785362368426	0.004059420979465121	-0.014138254406738198	0.0015874044413516112
2
211200
Ar	9.262246415159438e-05	1.6103210996863805e-05	0.0031856652614733953	-0.005605988815501149	0.02850920217406963	0.002763314504240249
Ar	6.169679374990504e-05	-0.0002192722481670542	0.0027829385073297307	0.0010661422507751248	-0.005266955836039298	-0.002322604092531778
2
211400
Ar	1.811774952281798e-05	0.0002775458749492704	0.003212176098858359	-0.00863471052735272	0.02111227739485238	0.0017483159450032684
Ar	5.705494963939988e-05	-0.0002141271988438942	0.002761286935911507	-0.001975202457520511	0.006403434835878642	-0.0013862524428110493
2
211600
Ar	-6.468102687170939e-05	0.00039845107489559263	0.00321353204176043	-0.007140539275570516	0.0020121690859462318	-0.0015048266054823298
Ar	2.535590161109901e-05	-0.0001013193807928924	0.0027603069448451215	-0.004095161082392549	0.01515064089287817	0.0012148792262008463
2
211800
Ar	-0.0001127077993892749	0.00031830851917059237	0.003188650815862248	-0.002145266193445252	-0.016969067227848442	-0.002791929250057601
Ar	-1.832133887936417e-05	6.372007384682075e-05	0.0027807113759192995	-0.00426268148013722	0.016306704207608522	0.0023138774625172426
2
212000
Ar	-0.00010752184170275447	8.984986311703174e-05	0.0031794316159863226	0.00305993618425555	-0.027312211258783515	0.001667119972540318
Ar	-5.1132982863927525e-05	0.0001944619945428801	0.0027891589123783668	-0.0019653176720520376	0.009008369866651796	-0.0012385631556515182
2
212200
Ar	-5.355496419877399e-05	-0.0001896308865641427	0.003206927376061107	0.007351842190977743	-0.02587173255460197	0.002644757660929948
Ar	-5.664005377710155e-05	0.00023164834155051545	0.0027682813574210026	0.000844161411740351	-0.0021076625295817723	-0.0019879779433718925
2
212400
Ar	2.679615586843059e-05	-0.00037752884893414593	0.003218809307878712	0.007972381582768185	-0.009880195086227854	-0.0004910172679360269
Ar	-3.581632930138346e-05	0.00015387656719469638	0.0027594295044807223	0.0031667339068626073	-0.012753983551444113	0.00036967366108417606
2
212600
Ar	9.16839495101325e-05	-0.0003717594876046322	0.003199019775062797	0.004470565549918014	0.01071819813244984	-0.003032622832442983
Ar	1.5261804581998023e-06	-2.148785724232007e-06	0.002774174882380543	0.00400307458578481	-0.017075943401935904	0.0022838743214893945
2
212800
Ar	0.00011080619051875783	-0.00018726204759480215	0.0031752885965760013	-0.0005802738890004603	0.024512679329696023	-0.0004749504861590972
Ar	3.696143949858672e-05	-0.00015593447747017414	0.002792398393541702	0.00265243017326509	-0.01224864271276341	0.0003103337353050834
2
213000
Ar	8.103018517029052e-05	8.842684083740186e-05	0.0031943623210676556	-0.005299631089649251	0.028484410806841616	0.003122454432954584
Ar	5.0676707014428665e-05	-0.00023188787214085092	0.0027757572508589437	0.00013535288567875133	-0.0023474018464356857	-0.002591307963096991
2
213200
Ar	1.2407004880463634e-05	0.00032861425307995496	0.0032172374982120445	-0.007792164357948932	0.017143534991124264	0.0009196184276472145
Ar	4.029926748181943e-05	-0.00019549847960323801	0.0027571826692909833	-0.0021183204562604165	0.009369278393237106	-0.0007366686778811742
2
213400
Ar	-6.0901140156709e-05	0.00040018391771651696	0.003209510665108213	-0.00619889056028885	-0.003361731288583144	-0.0022996125216790376
Ar	1.152974721706131e-05	-6.015567750008397e-05	0.0027631060466877964	-0.003433588302555098	0.016528816217553973	0.0018146711992939562
2
213600
Ar	-0.00010197693939958316	0.00027257887700206075	0.003181787380004077	-0.0018014187162606196	-0.02065261520092536	-0.0022445748546542164
Ar	-2.25344428003258e-05	0.0001060833267004842	0.0027856652956703087	-0.0030526530023643234	0.015083013197276472	0.001957031958522879
2
213800
Ar	-9.654214701850577e-05	1.8300401099370695e-05	0.003184143588258731	0.0028739094648275055	-0.028704563531424133	0.0025507116061954144
Ar	-4.262652392253977e-05	0.00021684065212440557	0.0027851453542744485	-0.0008584292194865226	0.006481317450885931	-0.001930329857723701
2
214000
Ar	-4.653806235488212e-05	-0.0002544738329613897	0.0032110221243498004	0.006704602982472686	-0.023094684009110186	0.0019370522353044251
Ar	-4.0416675992491544e-05	0.00022387619590995644	0.002764892657141075	0.00127801901096716	-0.005328506473639855	-0.001477599671613364
2
214200
Ar	2.5999253056836197e-05	-0.00039934075145406145	0.003214414503459637	0.007118438588749091	-0.004581155014541082	-0.0013325994599347924
Ar	-1.9279315509163666e-05	0.00011837855268852416	0.0027620304399615654	0.002778870126269581	-0.014844613929242793	0.0009443188034651035
2
214400
Ar	8.337636742978959e-05	-0.00034172189977025685	0.003189928858922093	0.003909109321128984	0.0152527086065894	-0.002923397468532643
Ar	1.1055498103176022e-05	-4.77649321733261e-05	0.0027802669634999135	0.0030070169110805933	-0.01684665952533525	0.0022360873657937836
2
214600
Ar	0.0001004747660323156	-0.00012417829100605125	0.0031765917921667435	-0.0005000443081573651	0.02677061316360672	0.0012195114017557577
Ar	3.457685259226295e-05	-0.00018744790074584432	0.002790114910139005	0.0014189468791483582	-0.010006279815115255	-0.00109721320632509
2
214800
Ar	7.283727274942203e-05	0.00015886318946102345	0.003203568584017984	-0.004951895672210083	0.027189848636326733	0.002919385145129823
Ar	3.865956677140835e-05	-0.000236054403905008	0.002767570034590806	-0.0005346750221980828	0.0009109690218243636	-0.002365888294908796
2
215000
Ar	9.336578355256895e-06	0.00036701491407140036	0.0032195236631300385	-0.007123920511258803	0.01242335975126491	-7.08148213162317e-05
Ar	2.4999687244574206e-05	-0.00016816413324991568	0.002754889903724077	-0.002063768780263385	0.012080323525250182	3.816510741931128e-05
2
215200
Ar	-5.687824515084745e-05	0.00038641086080102156	0.003202643978586376	-0.0055264052615686165	-0.008493640303854202	-0.002924839581444904
Ar	3.5969652677900156e-07	-1.478797529441842e-05	0.0027681565268518646	-0.00267622786950977	0.017254668036170595	0.0023704425711597032
2
215400
Ar	-9.3442974024636e-05	0.00021817228629377386	0.00317625805291929	-0.0016443281903581373	-0.02350375820382246	-0.001135671104089627
Ar	-2.414895546147448e-05	0.0001455897804693599	0.0027903303393777283	-0.0019160061990933723	0.013245458805608604	0.00105250687460497
2
215600
Ar	-8.869382222474299e-05	-5.3835638077361254e-05	0.0031905863809647663	0.0026890693981683426	-0.028985411050428105	0.0030283906095682723
Ar	-3.3715316911148506e-05	0.00023243675721837815	0.002780020872257133	-5.937146324506315e-05	0.003564685953298595	-0.002291821063433271
2
215800
Ar	-4.1875646366021675e-05	-0.0003083490506954332	0.003215217852839802	0.006280618227057632	-0.019328222936638773	0.0012429450262561163
Ar	-2.6981102429045814e-05	0.0002075689349259183	0.002761907827585164	0.0013418029921460825	-0.008423385252973887	-0.0008790635299314293
2
216000
Ar	2.522494724404951e-05	-0.00040468132931261255	0.0032107752598955464	0.006526917926206148	0.0008514453575325672	-0.0020309724216925804
Ar	-8.681683204857385e-06	7.823681233134966e-05	0.0027654708612341087	0.0021721770847960126	-0.016353721456424018	0.0015119847004399188
2
216200
Ar	7.77169078676583e-05	-0.0002983900941455296	0.0031838476437498742	0.003583815954880443	0.019112569373268048	-0.0024800402043213023
Ar	1.3494123686417794e-05	-9.142303070966895e-05	0.0027861464138477987	0.0020508492520366767	-0.015898188149687926	0.0019519860105878734
2
216400
Ar	9.418138287984384e-05	-5.3626818826124734e-05	0.0031823688214204	-0.0003879209439574383	0.0284775973148529	0.002376265157739322
Ar	2.7150182926319907e-05	-0.00021224162334449473	0.002786561436145609	0.0005321319023657084	-0.007607195278207018	-0.0020438781654318052
2
216600
Ar	6.819308373854697e-05	0.0002265306054679994	0.0032105177039515403	-0.004658180319122024	0.024727006232760366	0.0022443650172350605
Ar	2.550729941666115e-05	-0.0002312360757657982	0.0027631719517069338	-0.0007761249529470799	0.004190446320965521	-0.0018604425489897143
2
216800
Ar	8.730751099247823e-06	0.0003937540355933002	0.0032169148189258273	-0.006675341428903455	0.00715272874451222	-0.001067676884154182
Ar	1.28289744434616e-05	-0.00013434138707531696	0.002757287123437288	-0.0016740490532040249	0.01432418556876005	0.0007662141661073184
2
217000
Ar	-5.340236264321339e-05	0.0003599282439731336	0.00319340427402125	-0.005214581848577863	-0.013326507542912765	-0.0030775463257946218
Ar	-5.339905335542247e-06	3.128177682553713e-05	0.00277584779035593	-0.0018326437131472996	0.01732716697248899	0.0025383455082870193
2
217200
Ar	-8.85978892506896e-05	0.0001556069531565476	0.0031752071028362	-0.0017609457157582774	-0.025988857807531816	0.0005492978072499591
Ar	-1.9807494017576072e-05	0.00017957582737239988	0.0027920431734651963	-0.000812624711785642	0.011076129253967785	-0.0003063820721324684
2
217400
Ar	-8.558575037452959e-05	-0.00012755491351229846	0.0031994991805790697	0.0025046515321690177	-0.028152930658996458	0.0030375073051782954
Ar	-2.113104777422662e-05	0.00024008046511414606	0.002773623485197879	0.00040912784697934095	0.00038912748308580515	-0.002272506146055446
2
217600
Ar	-4.151973075263008e-05	-0.000353175309627962	0.0032182230351789146	0.005930886444945566	-0.014765673095014479	0.00031294245671674686
Ar	-1.3111733209335867e-05	0.00018335876257397147	0.0027595441017174887	0.0011349446750399043	-0.011262033914127034	-0.0002467491269932684
2
217800
Ar	2.218483385014249e-05	-0.0003973494247747982	0.0032048081407105512	0.006231064779977145	0.006152894396084198	-0.002719219879721125
Ar	-1.577160039050343e-07	3.3840770386379135e-05	0.002769522109879474	0.0013701324873566136	-0.017347726259625013	0.002004523935239699
2
218000
Ar	7.298088513297205e-05	-0.0002469569644398655	0.003177704919047244	0.0036417322452093805	0.02231866125611516	-0.0015451619573142454
Ar	1.2158473204702288e-05	-0.0001323386055263974	0.002789783511875325	0.0009248905874082916	-0.014223773712851231	0.001123642948917243
2
218200
Ar	9.159494854888975e-05	1.8925713845267757e-05	0.0031883999114282373	-0.00011223361103570253	0.02914874243368879	0.0029554288033601895
Ar	1.543494865388891e-05	-0.00022992037762643847	0.0027794112294856933	-0.0001860914495988554	-0.004753174673350652	-0.002541942995278211
2
218400
Ar	6.83946137391868e-05	0.00028464114750590905	0.0032144193777174706	-0.004376204124069174	0.02130133810667533	0.0015097748888079853
Ar	1.0630099094550377e-05	-0.00021673263526113457	0.002758088747521071	-0.0007055427397934503	0.007411956631082316	-0.0011971573476980317
2
218600
Ar	1.1633782455142825e-05	0.00040513944122614465	0.0032125248189895437	-0.006433927837078103	0.001755583020822511	-0.0018275577996052401
Ar	2.1686343626938765e-06	-9.425573215474427e-05	0.0027599089221845754	-0.0009296107841368065	0.016018996517041733	0.0015321731352677707
2
218800
Ar	-4.8718787638566446e-05	0.00032113082532737197	0.0031858841965385263	-0.0051586923762771035	-0.017416467913613478	-0.0027273441603598574
Ar	-6.967780978911459e-06	7.642418428388497e-05	0.0027832437755400683	-0.0008141538451998728	0.016472039375346463	0.002539457817882114
2
219000
Ar	-8.591407060206797e-05	8.807865721070233e-05	0.003179713321159426	-0.0021346608769341117	-0.027819209980434058	0.0020008058471320685
Ar	-1.1207800278594366e-05	0.0002054531682544214	0.002791187234456298	8.833927752875173e-05	0.008542881708858547	-0.0014586799753729222
2
219200
Ar	-8.599431889139031e-05	-0.00019542681495789214	0.0032083870242103937	0.00226887517797413	-0.02608074393625039	0.002593668332678102
Ar	-7.482789719104255e-06	0.00023584611751523594	0.002769234316860276	0.0005132512386877746	-0.0029657596242113147	-0.002023343674705895
2
219400
Ar	-4.3923317659560114e-05	-0.0003832334977023496	0.003219145003823	0.00577602332823168	-0.009698635699933091	-0.0006830951722047355
Ar	-1.912605578803438e-06	0.00014920899291154745	0.002759929709940685	0.0005590017444999978	-0.01359355012610834	0.00032705834830836834
2
219600
Ar	1.899157835425033e-05	-0.0003745915296011988	0.0031977108269643055	0.0061942205746048275	0.011069844681438906	-0.003109581425400381
Ar	3.3977055723172265e-06	-1.324100439776453e-05	0.0027740553884289003	0.0004665898343066349	-0.01747206649153248	0.002168833164376227
2
219800
Ar	7.101449830760249e-05	-0.00018675283592267493	0.0031752624617738404	0.003955076402762209	0.024879550103712438	-0.0001718447127832164
Ar	6.530365933060248e-06	-0.0001675930590420011	0.0027895890811798956	4.061176046925196e-05	-0.011976627432691723	-7.452473787958193e-05
2
220000
Ar	9.305636950583977e-05	9.244768651035348e-05	0.0031954092036350383	0.00012943627323194605	0.02869248010897915	0.0029911481165027544
Ar	3.666374497876543e-06	-0.0002382001172427838	0.0027718129083712695	-0.0004805256788609521	-0.0015282073604173962	-0.002426615252434468
2
220200
Ar	7.11012133353779e-05	0.00033299257929106916	0.003215990817411208	-0.004331885346471514	0.017012852656342475	0.000648396514215795
Ar	-6.983553872377816e-07	-0.0001926472477963539	0.002756043604824235	-0.00035275436251339353	0.010292773603238206	-0.00039094402849817285
2
220400
Ar	1.431821386962111e-05	0.0004022739190114494	0.0032063007243207705	-0.006478113807265665	-0.0036367609738117606	-0.0023866761763290745
Ar	-3.0299927542629376e-06	-4.989215515574466e-05	0.0027653844039332593	-0.0001311085896124603	0.017035855322482203	0.0020999605950882466
2
220600
Ar	-4.736612213326066e-05	0.00027254048028977143	0.0031798118746978795	-0.005378704131507374	-0.020817551189310946	-0.0018582778303828412
Ar	-3.3538060083103268e-06	0.00011794244932788123	0.0027889147153818813	0.0001004603433185937	0.014862237346251887	0.0017680822679959985
2
220800
Ar	-8.775922870577707e-05	1.6457426403583715e-05	0.003187322089444163	-0.0023945365970291497	-0.02888677935546219	0.00294064743241025
Ar	4.6174338109058513e-07	0.00022370038031189785	0.0027847359666640812	0.0006041461271086394	0.005753807590269305	-0.0022649065954576915
2
221000
Ar	-8.898325575355547e-05	-0.00025662146658942216	0.003215588397696119	0.00225952172317534	-0.02297774276883727	0.0018619570934060637
Ar	5.4352132074866715e-06	0.000221979065434529	0.002762734742593902	0.0003009036149225838	-0.006261688080283524	-0.001516525959840722
2
221200
Ar	-4.616425117635787e-05	-0.0003995993361312046	0.003216785943351169	0.005866509075547304	-0.0043588328540151286	-0.0016478803062748531
Ar	6.003029864530781e-06	0.00010865475118474455	0.002759964053299362	-0.00016911638856379057	-0.015409742191607618	0.0010144313467000564
2
221400
Ar	1.7982080611236597e-05	-0.00033983575733200226	0.0031894922212816748	0.006385719583373816	0.015397632123984829	-0.0031152885251563007
Ar	3.046960661803957e-06	-6.035110029871765e-05	0.0027786546780259476	-0.0004004581954974666	-0.016837142096615975	0.0022282534735935827
2
221600
Ar	7.259612092169557e-05	-0.00012100153394116025	0.003176424402655331	0.004258270266051747	0.02693423297960158	0.0013099071898359468
Ar	-1.9475999103106515e-06	-0.0001966444139873277	0.0027872303311688926	-0.0006735237220629612	-0.009467694563575251	-0.0012082948316476147
2
221800
Ar	9.628352407526987e-05	0.0001623603936448385	0.0032023432317311706	0.00012396307509373613	0.027071535384044276	0.0026929613616496276
Ar	-8.380957052087926e-06	-0.00023764920324338064	0.00276630713565607	-0.0004246534686323068	0.001798458120174054	-0.002003272116735594
2
222000
Ar	7.341895182709646e-05	0.0003682720084808569	0.0032162248645804473	-0.004505326141751304	0.012115078704412573	-0.00020304098876301526
Ar	-9.224008502576092e-06	-0.00016157726217036546	0.0027576043433803084	0.00025167924668765645	0.01276685346650018	0.0004408379480889385
2
222200
Ar	1.4737970067718192e-05	0.00038503836207902094	0.0031997123034543766	-0.006702121410033465	-0.008667693691395814	-0.00272932850358478
Ar	-4.4868387114627895e-06	-3.7447193629630697e-06	0.0027738023360365342	0.0006309732267052367	0.017420243010867816	0.002502374958765655
2
222400
Ar	-4.921267235149724e-05	0.00021634163676514118	0.0031777220777134936	-0.00569162692209216	-0.023488339225941533	-0.0004508713199462023
Ar	2.525213934207679e-06	0.00015488946246030444	0.0027943411769231013	0.0007884319541166156	0.012713548069610696	0.0005883724148379359
2
222600
Ar	-9.271107857437896e-05	-5.565507638966888e-05	0.0031972577552809274	-0.0025287476893565194	-0.028886370253222805	0.0032269205816050773
Ar	1.1166784892980841e-05	0.0002346984133357157	0.0027791833412343023	0.0007526948344473778	0.00268082856482122	-0.0026224386537074865
2
222800
Ar	-9.297464326474776e-05	-0.00030790383143170197	0.003220786322850245	0.0025279521376754227	-0.019032799672932494	0.0009130392455381589
Ar	1.4105033209396168e-05	0.00020055317297203268	0.0027587972639101267	-0.0001751902037274508	-0.009246409939774788	-0.0010116819621631854
2
223000
Ar	-4.667950888631392e-05	-0.00040167039013668557	0.003212131524489754	0.006264270558782895	0.0010095952139285171	-0.002478280685150084
Ar	7.950303596845392e-06	6.487543928063359e-05	0.0027619566753065298	-0.0009750834646031142	-0.016697636115406582	0.001556616269133082
2
223200
Ar	2.0913543388811687e-05	-0.00029480970761931627	0.003181784444059033	0.006696245636647081	0.019033890824837564	-0.0026421136514905162
Ar	-3.1985839938427745e-06	-0.00010466323072173971	0.0027826903834573076	-0.0011468960535077565	-0.015531199068543874	0.0018732443332603152
2
223400
Ar	7.896086371835277e-05	-5.1065209411216815e-05	0.0031800482709854107	0.00454595388294234	0.028309867230201124	0.002275453783927296
Ar	-1.4246830719565511e-05	-0.00021921019884391758	0.0027821462016554164	-0.0010357110224397796	-0.006764683496818639	-0.0019406942551869076
2
223600
Ar	0.00010285530195203178	0.00022654361544095206	0.003206848813350912	-0.00011718940195157946	0.02441475613368639	0.0021461623939765567
Ar	-2.0027708871097468e-05	-0.00022898834588949596	0.0027618561215778754	1.7025236396504616e-05	0.005093872805830534	-0.0014077450989226563
2
223800
Ar	7.610676891847237e-05	0.0003908332212716988	0.0032133677752978875	-0.005000044394930882	0.006933961851958443	-0.0009294694795317349
Ar	-1.4006070510991771e-05	-0.00012487302389247796	0.002760154326801993	0.0011311219823505639	0.014824996358496538	0.0011137991230236617
2
224000
Ar	1.233994418713287e-05	0.0003558839605607498	0.0031926202753195746	-0.007138908067902923	-0.013284852975579353	-0.0026672199738875775
Ar	1.669255458992823e-07	4.2787892548200864e-05	0.002780783879380975	0.001538757480147205	0.017181307750445334	0.0025451540212201628
2
224200
Ar	-5.580655003588433e-05	0.00015314530958048374	0.0031801643513679283	-0.00613447363511878	-0.025802764620794477	0.0011475323459181536
Ar	1.4372946800203513e-05	0.00018632488571980935	0.0027937638878851177	0.0013087188608108804	0.01037039273051971	-0.0008567873809525203
2
224400
Ar	-0.00010160795683920469	-0.00012726195455271857	0.0032064968740485793	-0.0024635498786074756	-0.02775583354832538	0.002848206878911604
Ar	2.410736879004117e-05	0.00023826005752156595	0.0027713751273654888	0.00041678094257692315	-0.0006085041669644022	-0.002535917943084236
2
224600
Ar	-9.864414975316413e-05	-0.00034893398639523497	0.003221348876755254	0.003066814392261601	-0.014388790550893782	-0.00022619808590740016
Ar	2.0814965430531655e-05	0.00017271022655565246	0.0027558639739173763	-0.0010658779163689625	-0.011908610473617283	-0.00028849924930126
2
224800
Ar	-4.632508100123943e-05	-0.0003906363047555036	0.003202719721355137	0.006876287502188575	0.0062262809665906615	-0.0031458247645724958
Ar	5.33190251006575e-06	1.9863551287046045e-05	0.0027664603732687363	-0.0018690811386659308	-0.017339031549884865	0.0021674150105104096
2
225000
Ar	2.6631941627363318e-05	-0.00024150147367829494	0.0031741784572449426	0.007171815885259866	0.02203001087009506	-0.0013710923437142083
Ar	-1.2826159892097941e-05	-0.0001429339625508347	0.0027878816393842776	-0.0016484842040871432	-0.013560540942725812	0.001122508256494963
2
225200
Ar	8.909859948656603e-05	2.1576870770624417e-05	0.0031876435931167545	0.004821575371883752	0.028817514276403354	0.003157556324601411
Ar	-2.68322160222967e-05	-0.00023230378832740547	0.0027779810736912767	-0.000981312026986044	-0.003795967109823848	-0.0023368089326814175
2
225400
Ar	0.00011196121857462446	0.00028278383033181393	0.003214731825010571	-0.000555972906336593	0.020793211964927442	0.0015671786145519844
Ar	-2.8246613127345356e-05	-0.00020995294279586843	0.002759343648273819	0.0007347022166820056	0.008189381843154396	-0.0009331818967966784
2
225600
Ar	7.862740618384797e-05	0.0003989823710458525	0.003213321214720827	-0.005751622262231825	0.0014635170354286259	-0.0017782812337589385
Ar	-1.351649019335286e-05	-8.204142591088719e-05	0.0027631160932429163	0.0020417444961290296	0.016301838832435554	0.0016078432457791638
2
225800
Ar	7.666815397175355e-06	0.0003143382728422147	0.0031874739614564662	-0.007790167707701001	-0.017261142502839145	-0.0025536560275823896
Ar	8.542882073111969e-06	8.820417845570616e-05	0.0027854010487264056	0.0021576754924187767	0.016122871707802265	0.0021593140742402236
2
226000
Ar	-6.671783470401112e-05	8.375732578582654e-05	0.0031836515885575864	-0.006718771790074981	-0.027518362035559303	0.0021174656368378323
Ar	2.6860073651988104e-05	0.00021102877244962392	0.002788515993721335	0.001461155980571349	0.007760758418144627	-0.0018336133490135242
2
226200
Ar	-0.00011423202952939981	-0.00019510647139954005	0.003210055364681864	-0.002191692987902078	-0.025480674095517748	0.0021183357758744396
Ar	3.390677826510797e-05	0.00023208917564787536	0.0027655397170540303	-0.0002475744621885512	-0.0039312015792183335	-0.0019096794100632506
2
226400
Ar	-0.00010533986615649131	-0.00037730452578065075	0.00321567150422834	0.003873760529395475	-0.00923565180002776	-0.001101492912019938
Ar	2.2163452392738618e-05	0.0001376359090332109	0.002758424046757067	-0.0019866393185192337	-0.014126737686904263	0.0006347227603162437
2
226600
Ar	-4.450078372208395e-05	-0.00036583941034913886	0.0031918267709457443	0.007672593446733292	0.011102747979854189	-0.0031064109539225677
Ar	-1.9609260493459593e-06	-2.666810962894705e-05	0.0027753030379669497	-0.0025747696715117895	-0.017271832558064474	0.0023617504361546746
2
226800
Ar	3.54927162350096e-05	-0.0001804970467815847	0.0031731064620207933	0.007853267209198917	0.02447755443279049	0.000508325138413839
Ar	-2.4893914605468757e-05	-0.00017529249277193858	0.0027903251863346055	-0.0019065543076689899	-0.011127500523168047	-0.0003925616671307971
2
227000
Ar	0.00010264120040054046	9.385175239528099e-05	0.003198650789019876	0.004858696490913342	0.028051318686066546	0.0033021137525449593
Ar	-3.8004539563034914e-05	-0.00023697992794859165	0.002770369611191499	-0.00045004587004638036	-0.0006034811985046437	-0.0024858270871194466
2
227200
Ar	0.00012168819243527291	0.00032701246978329403	0.0032204378226780854	-0.0012755396910558677	0.016293419401869732	0.00061347455981467
Ar	-3.1317095086742095e-05	-0.00018316432867715302	0.002755024010899525	0.001711579699404002	0.010944130167698784	-0.0002731168801630864
2
227400
Ar	7.955553018814409e-05	0.00039115049623584413	0.0032089675184459286	-0.006705648526741271	-0.0038751520542228248	-0.002608712407781952
Ar	-7.040488762092264e-06	-3.6576027210190844e-05	0.0027657199641854748	0.002913220458686071	0.01712660850052091	0.002224158714899866
2
227600
Ar	1.4826632276196028e-07	0.00026234775744258073	0.0031809104432474686	-0.008525216870762468	-0.0204355264853273	-0.0018726748518607347
Ar	2.1116099784996745e-05	0.0001289618673652921	0.0027894479184420035	0.0024620670979742095	0.014316920807551979	0.0015911351691122678
2
227800
Ar	-8.06360231395912e-05	1.089857409206681e-05	0.003187954436707703	-0.007042003956309267	-0.028320921953246404	0.0026919300638170228
Ar	4.0183148930765904e-05	0.0002278091431186857	0.002783436432076909	0.0012089754573301427	0.004954646041988699	-0.0022607565530259476
2
228000
Ar	-0.00012665944608383076	-0.0002550061079003533	0.0032123221489480914	-0.0016275541932794589	-0.02221743045937298	0.0014403487366962254
Ar	4.083259381742888e-05	0.00021760323316778358	0.0027629967312716194	-0.001139420736722366	-0.007057341322611419	-0.0012577089095762823
2
228200
Ar	-0.00010947049398500972	-0.0003912608366098587	0.0032107136400267456	0.004878458618426907	-0.0038625234930100985	-0.0017271942581387843
Ar	1.9403395229169637e-05	9.840372749791584e-05	0.002762818661001515	-0.002942868157018243	-0.015728238960407627	0.0011942483862006422
2
228400
Ar	-3.876431406290076e-05	-0.00032972415487345964	0.0031851594460864585	0.008588189169849405	0.015250942736596499	-0.0026479414084462556
Ar	-1.2723123222606508e-05	-7.052667420461538e-05	0.0027823168268759605	-0.0031715275299569424	-0.01646366130949296	0.002157515502898372
2
228600
Ar	4.9667278346182424e-05	-0.00011515429753513759	0.0031791903065937826	0.008607402272457366	0.026381202376940308	0.002060045514376069
Ar	-3.9150348102004784e-05	-0.00020033031868754782	0.0027876878034384244	-0.002037478545562063	-0.008660461814212657	-0.0016440668211940798
2
228800
Ar	0.00011933238110731175	0.00016128329695433845	0.003209472998659668	0.0045479700799058225	0.026224055809863818	0.002804206432034013
Ar	-4.8903949655612824e-05	-0.00023282602694069042	0.0027640001588959836	0.00031077742027592483	0.0026809807790461847	-0.002134907889564619
2
229000
Ar	0.00013048762334888516	0.0003593161007674459	0.0032218145290731845	-0.002411000395351634	0.011484771702722975	-0.0005645221600308098
Ar	-3.2674266517064466e-05	-0.00014963218127015938	0.0027551219645637393	0.002768372040338925	0.013239522243239363	0.0004840378938241146
2
229200
Ar	7.598467462072148e-05	0.00037225634763404536	0.0032004843818576444	-0.007917641416956207	-0.008734054448157159	-0.003233575304547972
Ar	1.6938170359990424e-06	9.72840684663004e-06	0.0027720230228145287	0.0037746792754783623	0.01726874775079509	0.00255378235059198
2
229400
Ar	-1.3536671722056388e-05	0.00020613059742303274	0.0031753510551906705	-0.009393476233153841	-0.022987747379217438	-0.0005317574364554675
Ar	3.5555172001360014e-05	0.00016341160380933012	0.0027921838638665856	0.002760002712133843	0.011967647827150055	0.00041742736943876853
2
229600
Ar	-0.00010072522085331277	-5.954441041323688e-05	0.003193781973017958	-0.0072163449466641485	-0.028105877044597924	0.003013177608382988
Ar	5.4151128163544593e-05	0.00023456447380451568	0.0027768286891072503	0.0006903270746920386	0.0017373133057444236	-0.002425485241072544
2
229800
Ar	-0.00014202782083255736	-0.0003031117948996833	0.0032156047458170175	-0.0006049667733097099	-0.01817218716108596	0.0008377072431570165
Ar	4.620043987708459e-05	0.00019232237493548455	0.0027595084500705064	-0.0022087567658168124	-0.00985852985685958	-0.000677518147471107
2
230000
Ar	-0.00011152516227428517	-0.0003901220362294428	0.003207707607836036	0.006374224948809598	0.0014186625385005684	-0.00223518678580176
Ar	1.3608287824294432e-05	5.3989650868320836e-05	0.0027655174062329677	-0.004007226800060045	-0.016649782574084775	0.0017359088163219774
2
230200
Ar	-2.710605338012073e-05	-0.0002828173579185745	0.0031815397053838136	0.00973049756607137	0.018718117503114085	-0.0020012359008041466
Ar	-2.6259156254795538e-05	-0.00011196179520365849	0.0027865411821711918	-0.0035895029904809096	-0.014875858338061846	0.0016479103547089727
2
230400
Ar	7.079604529254804e-05	-4.4036180305002594e-05	0.0031864493460937054	0.00920681355804477	0.02764314116815272	0.0026682683589734977
Ar	-5.402455632020084e-05	-0.0002187882235545316	0.0027826314247697743	-0.0018104801333699346	-0.0059498819010618915	-0.0021805236904963677
2
230600
Ar	0.00013952634580807844	0.00022441288597565396	0.003212855336266553	0.003764920373046327	0.02336186631402893	0.001749229242455251
Ar	-5.694344199041899e-05	-0.00022036678882645912	0.0027613497106278567	0.0013202054323700157	0.005782799407847772	-0.0013930931625840632
2
230800
Ar	0.00013822621570868553	0.0003792148041862395	0.003213850041065645	-0.003981598145895757	0.006182422975786947	-0.0015847471811478238
Ar	-2.9770531868316294e-05	-0.00011211908281759524	0.0027602916116420493	0.003865635553253184	0.01492612729409855	0.001233670143236884
2
231000
Ar	6.833680514237812e-05	0.0003407418814306663	0.0031876666220064563	-0.009288440125124165	-0.01316580985492543	-0.0029903445973241353
Ar	1.3249272014707213e-05	5.304716122040927e-05	0.0027814783910080163	0.004337976454078848	0.016583922696987323	0.0025212882167742713
2
231200
Ar	-3.282923098023087e-05	0.00014276744271059168	0.003175893601511645	-0.01037021884697457	-0.02509165398325116	0.0015642834105237839
Ar	4.949642926734383e-05	0.00018794339715277387	0.0027925232397810586	0.0027748299311166763	0.009408717166288149	-0.001138590622173994
2
231400
Ar	-0.00012368622407988162	-0.00012833098399835525	0.0032058407896711502	-0.0068471627289712535	-0.026627671154407	0.003125469569836406
Ar	6.456305681736589e-05	0.00023079432148004293	0.0027693976771411785	-9.542351721183533e-05	-0.0013900380836730003	-0.0024162806477346804
2
231600
Ar	-0.0001551189182903356	-0.0003389364108699806	0.003222540999483715	0.0008793875118978411	-0.01342211075489025	-8.878070737904058e-05
Ar	4.650475221293615e-05	0.00016039589646385971	0.002755751989830025	-0.003327313523504751	-0.012094463080755902	-0.00010003942103339029
2
231800
Ar	-0.00010813480002695854	-0.0003743049313176248	0.00320480222483434	0.007997256524323542	0.00644655082709183	-0.00305879086669994
Ar	3.761163272704048e-06	8.682437142494221e-06	0.00276747445281345	-0.004848248089715108	-0.016934050934658766	0.002176456941198702
2
232000
Ar	-1.0103221247350798e-05	-0.00022735915159616745	0.00317726917448009	0.01081723711407854	0.021457746390481886	-0.0012136910705278575
Ar	-4.155787802989846e-05	-0.00014759423646743808	0.0027877074532561743	-0.0038051913361824424	-0.012720290116066787	0.0008688461578698949
2
232200
Ar	9.557758617166229e-05	2.776556012341128e-05	0.00318978740963861	0.009440553465946416	0.027735457150180297	0.002754297504588368
Ar	-6.823441765662074e-05	-0.00022871161884701247	0.0027767075331387478	-0.001235339741114098	-0.002970627264200269	-0.0022002056150145534
2
232400
Ar	0.00015923013646481398	0.00027684441817169334	0.003211528374114518	0.0025780830067905444	0.019575628728381568	0.001013831604992586
Ar	-6.205457645973227e-05	-0.00019964440801280447	0.002760770282829104	0.0024595418425263867	0.008580910439341899	-0.0005795703028730998
2
232600
Ar	0.0001424052997667439	0.00038351716329769307	0.0032061329677016566	-0.005741666733719695	0.0008824870012608927	-0.0019548197936972967
Ar	-2.327020592640235e-05	-7.10636678860128e-05	0.002767647867459399	0.004961331406466811	0.0160241324853547	0.0018601023157737058
2
232800
Ar	5.637896786340453e-05	0.000298189895702109	0.0031817083825902	-0.01064050680711184	-0.016808240434219402	-0.0020496316750805085
Ar	2.7874591599823533e-05	9.358274496807961e-05	0.0027904758132690248	0.004762735036368455	0.015259297985850096	0.001977836986564899
2
233000
Ar	-5.595044809235587e-05	7.53220199592414e-05	0.0031858431738097767	-0.011204557635657218	-0.02652180348855201	0.0028634375828648032
Ar	6.506387593725305e-05	0.00020714736257936326	0.0027888837157602113	0.002525065038563852	0.006882184916246106	-0.0023354568692080684
2
233200
Ar	-0.00014790044902934725	-0.00019136495937728163	0.0032166390369522927	-0.006150853933215308	-0.024161614665993612	0.0022743068377590755
Ar	7.23394315284243e-05	0.00022070018256660387	0.0027628516725219663	-0.0012705200640395467	-0.004470244168951886	-0.002086686633208007
2
233400
Ar	-0.00016621652912553138	-0.0003618262480525732	0.003221384599380731	0.002635365772716084	-0.008355050346524654	-0.0014195170750734112
Ar	4.140028711498871e-05	0.00012408358352166337	0.00275494278243773	-0.00463288959579181	-0.013997224504114138	0.0005915611205196429
2
233600
Ar	-0.00010107134607682342	-0.0003464453178459515	0.003193405205606721	0.009706714534882303	0.011000427816031836	-0.0035249922095117437
Ar	-1.1898871627373244e-05	-3.606987518498979e-05	0.0027723082389229233	-0.0055360236003697	-0.01661364536161334	0.0024549952379874277
2
233800
Ar	1.11689558271425e-05	-0.0001665495202842714	0.0031721446358205395	0.012025708474461475	0.023592943837651526	0.00042085742118948256
Ar	-5.9277247281537764e-05	-0.00017655070594306858	0.002787722007424716	-0.0036506926685220304	-0.0102805590058623	-0.0003770577705419962
2
234000
Ar	0.00012358856539439598	9.627551423599761e-05	0.0031956809432060976	0.009310563078873816	0.026670992344163993	0.0029959980249311727
Ar	-8.042750002677145e-05	-0.00022998556347183897	0.0027701836175203385	-0.0002083450968749396	0.00015950325968084607	-0.002053662038873571
2
234200
Ar	0.00017776808437108756	0.0003159299809108722	0.0032149028962659486	0.0009695953821706435	0.015114922537452516	0.00045862216654733745
Ar	-6.13245703822151e-05	-0.00017114811532036733	0.0027597829633329214	0.0038500213336083804	0.011099684923402098	0.000199908346973614
2
234400
Ar	0.00014163794763553838	0.0003721370574471296	0.003204051587081493	-0.007765057175927246	-0.004194419029732152	-0.0023698963058008324
Ar	-1.0375618852294108e-05	-2.645573237335564e-05	0.002773632483857044	0.005870560879414946	0.016598208168036033	0.002348684246573356
2
234600
Ar	3.788102683339872e-05	0.0002457927540871973	0.0031811220408911336	-0.012091284386806163	-0.019647273502409603	-0.0010547254972285856
Ar	4.559626127983304e-05	0.00013087186870913828	0.0027956401024019826	0.004801736676181123	0.013291419051895953	0.001080336123106267
2
234800
Ar	-8.549473020275528e-05	5.272873600493542e-06	0.0031955386189763835	-0.011662650221016077	-0.02691659547693447	0.0030587018913183963
Ar	8.033640407763532e-05	0.00022007914379040849	0.0027831947937788717	0.001872272178644899	0.004032857075114944	-0.0027923747918855717
2
235000
Ar	-0.00017232914343700924	-0.0002451785201152298	0.003219669041869886	-0.004765075647765068	-0.02067636235060186	0.0011205933732235818
Ar	7.692078813400923e-05	0.00020269246314758645	0.002759105565179194	-0.0025742057300488074	-0.007455641087047873	-0.0014792498886536957
2
235200
Ar	-0.00017170735092165534	-0.0003694800835801943	0.003212689991899704	0.004834672593282286	-0.0031035240526764564	-0.0024118216777290974
Ar	3.3210731134040696e-05	8.344278102983926e-05	0.002758164381815818	-0.005764058564666204	-0.015365964425456898	0.001261010904080722
2
235400
Ar	-8.614356067432807e-05	-0.0003065117238762064	0.0031809726373735747	0.011391780294160953	0.014783007761689912	-0.0030482670687443903
Ar	-2.8088219083358984e-05	-7.861562200829386e-05	0.002778970273689482	-0.005878471985113503	-0.0154699238800598	0.0022711237935345973
2
235600
Ar	3.928043120954202e-05	-0.00010095983686794042	0.003174701918890855	0.013002128557556199	0.025134846436964963	0.00223140990679764
Ar	-7.491303087907143e-05	-0.00019747727786200003	0.0027846668808407383	-0.0032847364118813132	-0.007596932211580633	-0.0015235957855727082
2
235800
Ar	0.0001526677493444793	0.00016008794013369163	0.0032058190467433465	0.008439296155312255	0.024513541761841194	0.0028703211277858838
Ar	-8.763400717586413e-05	-0.00022065013475135926	0.0027645606585910065	0.0010104844926776598	0.0033591227745945035	-0.0016260313561051115
2
236000
Ar	0.00019047270056748078	0.00034231595304767414	0.003219342724058353	-0.0012057337970903174	0.010198764765767747	-0.000382075957156051
Ar	-5.5453745556449727e-05	-0.00013467999422836087	0.0027601696063171565	0.005113068897822849	0.013070453894930771	0.0008347895931481417
2
236200
Ar	0.000132143174352967	0.0003480768382528435	0.003200670386202722	-0.009820318135276075	-0.00882356997842716	-0.002877860514198062
Ar	5.665818987502002e-06	1.935730399964999e-05	0.0027786979900284816	0.006541553818562294	0.01639830063915846	0.0024943588042902268
2
236400
Ar	1.2212539717210268e-05	0.0001870829517670743	0.003180500554621974	-0.013321764045495912	-0.021986814075089876	2.5109058520346036e-05
Ar	6.346563307230144e-05	0.0001625675205818188	0.002795084343496145	0.004594599814369485	0.010901585897629754	-0.00026701091455824455
2
236600
Ar	-0.00011773047583670759	-6.507922661804961e-05	0.0032001943170483537	-0.011444670926779645	-0.026344426690734456	0.002683610467964464
Ar	9.239213638496344e-05	0.00022411264098960094	0.002774865867022952	0.0007896918471417213	0.0008749119136085609	-0.00267311907177593
2
236800
Ar	-0.00019343083355891655	-0.00029009069409653617	0.0032161401870431944	-0.0029209102760562747	-0.016469979314183328	0.00010294613943732396
Ar	7.557124039723554e-05	0.00017616012531804454	0.0027569393904207013	-0.00400203144476656	-0.010054863396432445	-0.0005681786110504567
2
237000
Ar	-0.00017105331425694442	-0.00036522711501777317	0.0032013019888573334	0.007115897493953781	0.0020010890041709294	-0.002795346514604378
Ar	1.9431381823946593e-05	4.010894960047801e-05	0.0027648220744776347	-0.0067229451529603555	-0.015996940112016075	0.0019626396312109767
2
237200
Ar	-6.574590016856047e-05	-0.00025951770417755477	0.0031737262821074056	0.012934850735137747	0.017831703852177506	-0.001605099302826173
Ar	-4.695062333089031e-05	-0.00011539831323503822	0.0027870497421705414	-0.005895051434416084	-0.01355218617269208	0.0015698292770815756
2
237400
Ar	7.110800110789485e-05	-3.400818094442949e-05	0.0031860615807720078	0.013536175537026468	0.02595409436793592	0.0034300297640837496
Ar	-9.09185058999541e-05	-0.00020976078910051307	0.002780934504526071	-0.002630337651252779	-0.0048573367576881	-0.0022969398643498205
2
237600
Ar	0.00017969373975675306	0.00021573598770131683	0.003217966652035048	0.0069852788349160505	0.021478590185172064	0.0020751906252711827
Ar	-9.204032073784071e-05	-0.00020323552522721872	0.002760358423064769	0.0025196990809451493	0.006235900001822498	-0.0012324282532167206
2
237800
Ar	0.00019733435604687874	0.0003549437020675799	0.003220085168001062	-0.003577103904068631	0.005128409107416823	-0.0016482963301855853
Ar	-4.519496736000187e-05	-9.519130921390756e-05	0.002761125398218109	0.006437368859624037	0.014424744636465347	0.0013573088172401037
2
238000
Ar	0.00011644881963718503	0.0003132153246528022	0.0031917552827499377	-0.011739051447425231	-0.012748292916149278	-0.003252888387044982
Ar	2.5399974314649117e-05	6.120734066259671e-05	0.002782888802246737	0.007013900012597717	0.015404779198176574	0.0024112747930810615
2
238200
Ar	-1.820088390190671e-05	0.00012509419785479547	0.0031778873080527963	-0.014425319439018978	-0.023690515980411435	0.001272817796506158
Ar	8.29632908038012e-05	0.00018362866374319913	0.0027909655909019644	0.0042114576635255	0.00824742021254476	-0.0014501638580040855
2
238400
Ar	-0.000150983698039405	-0.00012866180392444662	0.0032024226377067705	-0.010702621559893018	-0.024644079177651636	0.0024863776047603123
Ar	0.00010306731503083838	0.00021664601211905806	0.002767685090244487	-0.0005676409127573984	-0.002117444975398325	-0.0022212506316757062
2
238600
Ar	-0.00021032155290725196	-0.0003207434455572734	0.003214136465274696	-0.0006000536443466077	-0.011908765365399693	-0.00038599297977743376
Ar	7.114949047715785e-05	0.00014295921626847636	0.0027567879029962265	-0.0055271836129033875	-0.011962069260033814	0.0002235367637662209
2
238800
Ar	-0.00016300268362023535	-0.00034739452803082414	0.003196563258762314	0.00951093302239075	0.006603012322258057	-0.0027056453160374102
Ar	2.1264487925366518e-06	-2.7626818334329155e-06	0.002771158606082107	-0.00764580340964926	-0.015919248364887277	0.0023570502923431114
2
239000
Ar	-3.8545067436041476e-05	-0.00020628900673433205	0.003176737163804812	0.014400912832576341	0.02025507363448841	-9.25700234741323e-05
Ar	-6.768049951234508e-05	-0.00014598188622789212	0.0027904222330867503	-0.005724782719771426	-0.011314007945137268	0.00044427718154757187
2
239200
Ar	0.00010766269029499047	3.256874153509576e-05	0.0031983178830974754	0.013605593766820816	0.025711883528898288	0.0032133540847791697
Ar	-0.00010568530142820315	-0.0002147060879026961	0.002775977738879103	-0.0014619604536052569	-0.0019395231602957076	-0.0023255335679303437
2
239400
Ar	0.0002060167669717181	0.00026111565471526396	0.0032207778550562647	0.005057324749325631	0.01770108612237573	0.0007375384365007971
Ar	-9.1899278058173e-05	-0.00017918001856026322	0.0027602043549636314	0.004138413077417247	0.008783864648248827	-0.0005124909547685585
2
239600
Ar	0.00019940442665561324	0.00035459174799873903	0.003210345408665565	-0.006210392211047422	0.0002450640021565961	-0.0026299533460502284
Ar	-3.0321630925466094e-05	-5.389512978010647e-05	0.002767642251557109	0.007632721541293756	0.015181080546171368	0.0018652947631645294
2
239800
Ar	9.527030924489182e-05	0.00027105034860843655	0.003179465515256858	-0.01356582629808079	-0.01585453617581333	-0.0025028761283334704
Ar	4.735490317465819e-05	9.854863705008698e-05	0.0027893964551636203	0.007095444609592597	0.013769558694713465	0.0016829473207224113
2
240000
Ar	-5.323291692099754e-05	6.27380100671988e-05	0.0031816916703365844	-0.015298023740895839	-0.024630899931895885	0.0027485312368294287
Ar	0.00010132111462872391	0.00019773968827807115	0.0027840915784820806	0.0034371373143925457	0.005579822989031153	-0.002525071655737603
2
240200
Ar	-0.0001834031101052024	-0.0001823580160252828	0.0032108654544358984	-0.009341517453006347	-0.021936771302766854	0.0021600989321582955
Ar	0.00010822707746851098	0.0002013821339305007	0.0027588509187985192	-0.0022494557527451015	-0.005037714667111271	-0.0018024297780230623
2
240400
Ar	-0.0002216937302175539	-0.00033489492904080064	0.0032162058627443597	0.0020172800187370442	-0.007168157225323853	-0.0011558999406894614
Ar	5.9774742002286525e-05	0.00010467656582316364	0.0027550975053374505	-0.007018070717309151	-0.013455767778789677	0.0010851369966518466
2
240600
Ar	-0.0001487372926682743	-0.0003158659552505171	0.00319261208673273	0.011757812045492888	0.01051723248291682	-0.002933784161193678
Ar	-1.9976497167481273e-05	-4.5605986763173465e-05	0.002776401474838818	-0.008197224884350669	-0.015236303516168174	0.0026824867387148245
2
240800
Ar	-6.909331073983064e-06	-0.00014723505783137764	0.003178462239530069	0.015727991149132866	0.021995670965303058	0.0010983073933742398
Ar	-8.925000056598595e-05	-0.00017101370835242717	0.002791148740244783	-0.005229196478244375	-0.00881855837613755	-0.0006252394186970916
2
241000
Ar	0.00014412466474211224	9.605882482647205e-05	0.003203712156910673	0.012968018637139346	0.024442584507563748	0.0026994352839355266
Ar	-0.00011737952735795806	-0.00021214466295759238	0.0027726449084985666	4.8940489821500955e-05	0.0010733124852098472	-0.0020545167842851058
2
241200
Ar	0.00022613484957000542	0.0002948960950828331	0.00321744753608839	0.0026418180489180955	0.013383130149047273	-0.00025102445681319716
Ar	-8.682047339775201e-05	-0.00014944791203045328	0.0027613856963173383	0.005806239134500814	0.010910905008625155	1.9997774299791495e-05
2
241400
Ar	0.00019302908518158035	0.0003412647227020294	0.0031997692870739318	-0.008815811996655702	-0.004342569189468739	-0.0029445875918681047
Ar	-1.1333937691882342e-05	-1.213700009019949e-05	0.0027731858724119054	0.008594476395630908	0.015396517241354752	0.0021025061279638323
2
241600
Ar	6.779042848310598e-05	0.00022164853379518076	0.0031744992621389103	-0.01512609613541779	-0.018271885169523907	-0.0009027263717531571
Ar	6.910485517090475e-05	0.00013039022266584022	0.0027916186633389576	0.006734663720772006	0.011644257654920075	0.0005790320226020329
2
241800
Ar	-9.127977369619398e-05	-1.444378679599532e-06	0.0031921288452971637	-0.015482087175076296	-0.02481020339436726	0.0033685453228034686
Ar	0.00011580451775864374	0.00020487688764010554	0.002776039541987592	0.002223440455459854	0.0028238948386990342	-0.0027583152445993576
2
242000
Ar	-0.00021171675607531456	-0.00022989646390363268	0.0032189262639501525	-0.007329701195748303	-0.01857699732074943	0.001345076804242674
Ar	0.00010652726274920247	0.00018017912218437542	0.002754712665011703	-0.004054460547836242	-0.00761025653300659	-0.0010136257609465816
2
242200
Ar	-0.0002240991588935293	-0.0003391272687918126	0.003214402292015483	0.004893007293056076	-0.0023297187590450357	-0.0021260813611712072
Ar	4.181456557386615e-05	6.504664024917596e-05	0.0027589763518984867	-0.008307730932523048	-0.014441575065291616	0.0017693563347024868
2
242400
Ar	-0.00012521093853011683	-0.0002770745768261436	0.0031856877450124675	0.013833024313762205	0.013856746189196358	-0.002709041950173279
Ar	-4.505114227217191e-05	-8.414068144632971e-05	0.002783421151649506	-0.008226148936043134	-0.013919818333204721	0.0023972926005810962
2
242600
Ar	3.17519471651171e-05	-8.617841848341394e-05	0.0031822518582606068	0.016683619924631042	0.02322858161415567	0.0021818262718813143
Ar	-0.00010916426067375323	-0.00018851070503354467	0.0027879667704764533	-0.004288195622527006	-0.006364046458042649	-0.0016769437620205042
2
242800
Ar	0.00018104041074066177	0.00015269760718162858	0.0032084791020615816	0.01158537246106509	0.022199227223039016	0.0020772846077798915
Ar	-0.00012236941803571061	-0.00020206116805455675	0.0027675458808943203	0.0019423178328734643	0.003912317902599923	-0.0016222512349601632
2
243000
Ar	0.0002404787222818075	0.00031537878259085155	0.003213889732214096	-0.0002464382849506309	0.008827369374666189	-0.0011188115592483574
Ar	-7.320336504408999e-05	-0.00011587585985899667	0.0027630265333409357	0.007457129923969983	0.012556378006539425	0.0007782331814678293
2
243200
Ar	0.0001782409003701465	0.00031641423570444587	0.0031907347857709246	-0.011439132806838186	-0.00838373035475514	-0.0029477320041593285
Ar	1.3883438332744265e-05	2.8201560659188102e-05	0.0027802774785887787	0.009182805357437837	0.014981739704426287	0.0022718253754762537
2
243400
Ar	3.317151117156863e-05	0.00016778973403167326	0.00317537273891047	-0.016609344783130937	-0.02015395515900694	0.0009700266399788018
Ar	9.319890247308868e-05	0.00015526753347694182	0.0027921128571160533	0.0061329022485387755	0.009321655683163513	-0.0008761832139355298
2
243600
Ar	-0.000132935982269624	-6.248441934010933e-05	0.0032034224611692205	-0.015008360672176034	-0.023927717210004917	0.0032772484237290757
Ar	0.00012916055754510824	0.00020410940345383412	0.002768598359221566	0.0005437375193050706	-1.3406248574655278e-05	-0.0026989573158447927
2
243800
Ar	-0.00023679374498451855	-0.0002657006411358367	0.003223141111380107	-0.004717841918145407	-0.014722132307591358	0.00024137139233265564
Ar	0.00010067846550315076	0.00015292646172073107	0.002751919529719774	-0.005999283823971298	-0.009796921354951475	-0.00030705178583550385
2
244000
Ar	-0.00021955053563033414	-0.00033084529800861824	0.003207659338143571	0.007888265884130042	0.0021352320390706733	-0.003017771324918117
Ar	1.9781825345254772e-05	2.4575825250460237e-05	0.002763122315217765	-0.00945874473202216	-0.014784210781585422	0.002344675380697139
2
244200
Ar	-9.576324679994727e-05	-0.00023227173239389538	0.0031771213951802576	0.01568875984437723	0.016405032585303778	-0.0018928817749378375
Ar	-7.139408052316397e-05	-0.00011645478766459583	0.002788043485214608	-0.00786704388849165	-0.011975706493325236	0.0016701120075117053
2
244400
Ar	7.450806467935531e-05	-2.5247770498781965e-05	0.0031857790499600774	0.01722522664782418	0.023703336999408672	0.00288756247513042
Ar	-0.00012741256261722487	-0.00019681001368995746	0.0027825074340619344	-0.002971650749153006	-0.003692646698848296	-0.002115163456764928
2
244600
Ar	0.0002164272348583683	0.00020092238620486464	0.0032118417646810424	0.009632505623961335	0.01927287714259115	0.0015762683308624271
Ar	-0.00012287879279971735	-0.00018277572371728677	0.0027643859279108977	0.00391262340991519	0.006455430854303115	-0.0009925163163294274
2
244800
Ar	0.00024864404656421625	0.000324337930905524	0.0032111803480884674	-0.0034420474043141487	0.004319791809073945	-0.0016798161700798727
Ar	-5.581782793510378e-05	-7.802102521483718e-05	0.0027667542250218	0.00890164702743418	0.01353945694974084	0.0014105222787970204
2
245000
Ar	0.00015693488186744632	0.00028330962341955977	0.0031858421289744235	-0.01391379157190217	-0.011811195401991503	-0.0025728097288615433
Ar	4.000565262019981e-05	6.547717170318915e-05	0.0027869373196111285	0.009312057430787501	0.013802800846305606	0.0020244910205721722
2
245200
Ar	-7.161623687834476e-06	0.00011095421565917377	0.0031818586300164102	-0.017973233929115665	-0.021642535354918172	0.002238141103332489
Ar	0.00011432435550399618	0.00017229670622115152	0.0027889364781374616	0.00518435877631382	0.006892978637358974	-0.0020458556258050133
2
245400
Ar	-0.00017503516439865008	-0.00011939020375545139	0.0032113671842387338	-0.013847829011392625	-0.022189184882641672	0.002525191243993847
Ar	0.0001349796080649706	0.0001945166934874821	0.002762622916166089	-0.0014561549988856826	-0.002770445304640636	-0.0022833859925530378
2
245600
Ar	-0.00025673845829986004	-0.0002906910009770053	0.0032204276377224947	-0.0017250747479867004	-0.010456007318820345	-0.0008861530484712452
Ar	8.685380235619912e-05	0.00012042019838317525	0.0027524947339462647	-0.007725687883239531	-0.01140336971750017	0.0004048239144417181
2
245800
Ar	-0.00020780724209649765	-0.0003116094138691566	0.0031964992764732417	0.01088455873264755	0.0062267367221325	-0.0033586032710033248
Ar	-6.334562399007531e-06	-1.4753322681542423e-05	0.002769578781148604	-0.010098520653081776	-0.014452445750886788	0.0026623215169023166
2
246000
Ar	-6.074204443620916e-05	-0.0001824654477498833	0.003172755702585597	0.017438439561280356	0.01841490785623564	-0.00013547375605114703
Ar	-9.611286263680719e-05	-0.00014156250429028414	0.0027901450427380223	-0.007115529074859605	-0.00968915464755359	0.00035374116244717065
2
246200
Ar	0.00011965640716416605	3.4310370434699044e-05	0.003194593732026042	0.017030089640542173	0.023232569908324844	0.0032143083120628746
Ar	-0.0001406199003414161	-0.0001970215497450343	0.0027757131960211606	-0.0013006248171547321	-0.0009924972532298598	-0.0021832909181984457
2
246400
Ar	0.0002464463367316566	0.00023927369732851104	0.0032171487293525943	0.0070022935702867386	0.0157207842300577	0.0008000390051932104
Ar	-0.00011657479966864872	-0.00015724573137208914	0.0027614413050730388	0.005911620178741057	0.008607800357456277	-0.0003600923518186766
2
246600
Ar	0.0002473024112820779	0.00032040486496265493	0.0032081266807741783	-0.006738890605366089	-0.00013225491331600624	-0.002403070806459147
Ar	-3.2830203153970455e-05	-3.9203776863610744e-05	0.002769825395272503	0.010127435449807423	0.01400706464322184	0.0019224227867637824
2
246800
Ar	0.0001268363993999257	0.00024204916203703674	0.003181262956529089	-0.016132029088535428	-0.014535664343986576	-0.0019170880768243027
Ar	6.786151875720994e-05	9.828451050102654e-05	0.002790874037320514	0.009012419396411753	0.012102730597977665	0.001439592142886922
2
247000
Ar	-5.349209872675986e-05	5.18830443674757e-05	0.0031881201538907344	-0.01880444910311191	-0.022408991863004785	0.0028409994957142026
Ar	0.0001344205470627953	0.00018322834772349847	0.00278303082826526	0.003910837250358896	0.004444737232957538	-0.002578643930562083
2
247200
Ar	-0.00021569665714475322	-0.0001691133310966369	0.003214838157589028	-0.011883223800324288	-0.01957011327787287	0.0016744504213264573
Ar	0.00013699437935593432	0.0001795267704273256	0.0027589668698318353	-0.00353424654635157	-0.005241172408991027	-0.0016049677384402247
2
247400
Ar	-0.00026859315359861654	-0.0003032106926288352	0.003214191583951684	0.0017280991173210056	-0.006055401776785415	-0.0018048347315738676
Ar	6.934711259965346e-05	8.669245914765653e-05	0.0027569257370493373	-0.009375597797716184	-0.012531715325456792	0.0012038663912561111
2
247600
Ar	-0.00018640807542644178	-0.00028232402991706083	0.00318615606735603	0.013732937157731426	0.009730988247675026	-0.0030778375743373532
Ar	-3.441363784438538e-05	-5.029168288583045e-05	0.0027787175905389107	-0.01040806340074906	-0.01358325443217661	0.0026066747647396165
2
247800
Ar	-1.7746588711504648e-05	-0.00012938673202158636	0.0031751659940500035	0.019013652666725684	0.019840590164196818	0.001712765758102658
Ar	-0.00011982746938187926	-0.00015910363548087402	0.0027900260570396067	-0.006176325661829968	-0.007374414823173215	-0.0011061717278088262
2
248000
Ar	0.00016701980815373907	8.857394546633537e-05	0.003204895246229573	0.016049139518609132	0.02176006851095348	0.00296939418362124
Ar	-0.00014926886590884946	-0.00018932094979511548	0.0027692338668659205	0.0007644100232829681	0.0017125096031847102	-0.0020385520525004284
2
248200
Ar	0.0002710223113694315	0.0002644106143762418	0.0032203520618789747	0.0037632370182795034	0.011708342198006755	-0.00019332721984194714
Ar	-0.00010394150056270913	-0.00012647973693934828	0.0027595982205592252	0.007892700049695937	0.010333477783768169	0.00028003215521793333
2
248400
Ar	0.0002369404560668964	0.0003029052885690862	0.0032023446944401497	-0.01011133333416477	-0.004154296675579925	-0.0029787498295671005
Ar	-5.005114437687161e-06	1.3646335758634855e-07	0.0027737990446930296	0.011019812974348375	0.013900316621000832	0.0022717999586185874
2
248600
Ar	8.987650797528413e-05	0.00019400782622826498	0.0031775326997251535	-0.018052498489213156	-0.016514880358328116	-0.0007373897795459723
Ar	9.619947088114213e-05	0.00012612931380102702	0.0027923274257001525	0.008276419388971518	0.010007527919862653	0.0003391365759771468
2
248800
Ar	-0.00010247035739884245	-6.6657926012306635e-06	0.0031942614382444077	-0.01886605523947039	-0.02214392015082995	0.0029572689854547073
Ar	0.0001507050432086374	0.00018711748632755276	0.0027757045239020935	0.002131235285155894	0.0018097536341463688	-0.002645389931369248
2
249000
Ar	-0.0002507325790047307	-0.0002087083656441396	0.0032160066714289983	-0.009252174735646929	-0.01625721540265801	0.0008258983003771481
Ar	0.00013192924657795145	0.0001575460395323586	0.0027564999314644923	-0.005760599014526884	-0.007520333701666537	-0.0007952470083934703
2
249200
Ar	-0.00027073673911199154	-0.0003024175327716984	0.0032076154611697808	0.005328474374277243	-0.0017200290349210755	-0.002320953613999369
Ar	4.518954566715499e-05	4.91427922957883e-05	0.002762414517594626	-0.010798153215990654	-0.013239211700336224	0.0018658348026240402
2
249400
Ar	-0.0001568742949808689	-0.0002442072939899306	0.0031801381424545875	0.01621415126619265	0.0125212758390988	-0.0021914076285106695
Ar	-6.507891585163408e-05	-8.440025320237785e-05	0.002785823705892564	-0.01015673590805307	-0.012109633899733376	0.0020307806825858228
2
249600
Ar	3.0064513303107324e-05	-7.28642338665027e-05	0.0031839101955590684	0.02009775316502385	0.02081754309410162	0.0027966797682107145
Ar	-0.0001418923762534435	-0.0001720942310155889	0.002784931973818526	-0.004846324292747587	-0.004998173449522063	-0.0021050618284233448
2
249800
Ar	0.0002107183572231879	0.00013933578215929415	0.003213310322777571	0.014135463229262154	0.01952076974078558	0.002151567593580421
Ar	-0.00015187200788174563	-0.00017665263100939143	0.0027629226364793693	0.003101472035514879	0.004236950230073125	-0.0015791489631690506
2
250000
Ar	0.00028555167529176965	0.0002807813907487728	0.003217569180628817	0.000166366180858121	0.007487238052018313	-0.0013683137924771125
Ar	-8.449988024847123e-05	-9.37788988828183e-05	0.0027597964854620093	0.0097564495730635	0.011634193685890224	0.0010156226755593304
2
250200
Ar	0.00021608436398554988	0.00027797202758387304	0.0031915665603679893	-0.01321786758254786	-0.007747665644199652	-0.0032155924456640254
Ar	2.6635990816573615e-05	3.66300119005998e-05	0.0027793386182567064	0.011430462149929595	0.013274984712874518	0.0024501964131659897
2
250400
Ar	4.585271920751928e-05	0.0001437882417496181	0.0031753775606659725	-0.01973172259343394	-0.01809297768280557	0.0010358653205586725
Ar	0.0001229514523499385	0.0001463670886533523	0.00279144351372787	0.007179019475668024	0.007763116333417101	-0.0009674584497073893
2
250600
Ar	-0.0001527890125567236	-6.143448177613546e-05	0.0032018626667453475	-0.018053715727667768	-0.02112823203597778	0.0029869174830592835
Ar	0.00016132071893316992	0.0001830650628413375	0.0027690777566455353	-6.893119019829477e-05	-0.0007928635357021748	-0.0024222403645681534
2
250800
Ar	-0.00027940170727006123	-0.00023847489141450343	0.0032187221618126013	-0.006005559443877283	-0.01260017058607954	5.089414672268094e-05
Ar	0.00011928297255210188	0.00013033871572748073	0.0027555004299580424	-0.007954361588373256	-0.009298580899368313	-4.604522030155245e-05
2
251000
Ar	-0.00026321055190824404	-0.0002916096783365781	0.003203089540093995	0.00894816079298887	0.002305262319023702	-0.0028436784061101
Ar	1.594085130519602e-05	1.2123878041198059e-05	0.002768055702172843	-0.011816956007122167	-0.013328166892738188	0.002298625344155822
2
251200
Ar	-0.00012010439457718419	-0.00020161897437911275	0.003177025609982504	0.018360803542614056	0.014673273461915977	-0.00114384839533676
Ar	-9.548714215905467e-05	-0.00011202464570452775	0.0027897959427547513	-0.009396758423185969	-0.010217925467325572	0.0010420608654618348
2
251400
Ar	8.116025741810478e-05	-1.731333141900889e-05	0.003191570367169181	0.02045191244492032	0.02096198564729231	0.003062864432922627
Ar	-0.00015980418245997252	-0.00017753774207160736	0.0027787583686380577	-0.002985336101333939	-0.0025448258598563837	-0.0024001123025311614
2
251600
Ar	0.00025023781591087337	0.0001805791012091063	0.0032160332797662988	0.011620726762056794	0.016650537732333784	0.0012097922069305568
Ar	-0.00014690872014023798	-0.00015715929811312997	0.0027597858296661026	0.00552007860781803	0.006492769724879046	-0.0009101797639135748
2
251800
Ar	0.0002919332424846726	0.00028508187492647954	0.003210941029249064	-0.0036025026579565946	0.0033627204035804816	-0.0021139638130916283
Ar	-5.8789596206832184e-05	-5.871767773849386e-05	0.0027637325488014722	0.011334393267328607	0.012331736089953194	0.001623649512418023
2
252000
Ar	0.0001881575400366001	0.0002455719175838883	0.00318303104873423	-0.01596506421652971	-0.010612845871284625	-0.002588522138560525
Ar	5.986600982564071e-05	6.883612082566385e-05	0.0027860648138547228	0.011238367836102157	0.011955150507296279	0.0021268998513610856
2
252200
Ar	-2.7716657736395797e-06	9.259845908125936e-05	0.0031813898362330235	-0.021141265671673255	-0.019146895034548587	0.002477819530530231
Ar	0.00014685130867906842	0.00015855086034788934	0.0027871544371361272	0.005746612072998556	0.00548905225934331	-0.002094399971622699
2
252400
Ar	-0.0002013142143578845	-0.00010955841811424986	0.0032111742598057475	-0.01648646071151988	-0.019321482189119613	0.0024429843771413616
Ar	0.00016448573618308134	0.00017138283685255162	0.0027627537511412587	-0.0025911038434634536	-0.0031837290622092973	-0.0019383893775339652
2
252600
Ar	-0.0002999089798827208	-0.00025709709339767113	0.003218928158393688	-0.0023331152234495477	-0.00881407589956788	-0.001025429364205295
Ar	9.851382606918404e-05	9.937960337856899e-05	0.002756422784282036	-0.009973191864657801	-0.010606178647567858	0.0007484642795684955
2
252800
Ar	-0.00024571236524565776	-0.00027199993480139594	0.003194900572606117	0.01245755994468836	0.005769948388964747	-0.0032210550509701808
Ar	-1.824218948275794e-05	-2.2980795724211816e-05	0.0027750111701704615	-0.01229586201697835	-0.012805765437516357	0.0025661713584592257
2
253000
Ar	-7.553772972209245e-05	-0.0001567818411783466	0.003174757694214829	0.02035100472480859	0.016300996135251385	0.0004148411179356904
Ar	-0.00012472885143168208	-0.00013247072580080125	0.0027915327275051306	-0.00813873096793724	-0.008095286146790183	-0.0003182197204874194
2
253200
Ar	0.00013609749254920485	3.4436543082188046e-05	0.0031986662179895077	0.02004229751697006	0.020341429866674046	0.003067619104161553
Ar	-0.00017146290664187778	-0.00017547300147264486	0.002772422370276635	-0.0006412684009803475	-0.00013382452596880464	-0.0023819582736787125
2
253400
Ar	0.0002854579182592096	0.00021191627760030836	0.0032180627423842433	0.008324451703729514	0.01343645858329154	0.00038950309830549225
Ar	-0.00013378240037078623	-0.0001333019952305165	0.0027580018957937707	0.007850061190710076	0.008192672464540703	-0.00022958672868210347
2
253600
Ar	0.00028820891630836493	0.0002793811544365365	0.003205269935475154	-0.007651424468550147	-0.0004281083289763759	-0.002664064943623818
Ar	-2.7773473332239946e-05	-2.5013762109519836e-05	0.0027688089657309533	0.012409259088029288	0.012548727074734055	0.002162097723281985
2
253800
Ar	0.00015043241720388837	0.00020855420605493	0.0031783302997413403	-0.01853453396502547	-0.012829208180058586	-0.0015696566446520355
Ar	9.222696052448583e-05	9.550119876036053e-05	0.002791271608898836	0.010391799571521004	0.010318428415862854	0.0013824179386505897
2
254000
Ar	-5.840420727431257e-05	4.116444806843435e-05	0.0031898659058878895	-0.02185553199687829	-0.019636540756710265	0.0031296700142560913
Ar	0.00016565642763676286	0.00016515271071926836	0.002782359901667922	0.0038822611722978424	0.003291636505148726	-0.0025391568592312945
2
254200
Ar	-0.00024689790136514424	-0.00015099501555035353	0.003216954810499937	-0.013879977568067293	-0.01689734595320342	0.0015529457042945639
Ar	0.0001598210105619457	0.00015511130542490012	0.0027599928878066717	-0.005118076512471337	-0.005271443659212346	-0.0013585391014918334
2
254400
Ar	-0.00030981747952260055	-0.0002651885680901715	0.003214655929339004	0.00183577067353647	-0.004961361880771885	-0.001963895223488316
Ar	7.241571647113657e-05	6.811757954395875e-05	0.002759635170813983	-0.011578949179394766	-0.011381455754225766	0.0013034339639937862
2
254600
Ar	-0.0002169344401595491	-0.00024463151117936856	0.003185787346558993	0.01566529450267325	0.008631837014732014	-0.003009880519048181
Ar	-5.2361140869466695e-05	-5.3544704972439e-05	0.0027807474932389727	-0.012184820122018155	-0.011804076779969174	0.0023398076485027916
2
254800
Ar	-2.31359971684159e-05	-0.00010989703746523989	0.0031772972631097978	0.021981779858178306	0.017474620550876955	0.0018865468892024016
Ar	-0.00014950278882156341	-0.00014555549599523914	0.0027874614290251476	-0.006696181419995486	-0.005967670828053123	-0.0015170509701731647
2
255000
Ar	0.00019016042838452518	8.119645076271527e-05	0.00320576629029551	0.018489702094404505	0.018922342504149543	0.0026273211506819237
Ar	-0.00017622609000085375	-0.00016590352282748455	0.0027658534662861646	0.0018273030074414166	0.0021852647671228935	-0.001868284975471276
2
255200
Ar	0.00031021012569787247	0.00023288535968915076	0.0032173740394935077	0.004353064689152425	0.00997201062285456	-0.0005181476966660895
Ar	-0.00011482304390980779	-0.0001049548339764152	0.002759036047712799	0.009892929669070643	0.009482108563049398	0.0006220526782635021
2
255400
Ar	0.00027147831545026424	0.0002640491095240377	0.003197544154974159	-0.011513213752815615	-0.003831094771009608	-0.002949058772551295
Ar	4.9973465251403895e-06	8.258783847848047e-06	0.0027764092342785845	0.013029184703970121	0.012160007405299683	0.002500603255100287
2
255600
Ar	0.00010385917326119662	0.00016806770872972255	0.003176408108932502	-0.020676543037135345	-0.014438566135193108	1.4060712552627024e-05
Ar	0.00012116947324161035	0.00011595943015505804	0.0027944971544472197	0.009173682966195943	0.008301367592624924	2.787604135753957e-05
2
255800
Ar	-0.00011700332694015231	-7.361567671097095e-06	0.0031987989963778484	-0.021630287763639976	-0.019322757736595336	0.003162332675969984
Ar	0.00017813775471258863	0.00016408540322636808	0.002775563292705822	0.0016451407268631237	0.0009934850742540613	-0.0027316468245971383
2
256000
Ar	-0.0002865489754248503	-0.0001827044955193404	0.003219779338740009	-0.010567890534237309	-0.014027304618543186	0.0005591785492680934
Ar	0.00014800725506912448	0.00013270726494351225	0.00275646073434263	-0.0074380438200560796	-0.007035005415184234	-0.0007402286702155581
2
256200
Ar	-0.0003092521452895787	-0.0002628235802719604	0.003207959211200703	0.0061115852894506675	-0.0013511977898353297	-0.002707076170812551
Ar	4.212467963656942e-05	3.5170247351067414e-05	0.0027628678866872224	-0.012832296440366386	-0.01165664133338171	0.0018887721575142563
2
256400
Ar	-0.000179216107293824	-0.00021145114118553142	0.0031777394373141113	0.018504387642373187	0.01088477499689224	-0.0022679688101429687
Ar	-8.579217049132811e-05	-8.011606705350503e-05	0.0027858418972781054	-0.011467266367135753	-0.010226674350144002	0.001850149246470321
2
256600
Ar	3.4925697762408435e-05	-6.233123220670251e-05	0.003182540353071511	0.02302047521025985	0.018093235525611193	0.0028651267267466073
Ar	-0.0001699429591656947	-0.00015207852506947723	0.0027825243946394693	-0.004929607868146559	-0.0038032405640034835	-0.0021985282772395195
2
256800
Ar	0.00024117260068945765	0.00012136949760604294	0.0032118953244674093	0.01607402869552628	0.016822302817071255	0.002099851221792425
Ar	-0.00017359140392151056	-0.00015040190808064829	0.002761622911622747	0.004369350024465659	0.004190020454781172	-0.0013245339180620315
2
257000
Ar	0.0003258077278783431	0.0002427171251317485	0.003216044353200527	8.608555384417579e-05	0.006330623277413098	-0.0013151724767205403
Ar	-8.942688024158395e-05	-7.49176881893756e-05	0.0027615671477128766	0.011736835538404088	0.010284481331657101	0.001307489396268204
2
257200
Ar	0.00024578059046767174	0.00023934587288388065	0.0031913538506734484	-0.015086196872428861	-0.0067419467541969	-0.0029332285731418824
Ar	4.1038152177926696e-05	3.808799711086787e-05	0.002783148063306053	0.01313336105395644	0.01126361273531023	0.0024720795328446446
2
257400
Ar	5.160776919834389e-05	0.0001234814529340814	0.003179190833517014	-0.022571401429230906	-0.0156323442342909	0.0014114490567723556
Ar	0.00014911470364093845	0.00012905416026130043	0.0027925614428171664	0.007785489125099468	0.006249490210945828	-0.0013530534891047893
2
257600
Ar	-0.0001745236387519946	-5.306765675876786e-05	0.0032056472403637236	-0.020407876719801685	-0.018093285629210455	0.0026440741246208824
Ar	0.00018637760981913865	0.00015600164927692325	0.0027686626736361792	-0.0008851173444835902	-0.0011554165041579008	-0.002394574012829056
2
257800
Ar	-0.00031624892177464054	-0.00020449642364158189	0.0032181270875616453	-0.006561131180597833	-0.010728157182954851	-0.00041577377615648016
Ar	0.00013091678411648406	0.00010681166866581909	0.002755941809095647	-0.009715500431274272	-0.008272151483786643	4.73248689398494e-05
2
258000
Ar	-0.0002955818495864226	-0.0002494387759785314	0.003198675964881453	0.010306514150892242	0.0020008846991006195	-0.0030691240720292752
Ar	8.49400530933554e-06	4.301201560877688e-06	0.00276921714836138	-0.013673489142015981	-0.011361281632118464	0.0023104127435335047
2
258200
Ar	-0.0001326994593337433	-0.00017265531228931801	0.0031736803018742954	0.020813487595820218	0.012469672225893364	-0.000683239671445938
Ar	-0.00011746900579807426	-9.964390111616451e-05	0.0027896472063384677	-0.01031824268301534	-0.008355023189355238	0.0006939226585389326
2
258400
Ar	9.553166922795874e-05	-1.5904272777798835e-05	0.003192503993456906	0.023060348831803527	0.017816232867946386	0.0033035025292254493
Ar	-0.00018533726133118135	-0.00015126556149634398	0.0027762994782987924	-0.0027093286626762446	-0.0017010913852421796	-0.002413255994890399
2
258600
Ar	0.00028431949511375544	0.00015198839539485692	0.0032178232800862162	0.012754039316077187	0.014113175309790048	0.0011631436133162148
Ar	-0.00016339430355424465	-0.00012962389756321138	0.0027588329153491195	0.006972986447919509	0.005867767706864889	-0.0006815463678568993
2
258800
Ar	0.00032735076695833746	0.000240782721561172	0.003211645814964175	-0.004417239025410047	0.0029044039407613584	-0.0022638397572394757
Ar	-5.7913570847593505e-05	-4.356935805073325e-05	0.0027650114469129163	0.013188101877290628	0.010624717425515856	0.0017945762872453245
2
259000
Ar	0.00020804085018488755	0.00020801993155231975	0.0031830846037580705	-0.018110112670486747	-0.008889398269513939	-0.0025054917479020123
Ar	7.744493505043243e-05	6.445365518939413e-05	0.0027877827688070887	0.012537054922355108	0.009897366114469912	0.001998766274624764
2
259200
Ar	-7.649250610459379e-06	7.899582646577036e-05	0.003183429061712086	-0.02379758914932079	-0.016214145059218605	0.002539566529282479
Ar	0.00017233815484871029	0.0001368380835143542	0.002786635567862538	0.005966382746039185	0.004187873489020395	-0.00221705410121323
2
259400
Ar	-0.00022874645250873992	-9.173232820179051e-05	0.0032113112005820116	-0.01810447488234898	-0.016250976957787044	0.0020730362498507225
Ar	0.00018574249921340702	0.00014245923523105498	0.002762702763932902	-0.0036075961900854923	-0.0031993359647671275	-0.001807090522803461
2
259600
Ar	-0.00033496655157204023	-0.0002155547895316133	0.0032158505951835202	-0.0021665194590984615	-0.007379210549197257	-0.0012504661003927297
Ar	0.00010539955238017128	7.806029945743476e-05	0.002757447783896178	-0.011729785376043026	-0.00915589309708524	0.0008170342725865126
2
259800
Ar	-0.00027106313543274026	-0.00022842875996375686	0.0031912016607742156	0.014102273140717107	0.004733390307601015	-0.0030873007681126883
Ar	-2.903878032963378e-05	-2.5537357238486947e-05	0.0027761114212133888	-0.01391240056032752	-0.010656388069305398	0.0024673889876332213
2
260000
Ar	-8.028664435552942e-05	-0.0001330146352276999	0.00317517501127099	0.02276472008722942	0.013570731343972275	0.000977755914376691
Ar	-0.00014715989781579136	-0.00011464901544712824	0.002789748709522057	-0.008825835236710202	-0.00635785614407035	-0.0007111844028127976
2
260200
Ar	0.0001549429137358565	2.6514497343591976e-05	0.0032019871672255337	0.022075826398914665	0.016977296028968053	0.0030735701589825427
Ar	-0.00019488699387336738	-0.0001459102249393888	0.0027695368523241587	-9.419293435873925e-05	0.0004025297456235832	-0.002236814256791687
2
260400
Ar	0.00031767422205026294	0.0001747125759679801	0.0032198325281878313	0.00885150146013324	0.011234679897969871	0.00012643874004632388
Ar	-0.00014614565385994376	-0.00010629123906034475	0.002757549187823179	0.009396461119945174	0.007180597679974549	6.465684372165625e-05
2
260600
Ar	0.0003172863510714091	0.00023180757012001397	0.0032044348031495286	-0.008741755966194333	-0.00023358484065499647	-0.002864189623125212
Ar	-2.320320984049791e-05	-1.4242110259418392e-05	0.002770524974857455	0.014126988558197957	0.010476794687183311	0.002307784874194802
2
260800
Ar	0.00016300392774279448	0.00017460534375210159	0.0031775651729688543	-0.020595185562400777	-0.010454769124238168	-0.0013079186900438943
Ar	0.00011110580286056338	8.441697175756611e-05	0.0027924620805958537	0.011396736790016342	0.008239942187939803	0.001041530635661001
2
261000
Ar	-6.895507081481429e-05	3.7306945708405085e-05	0.0031909069082247023	-0.024204593858188874	-0.016187920737748808	0.003097636271371685
Ar	0.00018948197880229727	0.000138095963155787	0.0027799704729125204	0.003776913455635631	0.002246692097181103	-0.0026993684129060463
2
261200
Ar	-0.0002758951416801867	-0.00012164482707147582	0.0032163380579362574	-0.015065359384356393	-0.014041635646690271	0.0013171061944710059
Ar	0.0001765838607491436	0.00012502755106995474	0.0027578662106041733	-0.00634933225010705	-0.0047993356024853195	-0.0012145013239898241
2
261400
Ar	-0.0003421832986879306	-0.0002174030359975536	0.0032122294845217877	0.002305165167028684	-0.004288434454664106	-0.002062919108697867
Ar	7.370594494195423e-05	5.035872431297717e-05	0.0027594228893648657	-0.01333284994908857	-0.009514798115046871	0.0014927999410055892
2
261600
Ar	-0.00023739748576554707	-0.0002024751345736462	0.0031839265292133135	0.01742896836929378	0.0068991750886753895	-0.0027298442482691877
Ar	-6.72980337306617e-05	-4.9561088747740495e-05	0.0027815835285959294	-0.01349379854847788	-0.009490859636773392	0.0022670060957089237
2
261800
Ar	-2.2186814207394378e-05	-9.37347353572925e-05	0.0031795170200386953	0.02441184951653563	0.014229206403416333	0.0022315072913912737
Ar	-0.00017272206157144433	-0.0001217543093575512	0.002786178915262794	-0.007036802652206875	-0.004471100234139417	-0.0016843859109305762
2
262000
Ar	0.00021311266393645736	6.234902769087453e-05	0.0032085422031117292	0.020234301951416334	0.01551078075691594	0.002497407197139099
Ar	-0.000196297070431122	-0.00013372565147451072	0.0027650035498616244	0.0027615024884776913	0.0022675034886512515	-0.0016989615955671712
2
262200
Ar	0.000343240468943821	0.0001875080781044884	0.003217948388790191	0.004551853435598767	0.008347474135083124	-0.0007836192178967552
Ar	-0.00012089601687997183	-7.99204166163177e-05	0.0027601143469235426	0.01161176549441871	0.008046330921256093	0.0007980302678338323
2
262400
Ar	0.0002985468366392004	0.00021601940656399267	0.00319627010107621	-0.0128280993479638	-0.002762789419129713	-0.0030266338663968444
Ar	1.608916821793644e-05	1.3831118656875389e-05	0.0027783687668815837	0.014556462646255668	0.009877673028052337	0.002460746097238504
2
262600
Ar	0.00011307436262754405	0.00014121428012712331	0.0031766007276959034	-0.02286985345212125	-0.011483729856062481	0.00030516826432902224
Ar	0.00014325345690917755	9.906595915590338e-05	0.002793915346702731	0.009797064817083749	0.006344028264492485	-0.0004112901194479052
2
262800
Ar	-0.00013117294116045871	-1.287719179082508e-08	0.0032002039811277827	-0.023829859747928308	-0.015664581711567448	0.0030993672473673857
Ar	0.00020087026702941168	0.00013308020190432574	0.002772553829753301	0.0010935374495719158	0.00024183650413130313	-0.0027130338085500083
2
263000
Ar	-0.00031680623561947964	-0.0001436274440079108	0.003219800347016434	-0.011438503443994729	-0.011654056418004943	0.0003986416512713011
Ar	0.00015997695539199337	0.00010248866194942812	0.002754797558037711	-0.008916362002534465	-0.00609581867317546	-0.0005100195575018694
2
263200
Ar	-0.0003396485229017516	-0.0002122269383903719	0.0032067567232676	0.006891903796551755	-0.0015157593229425661	-0.002725057428453835
Ar	3.771464952357249e-05	2.1203163064024723e-05	0.0027636162263837147	-0.014483006600012787	-0.009470424277878144	0.0020998023193957026
2
263400
Ar	-0.00019573863110554149	-0.00017472969846943552	0.0031783206113077758	0.02036987182334494	0.008451703760068008	-0.001837733262142602
Ar	-0.00010407720575669216	-7.045042222572584e-05	0.0027870831481361714	-0.012428521245390787	-0.007935033413475337	0.0016581720155949516
2
263600
Ar	4.010131128272143e-05	-5.6523525932631024e-05	0.003187000714832022	0.02531303712560807	0.01451866161936382	0.0029810120390215663
Ar	-0.00019263410057890175	-0.00012404952573031637	0.002781989646820313	-0.004806480533547133	-0.002569508681453985	-0.0021734235327249365
2
263800
Ar	0.0002658834983596044	9.223603244776915e-05	0.0032147993335051874	0.017482693658116607	0.013776201145640522	0.0017554454225506807
Ar	-0.00018940437387320757	-0.00011769720916711282	0.002762361346930546	0.005577596379596643	0.003852230908171201	-0.0011687194635989515
2
264000
Ar	0.00035678840431384404	0.00019335975258934248	0.0032151291449287237	-9.804549011254995e-05	0.005523045528015176	-0.0016924612039697282
Ar	-9.01374138795535e-05	-5.345841019159331e-05	0.0027633998540180795	0.013383124209155835	0.008432046892543746	0.0013507056673480128
2
264200
Ar	0.0002677925813506816	0.00019515824614628997	0.0031881817438783743	-0.016596396767491934	-0.004960345519109274	-0.0029287239787748787
Ar	5.555419719414667e-05	3.698501368180677e-05	0.0027842433668335657	0.01437706589977466	0.008845935958977662	0.002269549543212194
2
264400
Ar	5.434195251823366e-05	0.00010606575061470443	0.0031788639184645827	-0.024827699885331143	-0.012262829147807791	0.0017466167577984823
Ar	0.00017116898762320528	0.00010640860485286895	0.0027901535633511293	0.008045363853262728	0.004526917983531432	-0.0016845210419509208
2
264600
Ar	-0.00019367365629819285	-3.4825763745303355e-05	0.0032068049659876603	-0.022274401635956405	-0.014624458357723559	0.0026404557515067517
Ar	0.00020523297404065896	0.0001229905897032445	0.002764962734300937	-0.001771437524826054	-0.0014055349765044786	-0.0023477256643378588
2
264800
Ar	-0.00034743527376684627	-0.00015922067713730807	0.003218649061297573	-0.007027263364538379	-0.009038595824027742	-0.0005217078246836258
Ar	0.00013691504750184524	7.958294245594977e-05	0.002753597393664736	-0.011283238188340886	-0.0069048843973553735	0.00026753740035552286
2
265000
Ar	-0.000323480919994317	-0.0002005475722405862	0.0031983688824175744	0.011374195001984324	0.0010444698691604909	-0.0030817248453138815
Ar	-1.4538826586752718e-06	-3.6085187345787656e-06	0.0027689418524226707	-0.015168457276851956	-0.009022319669409237	0.002496471667612646
2
265200
Ar	-0.00014461512407711128	-0.00014417980212263288	0.00317486321658549	0.02284692576883489	0.009564204781662705	-0.00034505437236653156
Ar	-0.00013829916198594046	-8.423995544041867e-05	0.0027900566844257665	-0.010922345873773767	-0.006269606388524249	0.0006290828430141295
2
265400
Ar	0.00010568630282983601	-2.1082599449060878e-05	0.0031954082264943734	0.025212337551429986	0.014198258317066182	0.0032430274853252933
Ar	-0.00020675722717553664	-0.00012068550658369834	0.0027769893004125972	-0.002171601891314674	-0.0008207828312231058	-0.0022387328747401325
2
265600
Ar	0.00031135931869252537	0.00011477147679150892	0.003219066741823922	0.013839220468830845	0.011659905749302294	0.0009461470880154745
Ar	-0.00017452174525339206	-9.881296338521434e-05	0.002761351800500365	0.008364462161224197	0.00502611879278825	-0.0005397606597160139
2
265800
Ar	0.0003573751759032773	0.0001909854497140592	0.003210798465878531	-0.004905567974325423	0.0029389193683527375	-0.00239779021669559
Ar	-5.39015851819621e-05	-2.8439658057891337e-05	0.0027683041732200586	0.014713303066732646	0.008462831855848117	0.0017950437292400861
2
266000
Ar	0.00022673984604035087	0.00017117770150118	0.003182103654891537	-0.01976033034672037	-0.006525726466239252	-0.002313224894512196
Ar	9.443103566004538e-05	5.6138297584479096e-05	0.00278925458036399	0.013464172481933087	0.007584361109382407	0.001605728055008604
2
266200
Ar	-9.326765229437325e-06	7.244735778164966e-05	0.0031849204180225757	-0.026057638598980686	-0.012668787676529169	0.0026402208051651247
Ar	0.0001937242207845174	0.0001096024107898035	0.0027835255937464875	0.00589436331700737	0.0028528656633583912	-0.0025370957883629687
2
266400
Ar	-0.00025039046734807806	-6.323525080275583e-05	0.003212360644442707	-0.01968415165521096	-0.013158185572691439	0.001949140611326777
Ar	0.0002005783726037116	0.00010942070914947766	0.0027586263024114606	-0.0047616939842911234	-0.002940128838572581	-0.001731915292310039
2
266600
Ar	-0.0003653288819922566	-0.00016630608675554474	0.003214967222399999	-0.0022800714720366245	-0.006499078478366607	-0.001446762187080722
Ar	0.00010597699406901051	5.547283491163788e-05	0.002755321188378331	-0.013336249949665079	-0.007407158140648606	0.001101510042508852
2
266800
Ar	-0.00029510813967982997	-0.0001833340933644305	0.003189450947637424	0.015397974524646637	0.003098150686513761	-0.0029902114112069843
Ar	-4.3549935203312685e-05	-2.64766064487719e-05	0.0027767107276351947	-0.015191126167678731	-0.008245201773225854	0.002700250012563993
2
267000
Ar	-8.674147227891925e-05	-0.00011348142307379624	0.003176417924279278	0.02493443685345857	0.010317407061964132	0.0013466742859575334
Ar	-0.00016954552211943217	-9.346298826975185e-05	0.002790773481760511	-0.009121567896886855	-0.0045810547795921185	-0.0007631894697070383
2
267200
Ar	0.00017073488813082344	1.0495349829182482e-05	0.003204761375481107	0.024059064923658204	0.01343751459273519	0.0030223598144273815
Ar	-0.00021422376807673788	-0.0001130537829922022	0.002771065671457433	0.000759555469897994	0.0008379643913978937	-0.0021139609114643044
2
267400
Ar	0.00034751095187689055	0.0001304523075194127	0.0032211205050728126	0.00955588683372108	0.009407481332031384	-7.773188397675981e-05
Ar	-0.00015300524766627494	-7.756607742312956e-05	0.0027597720207778	0.010906520778983403	0.005974433023722422	8.202497482745967e-05
2
267600
Ar	0.0003458647120520113	0.000182191673769944	0.003203981925183	-0.009648041131015682	0.0005596553491808611	-0.0029895709789604045
Ar	-1.4069259301347304e-05	-3.4968871668734487e-06	0.0027721565097169635	0.015674329418452884	0.008200364764696242	0.002175178459465583
2
267800
Ar	0.00017718699557226107	0.000144216535242363	0.003177374833731629	-0.02249909159904674	-0.0076457780318452415	-0.0011190722415698022
Ar	0.00013166413529311835	7.189047526812086e-05	0.0027912295899692316	0.012036861928519448	0.0060849226174689176	0.00064025623839239
2
268000
Ar	-7.631053457332356e-05	3.94303929683864e-05	0.003191753390349403	-0.026370408215688246	-0.012636023797784937	0.0029611918387995985
Ar	0.00021118727844953683	0.00010914669738840932	0.0027762229713344353	0.003298715229606134	0.0011964167764298278	-0.002686306264897821
2
268200
Ar	-0.0003010992405652545	-8.68655418682084e-05	0.0032149876224314444	-0.016256722138314555	-0.011402361903426663	0.0011224387029019503
Ar	0.00018842478738104204	9.382470838384792e-05	0.002755774318510005	-0.007711942302728889	-0.004177868998342918	-0.0009083625866682861
2
268400
Ar	-0.00037149755639535837	-0.00016782539639659236	0.003209614068630677	0.002703476682221654	-0.0040566597748866355	-0.002083626671003031
Ar	7.010458522835859e-05	3.228882796761726e-05	0.0027606834502979217	-0.014925252011727223	-0.00760414368466154	0.0017972093127128319
2
268600
Ar	-0.00025652789935868983	-0.00016348699996765034	0.0031828100395945745	0.018936174292646164	0.0047030406022012744	-0.002374339415946479
Ar	-8.445127111923924e-05	-4.537184085166977e-05	0.0027847272609557872	-0.014470585305159201	-0.007162834878109948	0.0022955334178979504
2
268800
Ar	-2.2712705222578697e-05	-8.342696219729172e-05	0.003183583054153757	0.02652224176533405	0.010856003764921345	0.0026132155393631547
Ar	-0.00019446946189137352	-9.739532516037624e-05	0.0027876602689909167	-0.006958017339352378	-0.0029548379039991174	-0.0018407501917816432
2
269000
Ar	0.00023205923891723363	3.8171689767303615e-05	0.0032135168440414613	0.021808137434184242	0.012324284170047549	0.0023056514247871214
Ar	-0.00021147096419835658	-0.00010117832072914775	0.0027658788802591636	0.0038947270962636964	0.002277134051988076	-0.0017101860879161143
2
269200
Ar	0.00037104858997689483	0.00014023185669469594	0.0032194163489067513	0.004717437593549629	0.007101037244039795	-0.0012474842006499288
Ar	-0.0001220811509903898	-5.5510883570328314e-05	0.002760451061314994	0.013177081544578424	0.006459948677760657	0.0007217794891439975
2
269400
Ar	0.00032075504825790943	0.00016876037485251755	0.0031935420521576885	-0.014039804451181493	-0.0014960440077760742	-0.003328921038589823
Ar	2.9848342001901384e-05	1.753769239578786e-05	0.002777406428301933	0.015836933287355692	0.007528451315783037	0.0023089632978525424
2
269600
Ar	0.00011911639815627911	0.0001165400995797463	0.0031734762362258515	-0.024815478541433632	-0.008444729761444968	0.0004784015900175422
Ar	0.0001650168426754584	8.101040881895589e-05	0.002790186285471149	0.010103690995479522	0.004526309363154173	-0.0007267200044632823
2
269800
Ar	-0.00014464911916084393	9.624993683610096e-06	0.00319770226705366	-0.025545526159771757	-0.012118624947305038	0.003070898851328887
Ar	0.00022055379917081737	0.00010297402998135654	0.0027681304260539206	0.000339490245598372	-0.00026690703715587905	-0.002525362109399089
2
270000
Ar	-0.00034191311633024134	-0.0001037054459416373	0.003216822782072738	-0.011963458350480774	-0.009441477429460055	0.00037960810348059473
Ar	0.00016788115016589398	7.526165081808529e-05	0.002753527695482387	-0.010409782202800798	-0.005039182952758872	-0.00012214122422994484
2
270200
Ar	-0.0003633547500568638	-0.00016232344617262825	0.0032048816002192442	0.007663312112201367	-0.0018224751228808243	-0.0025333762819004
Ar	2.9997054621632437e-05	1.0383199702413948e-05	0.0027659933723441655	-0.01601117975887056	-0.0074045242179747615	0.002369589078226403
2
270400
Ar	-0.0002076191265403173	-0.00013987963802963453	0.0031795423725083705	0.02190609419671766	0.005916082515627071	-0.001392725998186422
Ar	-0.00012344108250354234	-5.947091251073522e-05	0.002790496780655555	-0.013147390944785241	-0.0058392655492781175	0.0015441280752571539
2
270600
Ar	4.638961453046749e-05	-5.3204841963541273e-05	0.0031915893742389375	0.027217030664838104	0.010960516101789552	0.0030021985939014365
Ar	-0.00021424374041613818	-9.692326387966044e-05	0.0027833810711638514	-0.004462481538354295	-0.0014939889011605174	-0.0022861491362043368
2
270800
Ar	0.00028753819812542893	6.121880146583517e-05	0.003217083260175075	0.018527906521517964	0.010813364089928376	0.0013623953753202145
Ar	-0.00020219431153861828	-8.740341158972434e-05	0.00276338524973395	0.0068865898873951	0.0033497501318724018	-0.0011840352421154735
2
271000
Ar	0.00038224307251830694	0.00014347999520390384	0.0032131081131994586	-0.0004025047571900222	0.004897867478859339	-0.0020842178257216197
Ar	-8.811663029163591e-05	-3.5510594048056925e-05	0.0027639021856187282	0.014958179632532313	0.006610784667622397	0.001249779628354825
2
271200
Ar	0.00028446214756311855	0.0001518961323730849	0.0031839126115303026	-0.017906593621191735	-0.0031048615172183497	-0.002925588980781886
Ar	7.131479937237506e-05	3.413852157296206e-05	0.0027832173019978084	0.015383015529014455	0.006645755395596532	0.0020131212502113318
2
271400
Ar	5.490319280826832e-05	8.970246443197345e-05	0.0031776490790537634	-0.02671560861692308	-0.008965961341396614	0.0021547336935556585
Ar	0.00019217024065614583	8.436242070073032e-05	0.0027857438099399396	0.00809300858364098	0.0030503862571368626	-0.001942963874708937
2
271600
Ar	-0.00021013168832462504	-1.5891960516061434e-05	0.003207768165647652	-0.023640094931258578	-0.01119851674123827	0.002715758427086562
Ar	0.000221270551434968	9.237989574452768e-05	0.002761168517055872	-0.002786101325743015	-0.0015715996389816815	-0.002072710699364945
2
271800
Ar	-0.0003718501988423533	-0.00011354654841554755	0.0032191325524537472	-0.007158185530112701	-0.007407238784995953	-0.0006154636993657951
Ar	0.00013974593279186454	5.534303118009773e-05	0.0027537995852596467	-0.01277058723080164	-0.005500260511293287	0.0007136361246054603
2
272000
Ar	-0.00034276311608626083	-0.00015132115259824494	0.0031980070031267095	0.012436551491962794	6.720644727101563e-05	-0.0031011286406091737
Ar	-1.3073817160310841e-05	-9.109840289589524e-06	0.002772924551088602	-0.016405542856636316	-0.006835072091084317	0.0027578820591921036
2
272200
Ar	-0.0001500677745290191	-0.00011556799218022448	0.003176137061368117	0.024529994591109938	0.006632787877476519	-1.4532739692361848e-05
Ar	-0.00015803286006931802	-6.863187148651945e-05	0.002793555442211283	-0.011282838023545384	-0.004429534196631269	0.00027908943479841315
2
272400
Ar	0.00011814869886008878	-2.645743952085884e-05	0.003198059386947426	0.02686915211577013	0.010588153539583964	0.0031090873670697504
Ar	-0.00022572505876444307	-9.197595676139849e-05	0.0027774089164591237	-0.0015734291498520885	-0.0001334461551035548	-0.002410654303647265
2
272600
Ar	0.0003352955494681198	7.724607282492714e-05	0.0032184182337471855	0.014383677143154867	0.009194216843754072	0.0005200696419089272
Ar	-0.00018348033596573185	-7.080291735875114e-05	0.002760704691537103	0.009678483746904285	0.004187103645914253	-0.0005863214353356808
2
272800
Ar	0.00038004234419621545	0.00014039826970314983	0.0032063207974290086	-0.005689183174347602	0.002909127765447485	-0.002702641504529553
Ar	-4.8591345360850537e-05	-1.5190522956998954e-05	0.0027673389679521102	0.016152888282348996	0.006485880664227848	0.0017857133061308659
2
273000
Ar	0.00023730245818353514	0.00013259763906059923	0.003177274314846489	-0.021288651124111282	-0.004206988115471981	-0.0020064875428461595
Ar	0.0001108790961208545	4.7790475845155964e-05	0.0027877925474588516	0.014135119726097376	0.005456483418884481	0.0014376760228683137
2
273200
Ar	-1.607313621315914e-05	6.398620387297974e-05	0.0031847384238034996	-0.027865179580941174	-0.00916781105419619	0.0030261281705475556
Ar	0.0002125970501275369	8.419209143092289e-05	0.002780323488179414	0.00569435420623155	0.0016606872269859635	-0.0025029670687644594
2
273400
Ar	-0.00027168261668241843	-3.667146708721253e-05	0.0032140058790264795	-0.020624166991281823	-0.009993949196025179	0.001983325926042349
Ar	0.00021251180338124198	7.94729299604032e-05	0.0027579534792572303	-0.005845351389268967	-0.0026009419854735377	-0.0013401985679095689
2
273600
Ar	-0.00038907780071412466	-0.0001179453212000781	0.0032164343984724814	-0.001843507313609334	-0.005499338048902245	-0.0014984310989467039
Ar	0.00010495329637366045	3.5921527224938136e-05	0.002758480304936223	-0.01469245928906732	-0.005744275444564142	0.001428016119355866
2
273800
Ar	-0.00030915675846384435	-0.00013801203078867913	0.003190164216474376	0.016749048468392837	0.0015332180363412328	-0.003024213268729126
Ar	-5.662085705948141e-05	-2.57820656505055e-05	0.0027818356905325975	-0.016106827580121486	-0.0060474879863011595	0.002686522715552942
2
274000
Ar	-8.517138209960735e-05	-9.285064833169082e-05	0.003178646167643184	0.026654010818245467	0.007159119393195352	0.0015716165054141874
Ar	-0.0001872737690870556	-7.315661455330483e-05	0.0027930561824018154	-0.009149605480364717	-0.0030328556726365186	-0.0012097505027884592
2
274200
Ar	0.00018743394501198634	-3.50973738427515e-06	0.003206536686272255	0.025218094867433417	0.009963140804121839	0.0027659411758804864
Ar	-0.00022794004159498808	-8.368195099102875e-05	0.0027703914639673486	0.0016012286200083321	0.0010003252227459712	-0.002289102030083625
2
274400
Ar	0.0003698515253203912	8.782078502264378e-05	0.003219381997267369	0.009512644810829803	0.0074216216233442545	-0.0004547422868954284
Ar	-0.00015550071567837365	-5.3970817313667754e-05	0.002758283809205772	0.012249881965695094	0.004674595325320464	4.0960303816163987e-05
2
274600
Ar	0.00036237962398460674	0.00013246433335407438	0.0031995528912515934	-0.010668833212593593	0.001134328704275239	-0.003078810618957892
Ar	-3.817542499330263e-06	2.6188280056443533e-06	0.0027707571797058825	0.016789471814867306	0.006142676521687309	0.0021702726388929676
2
274800
Ar	0.0001808068341839299	0.00011134540319765354	0.003175008154808043	-0.023993459414652002	-0.005009657329356426	-0.0005734897415841702
Ar	0.0001492257276317341	5.765540047363091e-05	0.0027887603040382108	0.01234583644705944	0.00425504719536558	0.00038873410333239506
2
275000
Ar	-8.852747849287254e-05	3.855704622076824e-05	0.0031940559120071737	-0.0277841667309809	-0.009086968102582384	0.003165799704572648
Ar	0.00022770071911490765	8.167579424758428e-05	0.002773217793959777	0.0027267970841390095	0.0004469773943393599	-0.002463947457829557
2
275200
Ar	-0.0003219427119599474	-5.451575231688878e-05	0.0032173634049912207	-0.016551871943029164	-0.008654533053355153	0.0009287502139200538
Ar	0.00019531013605639282	6.608275967625129e-05	0.0027562220186212348	-0.008942421821937042	-0.003435256956233694	-0.0005414585644251097
2
275400
Ar	-0.00038955029934150526	-0.00011846903776157685	0.003209466183803643	0.003500395757437286	-0.00358938496871455	-0.002350731726532841
Ar	6.40475266496002e-05	1.854740857724085e-05	0.0027645502805240694	-0.01616439668132861	-0.005672447639933366	0.0020557459976597464
2
275600
Ar	-0.0002632969565699809	-0.00012183196372609585	0.0031808882651511968	0.020261894027139772	0.002780636185216578	-0.0023493949991402847
Ar	-9.985054200150657e-05	-3.780863311417449e-05	0.0027892182119192313	-0.014976972003830925	-0.005036946636169817	0.002058173711388917
2
275800
Ar	-1.5333251131398924e-05	-6.894744990035099e-05	0.0031840952259063406	0.027951640676325978	0.0075175030770266524	0.002859725236749264
Ar	-0.0002109661362474645	-7.302025615722452e-05	0.0027872151767709885	-0.006715540033237483	-0.0018090452905538503	-0.0023595545242129936
2
276000
Ar	0.0002499279671051042	1.7988072954873504e-05	0.0032142747017965736	0.022387700726974383	0.009044603779850151	0.002204002972331228
Ar	-0.00022206258667396305	-7.202035055374039e-05	0.0027623207254930805	0.004833276666559814	0.0020169087098796776	-0.001868639027094142
2
276200
Ar	0.00038938136939878766	9.509869224406272e-05	0.0032188353331057923	0.004208923218103589	0.005675885820975595	-0.0013506081488422698
Ar	-0.00012162732394623226	-3.623429332365913e-05	0.0027566369002154675	0.014348773926284036	0.004856087909341424	0.0008167336522638256
2
276400
Ar	0.00033037826742033223	0.00012218086615764786	0.003192371656447807	-0.015175878659779997	-0.0004214076846823303	-0.0033004139405419545
Ar	4.090771752032735e-05	1.7244160653620882e-05	0.0027755219558494447	0.016694979277693967	0.005381657676217833	0.0024981038642964324
2
276600
Ar	0.00011592629210269553	9.012816927232146e-05	0.00317473328683037	-0.026252932113250048	-0.005655639600701933	0.0008594818134939584
Ar	0.00018107246379956736	6.103076100877978e-05	0.002789134292402675	0.010276256492369922	0.0029497393043305987	-0.0007296025455701279
2
276800
Ar	-0.0001607159230508807	1.575666842055938e-05	0.0032001511936090754	-0.02646909623103265	-0.008627270154944707	0.002919983914714433
Ar	0.00023389280955654634	7.340918483932362e-05	0.0027694684544055793	-0.00036673686037717325	-0.0005580140830215548	-0.0021181291109000906
2
277000
Ar	-0.00036204904276771805	-6.683861855789205e-05	0.0032171221954163365	-0.011815425423034836	-0.007112647217719168	0.00013607924007126733
Ar	0.0001714019029315783	5.061010689317363e-05	0.0027588541157695973	-0.011576191326206381	-0.0038182647151509563	0.00017613671706029474
2
277200
Ar	-0.00037738168229101306	-0.00011382799295932728	0.003202635762057979	0.008682109538528784	-0.0019360248974652603	-0.002696568869223416
Ar	2.2049245377103776e-05	3.240963537926658e-06	0.002772614492526012	-0.017009060519980503	-0.005236864116389939	0.0023195983067503907
2
277400
Ar	-0.00020969508433536723	-0.00010442897118118232	0.0031779940296186486	0.023204945213680505	0.003547953325854516	-0.0009973656937414092
Ar	-0.00013789180112905221	-4.5117434406837e-05	0.0027934797870528215	-0.01338687904875225	-0.003916152543901031	0.0008269183209179989
2
277600
Ar	5.7740653387547856e-05	-4.775169618924694e-05	0.0031936579956513625	0.028388877951339937	0.007491155794520478	0.0031351025381022566
Ar	-0.00022797419620701587	-6.888053978324727e-05	0.002779194884408008	-0.004038783312387346	-0.0007681908057481625	-0.002784632655892854
2
277800
Ar	0.00030581125678310006	3.3152934518977024e-05	0.0032181847805886816	0.018697796464934503	0.007923088572080742	0.0011285705011690407
Ar	-0.00020809957191235184	-5.945568757209416e-05	0.0027566276110126977	0.007945787097164831	0.0026001773938878455	-0.0012259375450999178
2
278000
Ar	0.0003968778980935201	9.624538648566872e-05	0.003211589556695969	-0.0012357462896829302	0.004129165965972316	-0.0023499577992544232
Ar	-8.299928849540726e-05	-2.0843107084971926e-05	0.0027588745395202507	0.01604173503479336	0.004784475526903986	0.0015784053218736206
2
278200
Ar	0.000288704158638827	0.0001095605714860637	0.0031810695770522384	-0.019075572079883942	-0.001449881779016258	-0.00284955491793582
Ar	8.497606064288338e-05	2.8157850187741045e-05	0.0027819826060007393	0.015910321014241658	0.0045474407214609325	0.0023487688534072834
2
278400
Ar	4.695988887830469e-05	7.180568691669789e-05	0.0031780608634614884	-0.027930785340413402	-0.005876156358915079	0.0025125205950900713
Ar	0.00020737935520870993	6.113750786237189e-05	0.002786177015241274	0.007939567512925998	0.0018425682531734249	-0.0017970610018543424
2
278600
Ar	-0.00022710154750205596	-3.6572078224855393e-07	0.0032097220689509456	-0.024097826051462972	-0.007906733790989311	0.0027155160560295394
Ar	0.00023121793890421079	6.354832816256011e-05	0.0027644383285008777	-0.0036391553287141967	-0.0013931632926808464	-0.0017081057980476465
2
278800
Ar	-0.00038822135516173917	-7.157495376936485e-05	0.0032205066490092154	-0.006607624762225214	-0.005672551481783782	-0.0007455199524883404
Ar	0.00013946233274710407	3.539690967092988e-05	0.0027596086162803165	-0.01388186244767101	-0.004017159505185986	0.0008152804905453276
2
279000
Ar	-0.0003507159642886766	-0.0001045021579328598	0.0031983233137310866	0.013474822496904649	-0.0006766489160573591	-0.003151884761753915
Ar	-2.3219012088348157e-05	-1.0111119343072092e-05	0.00277810211919647	-0.017200221110351136	-0.004704666422752586	0.00249755577578077
2
279200
Ar	-0.00014713492610558845	-8.672098720296259e-05	0.0031772520803642814	0.025678497534433024	0.003989255518205348	0.0001940644204478422
Ar	-0.0001721825020240567	-4.962477255959658e-05	0.0027932166110310485	-0.01132388901820556	-0.002799945516544023	-0.000504105625828046
2
279400
Ar	0.0001315844927650078	-2.909655526449752e-05	0.003199166781134802	0.027594976482295912	0.007112031623179356	0.00285423433035463
Ar	-0.0002367587954741072	-6.289573928356319e-05	0.0027719455752333835	-0.0008915803798866323	0.00018552982988228443	-0.0025909920192664217
2
279600
Ar	0.00035124902098543397	4.316245626530324e-05	0.0032166329408863715	0.01414892070158425	0.006658249554540332	0.0002189716172415795
Ar	-0.00018510108678704686	-4.602507360093092e-05	0.0027557938557304104	0.010759241482829184	0.0030449545149358738	-0.0003440363299386563
2
279800
Ar	0.000389901082037448	9.229973130187575e-05	0.0032027247288231625	-0.006586812645109693	0.002723470415042746	-0.0026906090363098528
Ar	-4.0042389987101546e-05	-6.944490344794534e-06	0.002765874680875426	0.01700723249041014	0.004425808452763911	0.0021657664142416826
2
280000
Ar	0.00023744606976225006	9.442794253520694e-05	0.0031762045940134163	-0.02227023736937879	-0.0021479761710314796	-0.001475814158194572
Ar	0.00012502809741672224	3.492817236659576e-05	0.0027888143012874725	0.014330169304725771	0.0035034295531169626	0.0014745720852437476
2
280200
Ar	-2.5957901476781978e-05	5.346003164250122e-05	0.0031890644250759685	-0.02875759607771087	-0.005849782840022884	0.0033120231672163106
Ar	0.00022532826342961266	5.6772391996378335e-05	0.002780868120582971	0.005176764857876367	0.0008095230442009262	-0.002438999508426971
2
280400
Ar	-0.0002863625599193241	-1.3708904939794916e-05	0.003218381708617365	-0.020662349509431438	-0.006953053510739457	0.0017390703884829124
Ar	0.00021705143942972463	5.122306112883835e-05	0.002759669771343888	-0.006893991532099326	-0.0019077102000509233	-0.0012141058552191505
2
280600
Ar	-0.0004004099785727249	-7.312309751161824e-05	0.003217298090976319	-0.0011717539241236743	-0.0043801255625169145	-0.0019281606114864413
Ar	9.928947923114352e-05	2.1191406786048908e-05	0.002760975554738523	-0.01566321567420264	-0.003836577731188706	0.0014327661015949426
2
280800
Ar	-0.00031186457037860976	-9.429251926564952e-05	0.0031876850746680534	0.01770521796380646	0.00024756300098443	-0.003191797592013546
Ar	-6.955794060718948e-05	-1.92603700804713e-05	0.0027830639103411897	-0.016504802786206384	-0.0038798994240542696	0.0023913478277676507
2
281000
Ar	-7.826150842346312e-05	-7.0903266706357e-05	0.003177266624387926	0.02767239421955375	0.004242988542554637	0.001759211254538771
Ar	-0.00020031916577976306	-4.8569671898143604e-05	0.002789347669831579	-0.008883798855153417	-0.0017390984195070596	-0.0016976646232773973
2
281200
Ar	0.00020189164638407343	-1.4419884480793172e-05	0.003205078933951292	0.02555477609851893	0.006591759089181013	0.0026223073486560276
Ar	-0.0002351522790213049	-5.277097699204235e-05	0.0027651875391759414	0.002507940229546206	0.0009138721716267108	-0.002177467784719088
2
281400
Ar	0.00038319211486432945	4.905458231807862e-05	0.0032170267612349865	0.008986580745600006	0.005491928207800106	-0.0004702459359139355
Ar	-0.00015302841570726108	-3.159243539817521e-05	0.002755714238425588	0.013173871659859664	0.0031414885088055147	0.0004084919573885625
2
281600
Ar	0.000367550867836684	8.60379408125152e-05	0.0031980623184650375	-0.011672953593722914	0.0016400539712745315	-0.0028941492468300255
Ar	6.571036778969617e-06	5.1350672249580195e-06	0.0027716458714169253	0.017365438475753735	0.0039180418095226995	0.0024528613559163352
2
281800
Ar	0.0001761579101849977	8.085149116343612e-05	0.0031769855274268967	-0.0249524657912284	-0.002538383956313846	-0.00010106645319850566
Ar	0.00016185268030514114	3.940500827363106e-05	0.0027904751227351286	0.012239490557031675	0.002566424801900312	0.00022430578162285634
2
282000
Ar	-0.0001012819296097625	3.800707473987696e-05	0.0031980039688038037	-0.02831380714202345	-0.005748526208412863	0.0030584924631901667
Ar	0.00023660320346071157	5.2619460176802004e-05	0.0027743412201871945	0.002034292431011245	5.204285293572005e-05	-0.0023687299761923496
2
282200
Ar	-0.000336155965084583	-2.4441061373973756e-05	0.00321840723676537	-0.016304174429944064	-0.006132221232602008	0.0005694412135444813
Ar	0.00019568534262886456	4.071090744507321e-05	0.002758640416526479	-0.009874164358044328	-0.002346826184800552	-0.00045749725939324865
2
282400
Ar	-0.0003982995703281275	-7.341538049648114e-05	0.0032070562563108872	0.004312656253453172	-0.0032323491949723445	-0.002596316363836275
Ar	5.58228290409821e-05	9.504942985820826e-06	0.0027671323474093607	-0.01687754248765256	-0.003616149017731106	0.0020021075166847765
2
282600
Ar	-0.00026343164940220443	-8.485290588784455e-05	0.0031782787096262667	0.02112110417358309	0.0009387289281464808	-0.00208257569625666
Ar	-0.00011198841787735154	-2.5889039769684022e-05	0.0027896821728256053	-0.015027980571716676	-0.003094745142105776	0.0016791920999657747
2
282800
Ar	-6.385927988826092e-06	-5.753786118724226e-05	0.0031852542658794844	0.028809036223655982	0.004402497227046142	0.003103207309215912
Ar	-0.00022068487109521957	-4.618217890327519e-05	0.002783419285194574	-0.00620561671198471	-0.0008938712875361342	-0.0025950512364181486
2
283000
Ar	0.00026399753541496874	-2.718348666461925e-06	0.003215931275871363	0.022485282781472972	0.006063272952881095	0.0021234688240753057
Ar	-0.0002239416413781892	-4.355861048836928e-05	0.002758527328681969	0.005773131096954104	0.0013980432033456854	-0.001680015972308979
2
283200
Ar	0.0004004148806639658	5.2483499054299254e-05	0.00321921705697215	0.0035590232280112133	0.004458241097444534	-0.0015072233033706745
Ar	-0.00011439625785392564	-2.014436817458832e-05	0.0027555847155187226	0.015189893646356095	0.0030596249014757356	0.0011307526813313033
2
283400
Ar	0.00033280950668057276	7.956575113734923e-05	0.003191925804005617	-0.016128194129390663	0.0007772234845732676	-0.003247039615765249
Ar	5.436945757572458e-05	1.3012826916316363e-05	0.002776824005814188	0.017019393362910813	0.0032780828208398036	0.002621173909079277
2
283600
Ar	0.00010898738552819013	6.885624482658397e-05	0.0031768462604614515	-0.027186106945945424	-0.0027785640409077965	0.0011620406713428327
Ar	0.00019408630185488692	3.884360764710234e-05	0.0027897559611256254	0.009924032609045369	0.0016348572142182915	-0.0008813706769318545
2
283800
Ar	-0.00017469082857061384	2.6502408135936866e-05	0.003202364015043679	-0.026830608774110153	-0.005373918460261938	0.0026976377151870256
Ar	0.0002403381142879702	4.405730128711689e-05	0.00277026183277921	-0.0013039587363448922	-0.0005786135980945249	-0.0019957257854272136
2
284000
Ar	-0.00037551797632998953	-2.8991860867381874e-05	0.0032161882567571915	-0.011396929426074686	-0.0052169515532528125	-0.000239707959198775
Ar	0.0001678313346562268	2.8342104852450433e-05	0.0027608103439376985	-0.012553659824625862	-0.002448994300330797	0.0002838357890173474
2
284200
Ar	-0.00038364261681920407	-6.855455252858434e-05	0.003198506975707048	0.009589834286315936	-0.0023751593006932936	-0.002906465522818892
Ar	1.0447342131445475e-05	-9.268604281764769e-07	0.0027750237413343296	-0.01755891446201078	-0.0031806809991456546	0.0022873474911497783
2
284400
Ar	-0.000206841277347369	-7.408806131461009e-05	0.0031751855610433703	0.024079045024581712	0.0011981668202557354	-0.0004974055525495444
Ar	-0.00015074349887823365	-2.9493303288635942e-05	0.0027938657178709176	-0.013109437294133218	-0.002179113170498759	0.00038997559399205143
2
284600
Ar	6.872724973326455e-05	-4.630459012031155e-05	0.0031961118486440233	0.02900405111787032	0.0042526252224172525	0.003484906638496664
Ar	-0.00023546909486656933	-4.1054567445597153e-05	0.002775910440802555	-0.0032196624638957706	-0.00015995863598211203	-0.0029484073384173316
2
284800
Ar	0.00031875578115558097	4.295940521966979e-06	0.003222268499485043	0.01847233969661857	0.005382809266122985	0.001128027258481653
Ar	-0.00020577694921425672	-3.30055948091864e-05	0.002753463435738925	0.008962335219160568	0.0017305475187677367	-0.0010780355000062926
2
285000
Ar	0.00040472664818630823	5.15303243640073e-05	0.0032143973400068256	-0.0019602561551979526	0.0036402307892601086	-0.0025348716702794
Ar	-7.131865126900042e-05	-9.154551565452971e-06	0.002757398985176289	0.01676520730497418	0.0028293980212653375	0.0017761647186300114
2
285200
Ar	0.000287986664892559	7.164331234825556e-05	0.0031823358181715293	-0.019953363815151517	0.0003160188649107399	-0.002889777233584602
Ar	0.00010053247161509578	1.918687057132782e-05	0.0027817203996513477	0.0159294831305499	0.0025536763547367885	0.002335839287885198
2
285400
Ar	3.7294047940727125e-05	5.873609214810057e-05	0.003179118295091408	-0.028780292776344692	-0.002825087130182609	0.00233430478403286
Ar	0.00022003096707104615	3.639500699966365e-05	0.0027851674998161957	0.007351336311073999	0.0007737110451396036	-0.001740588433516642
2
285600
Ar	-0.0002417796616867827	1.8339980585085307e-05	0.0032070343914153187	-0.024182789409978474	-0.004916478125147791	0.0022524588880339824
Ar	0.00023528731429430693	3.486572924400506e-05	0.0027656484606394262	-0.004662289873774864	-0.0010628716508831492	-0.0014170172475344144
2
285800
Ar	-0.0003997319232318364	-3.077318030276064e-05	0.0032144573594479965	-0.0059689640138535635	-0.004435695433146501	-0.0008863911139351454
Ar	0.0001335837764739095	1.6991633574549816e-05	0.0027631695516850286	-0.01477895578062486	-0.0023957006069155935	0.0009841274877621419
2
286000
Ar	-0.00035376687154057423	-6.302874788418875e-05	0.0031933215913682754	0.014413126269362711	-0.0017775217038161204	-0.0027796082097653043
Ar	-3.5532692648288156e-05	-9.079669780784585e-06	0.002782118254971901	-0.017511753766395487	-0.0026086180881705343	0.0023733584012519122
2
286200
Ar	-0.00014145455940009304	-6.501355786298802e-05	0.0031792144693942857	0.026530583943547133	0.0013194769479510815	0.0010534086285748723
Ar	-0.00018373727845521763	-2.9988638683985942e-05	0.002793655239622147	-0.010941030503329929	-0.001314188649658785	-0.0010312096192799938
2
286400
Ar	0.0001438982545700832	-3.757250963252802e-05	0.0032061128326012376	0.027919734863296217	0.004008790790308942	0.00299343716852605
Ar	-0.00024184247318284567	-3.437992790449455e-05	0.002769177025779886	1.8253664913697374e-05	0.000404261414426477	-0.0027208740944218114
2
286600
Ar	0.00036261586011822284	8.394753748981444e-06	0.0032220612992150876	0.013660415346107308	0.004733261801912998	-0.00012853469945801462
Ar	-0.00018048815519969898	-2.2828433326474257e-05	0.0027526775691752493	0.011731431409805934	0.0018109562163687628	-0.00031231244499178726
2
286800
Ar	0.00039385078740076645	4.878072611476809e-05	0.0032035772257381027	-0.007498753324525516	0.0030052000050817354	-0.0032017456165302945
Ar	-2.703950786446579e-05	-9.28536188330156e-07	0.0027635185582440755	0.017642890352532577	0.0024095693041796466	0.00224706424435772
2
287000
Ar	0.00023230432007047006	6.405720071904445e-05	0.0031735505493360443	-0.0231312659398271	4.8713949627626086e-05	-0.0015680465391478637
Ar	0.00014040203459684663	2.1293388235328164e-05	0.0027867065301584613	0.014155827109570711	0.001770103082399205	0.0013881013180656067
2
287200
Ar	-3.901138542685602e-05	5.0429574936323886e-05	0.0031864694379953504	-0.029323019980504957	-0.0027704848679390845	0.0032517376208832673
Ar	0.00023613841885354903	3.101131965669577e-05	0.0027785708428255153	0.004436519041306868	0.00017010109153559844	-0.0022259622626289036
2
287400
Ar	-0.00030113719347719985	1.2290952262706764e-05	0.003214832833562821	-0.02040259724800442	-0.004500963557431284	0.0016729297258704695
Ar	0.00021855478144927346	2.551725840135913e-05	0.0027607257111183004	-0.007903629946032085	-0.0012545209489114844	-0.0008575120650363717
2
287600
Ar	-0.0004088699900725644	-3.136283730931498e-05	0.0032139266644545536	-0.0002472846361294374	-0.003827550968195892	-0.0017694024956789135
Ar	9.12465357733214e-05	7.87076885908449e-06	0.0027649098044003604	-0.016449156520279257	-0.002107819188645019	0.0016199156967873817
2
287800
Ar	-0.00031063269889081136	-5.7897548113230115e-05	0.0031875777538682456	0.018614431014546413	-0.0012860759681259492	-0.002675170953609453
Ar	-8.271464674545046e-05	-1.3487651558594231e-05	0.0027871969556985043	-0.016668987082856884	-0.0019355092974231375	0.0021761764716602587
2
288000
Ar	-6.85391228907554e-05	-5.7024264208208996e-05	0.0031828372258479684	0.028429136018863377	0.0014327286426332902	0.0021516288713779408
Ar	-0.00021213964428999226	-2.678339691980022e-05	0.0027891950901611237	-0.008465492681337663	-0.0006252981901538972	-0.0020830962853044806
2
288200
Ar	0.00021559054813731715	-3.003799854920697e-05	0.00321030908714467	0.025544015699716614	0.003759643605018469	0.0022646190114347714
Ar	-0.00023960741304262115	-2.5914642434503855e-05	0.0027635857732781367	0.00346216114099708	0.0007593942154428296	-0.00216060343700162
2
288400
Ar	0.00039283333767703893	1.167021002780437e-05	0.0032171731057514283	0.008218187812584652	0.004167659326340223	-0.0010510693850372256
Ar	-0.00014767308330071777	-1.2883265368375544e-05	0.002754858240046999	0.014119763163051838	0.0017133659607352974	0.0005375706864223579
2
288600
Ar	0.0003681100956565149	4.6167535678498155e-05	0.0031931485361532154	-0.012627707463312312	0.002435235767704914	-0.003208526131715134
Ar	1.9431431896998723e-05	6.1525374723002126e-06	0.0027721844811219843	0.017811753049974337	0.001920907651921115	0.0025596191388800177
2
288800
Ar	0.00016835795375991076	5.734934595139747e-05	0.0031728023104188323	-0.0257254267150033	-0.00017394760938745473	0.0004051391901912899
Ar	0.00017505773306345987	2.182082549516917e-05	0.0027901859524849747	0.011920052158390718	0.0010156633057761871	-6.419787464161232e-05
2
289000
Ar	-0.00011558124689807142	4.277037810709669e-05	0.003198707444308622	-0.02862362420127697	-0.0027008309263592046	0.0034200599492078283
Ar	0.00024410759736808075	2.5205270073360784e-05	0.002772393820680263	0.0011845740448541183	-0.00030539338982082617	-0.0023387078474370188
2
289200
Ar	-0.0003490451902351245	7.2343488335796415e-06	0.0032214956559691635	-0.015739651235251107	-0.004067413854109533	0.0006780668478114397
Ar	0.00019350120112195506	1.6796181642169157e-05	0.002758004928096049	-0.010864772233032147	-0.0013117448751631467	-0.0002408082291018124
2
289400
Ar	-0.0004024657561339418	-3.124499359290544e-05	0.003210241430950828	0.005354468747258356	-0.003272573736127586	-0.002702802841981898
Ar	4.5084676581747825e-05	8.644256787703802e-07	0.002768418396296521	-0.017540483145452975	-0.0017359613646417444	0.0021563192636053123
2
289600
Ar	-0.00025746444667167713	-5.3186605757499874e-05	0.003180697173474473	0.02202492794163162	-0.0009789597637684328	-0.0020588446423328603
Ar	-0.0001262974326407153	-1.535434309065427e-05	0.002791445690627894	-0.014993738492795672	-0.0013351396758251345	0.0015388807344569855
2
289800
Ar	7.505102352523469e-06	-5.0875175937856294e-05	0.0031876002968915973	0.029354347302808795	0.0014845077261997858	0.0028220629082361167
Ar	-0.00023198348961685702	-2.2636572661677557e-05	0.0027834512340736183	-0.005592152470828035	-0.00010115206011892383	-0.0026163361257084457
2
290000
Ar	0.00027855167751082065	-2.4742936010984776e-05	0.0032134429608257245	0.022084965787619093	0.0035402663299480748	0.0015511443474777024
Ar	-0.0002263101810374409	-1.867560547658885e-05	0.0027598383819446306	0.006817205922766256	0.0008490979128536291	-0.0014920710485988844
2
290200
Ar	0.00040765623850247135	1.3694686442089163e-05	0.00321239951206331	0.0026092018613645567	0.0037923043007203464	-0.0017520342154856482
Ar	-0.00010698682229621533	-6.9540880596563184e-06	0.002758528372519372	0.01599550653222362	0.0014319346560566775	0.0012129488306175699
2
290400
Ar	0.0003302857843558787	4.4049349034747175e-05	0.0031854073556622895	-0.016990561236582026	0.0020611271407274916	-0.0028947539525800833
Ar	6.687549779267717e-05	7.757233422818869e-06	0.002779440926704718	0.01713019245531837	0.0013973914442116458	0.0024205524323991
2
290600
Ar	9.929138221348937e-05	5.3353849724599185e-05	0.0031772193242983683	-0.02781402784322581	-0.0001917120180677128	0.0019589753106962946
Ar	0.00020430080126916292	1.7648669640949558e-05	0.0027879654773158174	0.00946861329111909	0.0004638920817023405	-0.0013817741594465472
2
290800
Ar	-0.00018743844435816057	3.9153885483349475e-05	0.0032076821791410417	-0.026732788464172125	-0.0025768371250299194	0.0028784195961160156
Ar	0.00024352414764298053	1.7595673123453576e-05	0.0027663517640389985	-0.0022398779675201516	-0.00042723713045189133	-0.001959853342481498
2
291000
Ar	-0.0003831671216901796	6.029413860417068e-06	0.0032207453419400562	-0.010537241453441735	-0.003735614378864018	-0.000494577041074734
Ar	0.00016179006102668895	9.7076874936434e-06	0.0027583394189157236	-0.013394059070939313	-0.0010873182581056095	0.0005128303546823858
2
291200
Ar	-0.0003813740981128812	-2.916071028039736e-05	0.003200214169347924	0.01061327725390555	-0.002982718453988722	-0.0031458889878955907
Ar	-2.011518283843399e-06	-2.383545202915803e-06	0.002774852741690072	-0.017921113154775174	-0.001245000729953701	0.0024488143683851025
2
291400
Ar	-0.00019608766100275132	-4.9413411767949134e-05	0.003175691643584542	0.024768159247231185	-0.0009822506135612583	-0.0004459013389543448
Ar	-0.00016334696215794287	-1.2846039822333159e-05	0.0027937117711410624	-0.012813177745009764	-0.000685089086857955	0.00022904939585005843
2
291600
Ar	8.428064227846197e-05	-4.8144546986344665e-05	0.003195600552650068	0.029145010550176376	0.0013326720125343787	0.0031696834768286395
Ar	-0.00024309009431964577	-1.4851885031881468e-05	0.0027754799245904866	-0.002478054449937757	0.0002100344135676237	-0.0027731605854123638
2
291800
Ar	0.00033107135888658994	-2.3664023583394805e-05	0.003218220110319532	0.017737403610744447	0.0033297755006677712	0.0008092521987822866
Ar	-0.00020475222588169783	-9.699625140213175e-06	0.0027555898859750252	0.009830718853220346	0.0007675545656474097	-0.0007954410698155025
2
292000
Ar	0.00040686772274977566	1.2132834588600278e-05	0.0032091066622282876	-0.0031311386989672013	0.0035076334437190468	-0.002450398640257586
Ar	-6.318962876499086e-05	-7.761240816581828e-07	0.0027615660417301753	0.01727550480258063	0.0009681742204076998	0.0018911666844390288
2
292200
Ar	0.00028005205975740094	4.064490836273773e-05	0.003180129103295322	-0.020729942611231542	0.002004666169790547	-0.0023025498885813206
Ar	0.00011073400714838922	8.554932769507585e-06	0.002785246923080249	0.0157806823399491	0.0007859851823350378	0.0020312931173196
2
292400
Ar	2.347561438021755e-05	5.039193245617578e-05	0.0031838182025589823	-0.029137153715687633	-0.00010921693971228327	0.0028215777853371387
Ar	0.000226359716719625	1.2455134761042032e-05	0.002784237640597239	0.0067596751187950326	2.191644717397725e-06	-0.0020701340409979606
2
292600
Ar	-0.00025458113612019604	3.713869277782925e-05	0.003212959064319731	-0.023640565228040054	-0.0024531063714321984	0.0020752228033424835
Ar	0.00023337562655905688	9.679846984570548e-06	0.002763282901463991	-0.005599411342252874	-0.0004835922663040924	-0.0014231916500725328
2
292800
Ar	-0.0004040676300841591	5.497839106819449e-06	0.0032166377762109974	-0.00487567788608129	-0.0035733136140827415	-0.0013765696344375511
Ar	0.00012352851840495368	3.2449046679418944e-06	0.0027618206233381874	-0.01538917908420769	-0.0007801443870557202	0.001160083751933885
2
293000
Ar	-0.0003476705868431685	-2.763254259254438e-05	0.0031908739169041606	0.015286802901827419	-0.002774897037772823	-0.0030949355466467878
Ar	-4.874742482352153e-05	-4.409757554058787e-06	0.002782162347855432	-0.01748886963277622	-0.0007020920266513228	0.002418103390605927
2
293200
Ar	-0.0001289142090513051	-4.712117420765018e-05	0.003176921067766396	0.027028928916565543	-0.00106230086349936	0.00130248695801475
Ar	-0.0001934554219963465	-9.25605775209955e-06	0.002792096159463042	-0.010395078438162307	-0.00013755548884047093	-0.0013316470414043045
2
293400
Ar	0.00015781031480713103	-4.639474534372124e-05	0.003204913501734896	0.027625492630931503	0.0012814572499902322	0.0029575707444683243
Ar	-0.00024411441646554163	-7.935828673588636e-06	0.002766682464389108	0.0009612496855868703	0.0003109389069283033	-0.0026143416688704122
2
293600
Ar	0.0003700156085581493	-2.316571334423968e-05	0.003220323023114298	0.012734542358341405	0.0031610411557990103	-0.0001867652280620218
Ar	-0.00017339025486255255	-3.5279371336137893e-06	0.0027523799371139304	0.012539176611246119	0.0005183951651796218	-2.7663329413186096e-05
2
293800
Ar	0.00039119959191569816	1.118426098594087e-05	0.0032021299882297183	-0.008459694308646697	0.0033665158638852646	-0.0030700061743315563
Ar	-1.4676640094860465e-05	1.6605128768795725e-06	0.0027657193649410746	0.017835010398878047	0.0005110476185152198	0.0024497638064617357
2
294000
Ar	0.00022206392870029287	3.901109740014175e-05	0.0031750336110163984	-0.023712765872742892	0.0020153323125747537	-0.0010833458408180136
Ar	0.00015092131481916744	6.1781820236177565e-06	0.0027892281517382426	0.013619129351343774	0.0002970563010715003	0.0011717329556233946
2
294200
Ar	-5.3257063184168044e-05	4.983122223855527e-05	0.0031909674161356002	-0.02938680188696185	-7.4699667363568254e-06	0.0032110433928274613
Ar	0.00023974024302051753	6.043943392069897e-06	0.0027789320251410897	0.003573841744752348	-0.00024305829027458802	-0.0023284277918885865
2
294400
Ar	-0.0003112235489509406	3.7470781296035035e-05	0.0032168326877598883	-0.01960772284734704	-0.0023587169112922516	0.0012946188966674395
Ar	0.00021287336993323406	2.914850041363433e-06	0.00276074762549597	-0.008779744626395396	-0.00034314602007311777	-0.0008192006451794193
2
294600
Ar	-0.00040939089514745885	6.700638129906542e-06	0.0032123424349432945	0.0007628098414834784	-0.0034926130941358136	-0.0020964478609121835
Ar	7.902581408480269e-05	-6.51711815461259e-07	0.0027654629663401028	-0.016830651771201282	-0.00034250700722129895	0.001652505532624308
2
294800
Ar	-0.0003028466814455733	-2.6147258601771855e-05	0.0031842284576277073	0.019222286251538184	-0.0028391465156721325	-0.002623778252687026
Ar	-9.483062897375043e-05	-3.3454959462524216e-06	0.0027873382915477246	-0.01624654216126115	-0.00017741945455818425	0.0020145974792770225
2
295000
Ar	-5.615149109752821e-05	-4.7034749935524485e-05	0.0031824608833240274	0.028742963852150798	-0.0012260549039368233	0.0024419841178990485
Ar	-0.00021768172336642202	-3.2415763454613417e-06	0.00278696191724673	-0.0076913339792638305	0.00021630602654434123	-0.0022523854191301377
2
295200
Ar	0.0002273621340278843	-4.736503872771562e-05	0.003211267962316466	0.025084196062957233	0.001218102522808155	0.0023029995447811577
Ar	-0.00023629541534399436	-6.646373592281192e-07	0.002761519850066069	0.004362161746147486	0.00023875692484394206	-0.001993215045247253
2
295400
Ar	0.00039745484121515195	-2.4625567522149252e-05	0.003217997542566464	0.0073340576970336675	0.0031308928708992795	-0.001095610982312605
Ar	-0.00013675227519788	1.415395003286649e-06	0.0027550069007191012	0.01466644845882087	0.00016687136323164642	0.0007840058646549091
2
295600
Ar	0.000363812094115738	9.589029617280424e-06	0.003193920206649644	-0.013449023602490806	0.003401703454474022	-0.0031635426225862695
Ar	3.254077171450463e-05	2.393319712782428e-06	0.0027741878897715143	0.01768251884422512	3.736089299552184e-05	0.002633199602321134
2
295800
Ar	0.00015740512865302695	3.84258050043751e-05	0.003175028779411745	-0.026255617944806874	0.0022503892746143276	0.0005585209565764994
Ar	0.00018355555862228858	1.9992522959872325e-06	0.0027907577289436173	0.011250194602791428	-0.00019762654386720044	-0.00036898822134337234
2
296000
Ar	-0.00012874060117539738	5.1116011400647235e-05	0.003200003959048061	-0.028449421653658588	6.299686642382645e-05	0.0030808077361442784
Ar	0.00024459558833357425	-8.246909520485182e-07	0.002771589467078054	0.00028710287546363227	-0.0002872197421064677	-0.0023263393228325022
2
296200
Ar	-0.00035655690081012545	3.894582370727393e-05	0.0032188391649760773	-0.014877875622596948	-0.0024160670418156825	0.0002829527247968847
Ar	0.00018566445818346934	-2.4217024382865116e-06	0.002758123736805618	-0.011558634910405109	-3.774573049314289e-05	-0.00012414728570651646
2
296400
Ar	-0.0004002611414849659	7.316833316423486e-06	0.003205091842881046	0.0063303840488198515	-0.0035791846049954964	-0.0027444228507930734
Ar	3.2919424346416236e-05	-1.9922592964123247e-06	0.0027692590094243546	-0.017678849441346112	0.00012004459083354758	0.0021727548880862155
2
296600
Ar	-0.00024763209178342165	-2.6631511519370365e-05	0.003177914991949442	0.02255864582275909	-0.0029743820813242852	-0.0015095273261318007
Ar	-0.00013598953829145326	-5.562948213011459e-07	0.0027909144179639224	-0.014412507349246715	0.00017929235165718688	0.0011944992514508796
2
296800
Ar	2.1006173034294977e-05	-4.8765704155346666e-05	0.003190166016988721	0.029460455028126192	-0.0012715751366681122	0.0031413271088690502
Ar	-0.0002346113040857246	2.5152989410178255e-06	0.0027797558313070246	-0.004772137926449181	0.00034022347862824534	-0.0026817673806291305
2
297000
Ar	0.0002889082436606186	-4.885707986542078e-05	0.0032169787735496203	0.02136544050429182	0.0013195410738294983	0.0015098262143130932
Ar	-0.00022046362183949172	4.655945947521026e-06	0.002757038172897329	0.007610968143128983	4.5089057481376844e-05	-0.0013103477880036464
2
297200
Ar	0.00040854385663818783	-2.4331702444240756e-05	0.003214293099016294	0.0015559508548590119	0.003342733253379194	-0.001979766052752409
Ar	-9.514749727051386e-05	3.3963488613997543e-06	0.0027581585418779107	0.016363993091601713	-0.0002666458653268171	0.001510023571540321
2
297400
Ar	0.0003218032770360732	1.1639451939374789e-05	0.0031853807692278665	-0.017764564733139	0.0035359072301813024	-0.002964894336920429
Ar	7.913964458959874e-05	-4.216913278698511e-08	0.0027813474379356023	0.016836800086362343	-0.00037019843674673553	0.002494589893253755
2
297600
Ar	8.519739790585339e-05	4.189097289691411e-05	0.003178334096594063	-0.02820014018008702	0.002390914834572179	0.0020989989910354338
Ar	0.00021090448523935858	-3.945831658098085e-06	0.002788348044356986	0.008730150926414897	-0.0004538208103241203	-0.0015704417461695726
2
297800
Ar	-0.00020145239800364043	5.470094313233386e-05	0.003208047346892445	-0.026246225686017734	-1.884329676209993e-05	0.0026686996373068463
Ar	0.00024163419873774762	-7.510772016822303e-06	0.0027662583224859635	-0.0030891232135776734	-0.0001357553998456148	-0.0019320388791638308
2
298000
Ar	-0.0003890336814824201	4.074157488539642e-05	0.003218960313341723	-0.00946615417354098	-0.002655611057450052	-0.0006851723794825852
Ar	0.0001524708344718891	-6.382065010228315e-06	0.0027586637319599017	-0.013964909936991943	0.00036944393342210676	0.000545651170453882
2
298200
Ar	-0.0003764405463910864	6.753322721018126e-06	0.0031972479810888606	0.01156095660149401	-0.003820636776927237	-0.0031409406799964863
Ar	-1.3811378168135343e-05	-1.6365793771214001e-06	0.0027751980777798264	-0.017832921630185343	0.000553707211033492	0.0024127444170924483
2
298400
Ar	-0.00018411645083233296	-2.958445885819591e-05	0.00317520976903127	0.02527913623452101	-0.0032297034722415224	3.259227189906262e-05
Ar	-0.0001709751269482502	3.7783053793429455e-06	0.00279222264914276	-0.012169300030207641	0.0005506854179212677	-9.872860386507126e-05
2
298600
Ar	9.874610247145983e-05	-5.408471587538405e-05	0.0031980757079880053	0.028960856512117477	-0.0013508352523577145	0.00322927727952995
Ar	-0.0002430379275538143	9.110507382817658e-06	0.0027726221034790797	-0.001573390385574156	0.0003612530772838374	-0.0026716453176337915
2
298800
Ar	0.00033976077250432644	-5.2966023631322865e-05	0.0032197637322976458	0.016843677083433168	0.00161373809213202	0.0006103098521537103
Ar	-0.00019642887564468053	9.407735986485869e-06	0.0027548893832880133	0.010537570029842517	-0.00028964012692670745	-0.0005175736146374213
2
299000
Ar	0.00040531132068823237	-2.4897004055636495e-05	0.0032082534608558824	-0.0041603724425820846	0.0037074083595593013	-0.002645041561265009
Ar	-5.0274404564592405e-05	4.047708975704124e-06	0.0027634904071203474	0.017422819339716962	-0.0007202504659603757	0.002097537904392964
2
299200
Ar	0.0002698399181629732	1.447535766309633e-05	0.003178825588397976	-0.021354034941486806	0.0038937524145591317	-0.0021221046702584677
Ar	0.00012150857589409126	-3.5754095927113245e-06	0.0027875983166405177	0.015201816074458287	-0.0007215504963041599	0.0018292136761649987
2
299400
Ar	8.787286110645539e-06	4.8396564827544466e-05	0.0031850234813133025	-0.029317995779723903	0.002654419136115181	0.0029150599418030173
Ar	0.00022953429226131686	-1.046202072339919e-05	0.00278324908594373	0.0058908688680358945	-0.0005889957110153574	-0.002300609934121307
2
299600
Ar	-0.0002665625578058044	6.135915544053221e-05	0.0032133262094015853	-0.02292543369826235	-0.00025467784804327414	0.0019010922621795151
Ar	0.00022763777914114043	-1.306812118020673e-05	0.002761798498630863	-0.006422311217374484	0.00013107283610046974	-0.0013638246551104002
2
299800
Ar	-0.0004063697890553254	4.340834171163122e-05	0.003215220334887459	-0.0038125430808406587	-0.0031489867798599283	-0.0015298469274231039
Ar	0.00011149112617238128	-7.991285278173802e-06	0.00276127084525607	-0.015795252388467323	0.0008293285976917125	0.0012682244336650154
